&GLOBAL
  PROJECT H2O_hybrid_ML
  RUN_TYPE ENERGY_FORCE
&END GLOBAL

&FORCE_EVAL
  METHOD Quickstep
  &DFT
    BASIS_SET_FILE_NAME BASIS_MOLOPT
    POTENTIAL_FILE_NAME GTH_POTENTIALS
    &LS_SCF
      EPS_SCF 1.0E-8
      EXTRAPOLATION_ORDER 1
      MAX_SCF 25
      PURIFICATION_METHOD TRS4
      REPORT_ALL_SPARSITIES OFF
      S_PRECONDITIONER NONE
      &PAO
        MAX_PAO 0
        PARAMETERIZATION ROTINV
        &MACHINE_LEARNING
          DESCRIPTOR OVERLAP
          GP_NOISE_VAR 0.01
          GP_SCALE 1.0
          METHOD GAUSSIAN_PROCESS
          PRIOR MEAN
          TOLERANCE 1E+10  !disable check
          &TRAINING_SET
            H2_pao_rotinv-1_0.pao
          &END TRAINING_SET
        &END MACHINE_LEARNING
      &END PAO
    &END LS_SCF
    &POISSON
      PERIODIC NONE
      PSOLVER MT
    &END POISSON
    &QS
      LS_SCF
    &END QS
    &XC
      &XC_FUNCTIONAL PBE
      &END XC_FUNCTIONAL
    &END XC
  &END DFT
  &SUBSYS
    &CELL
      ABC 4.0 4.0 4.0
      PERIODIC NONE
    &END CELL
    &COORD
      O         2.6116774290        4.1629472392        4.1629480502
      H         1.8450021896        4.5850871565        4.5850871241
      H         2.2373131663        3.5277354616        3.5277353471
    &END COORD
    &KIND H
      BASIS_SET DZVP-MOLOPT-SR-GTH
      PAO_BASIS_SIZE 1
      POTENTIAL GTH-PBE
      &PAO_DESCRIPTOR
        BETA 1.0
        WEIGHT +1.0
      &END PAO_DESCRIPTOR
      &PAO_POTENTIAL
        MAXL 0
      &END PAO_POTENTIAL
    &END KIND
    &KIND O
      BASIS_SET DZVP-MOLOPT-SR-GTH
      POTENTIAL GTH-PBE
      &PAO_DESCRIPTOR
        BETA 1.0
        WEIGHT +1.0
      &END PAO_DESCRIPTOR
      ! disable pao for Oxygen
      &PAO_POTENTIAL
        MAXL 4
      &END PAO_POTENTIAL
    &END KIND
  &END SUBSYS
&END FORCE_EVAL
