################################################################################
#
# Pseudopotentials of Goedecker, Teter and Hutter (GTH)
# optimized for the exchange-correlation functional of
# Perdew-Burke-Ernzerhof (PBE).
#
################################################################################
#
# Effective potentials for Kim-Gordon and Polarizable-Force-Field codes
#
################################################################################
#
LI GTH-PADE GTH-LDA GTH
    3
     0.40000000    4   -14.03486849     9.55347627    -1.76648817     0.08436998
    0
#
I GTH-PADE GTH-LDA GTH
    2    5
         0.63883328     2    5.276795596472  1.143023343025 
    0
#
LI ELP-PADE ELP-LDA ELP
    3.0
    3.125
    1
     3.12500000    4   -14.03486849     9.55347627    -1.76648817     0.08436998
#
I ELP-PADE ELP-LDA ELP
   7.0          
    1.301330403980
    2        
      1.301330403980   2       -17.124521696970  -.000236421301
      1.159802295585   1        22.670665263710
#
