&FORCE_EVAL
  METHOD Quickstep
  &PROPERTIES
    &TDDFPT
       KERNEL FULL
       NSTATES      5
       MAX_ITER    50
       CONVERGENCE [eV] 1.0e-7
       RKS_TRIPLETS F
    &END TDDFPT
  &END PROPERTIES
  &DFT
    &QS
      METHOD GPW
    &END QS
    &EXCITED_STATES T
       STATE 1
    &END EXCITED_STATES
    &SCF
      SCF_GUESS ATOMIC 
      &OT
         PRECONDITIONER FULL_SINGLE_INVERSE
         MINIMIZER DIIS
      &END
      &OUTER_SCF
         MAX_SCF  10
         EPS_SCF 1.0E-6
      &END
      MAX_SCF  50
      EPS_SCF 1.0E-6
    &END SCF

    &XC
      DENSITY_CUTOFF  1.0E-9
      GRADIENT_CUTOFF 1.0E-9
      &XC_FUNCTIONAL
        &BECKE88
          SCALE_X 0.95238
        &END
        &BECKE88_LR
          OMEGA 0.33
          SCALE_X -0.94979
        &END
        &LYP
          SCALE_C 1.0
        &END
        &XALPHA
          SCALE_X -0.13590
        &END
      &END XC_FUNCTIONAL
      &HF
       &SCREENING
         EPS_SCHWARZ 1.0E-7
       &END
       &MEMORY
         MAX_MEMORY 100
       &END
       &INTERACTION_POTENTIAL
         POTENTIAL_TYPE MIX_CL_TRUNC
         OMEGA 0.33
         SCALE_LONGRANGE 0.94979
         SCALE_COULOMB 0.18352
         ! should be cell L/2 but large enough for the erf to decay
         CUTOFF_RADIUS 2.5
         T_C_G_DATA t_c_g.dat
       &END
      &END
    &END XC

    &MGRID
       CUTOFF  200
       REL_CUTOFF  40
    &END
    &POISSON
       PERIODIC NONE
       POISSON_SOLVER MT
    &END
  &END DFT
  &SUBSYS
    &CELL
      ABC [angstrom] 4.0 4.0 4.0
      PERIODIC NONE
    &END
    &COORD
    O   0.000000    0.000000    0.000000
    H   0.000000   -0.757136    0.580545
    H   0.000000    0.757136    0.580545
    &END COORD
    &TOPOLOGY
     &CENTER_COORDINATES
     &END
    &END
    &KIND H
      BASIS_SET DZV-GTH-PADE
      POTENTIAL GTH-PADE-q1
    &END KIND
    &KIND O
      BASIS_SET DZVP-GTH-PADE
      POTENTIAL GTH-PADE-q6
    &END KIND
  &END SUBSYS
  &PRINT
     &FORCES
     &END
  &END
&END FORCE_EVAL
&GLOBAL
  PRINT_LEVEL LOW
  PROJECT ftest
  RUN_TYPE ENERGY_FORCE
&END GLOBAL
