&GLOBAL
  PRINT_LEVEL LOW
  PROJECT h2o_pbe0_admm_pbex
  RUN_TYPE ENERGY
&END GLOBAL

&FORCE_EVAL
  METHOD Quickstep
  &DFT
    BASIS_SET_FILE_NAME BASIS_SET
    BASIS_SET_FILE_NAME BASIS_ADMM
    MULTIPLICITY 3
    POTENTIAL_FILE_NAME POTENTIAL
    UKS
    &AUXILIARY_DENSITY_MATRIX_METHOD
      ADMM_PURIFICATION_METHOD NONE
      ADMM_TYPE NONE
      EXCH_CORRECTION_FUNC PBEx
      EXCH_SCALING_MODEL NONE
      METHOD BASIS_PROJECTION
    &END AUXILIARY_DENSITY_MATRIX_METHOD
    &MGRID
      CUTOFF 100
    &END MGRID
    &QS
    &END QS
    &SCF
      IGNORE_CONVERGENCE_FAILURE
      MAX_SCF 10
      SCF_GUESS atomic
    &END SCF
    &XC
      &HF
        FRACTION 0.25
        &INTERACTION_POTENTIAL
          CUTOFF_RADIUS 10.0
          POTENTIAL_TYPE TRUNCATED
          T_C_G_DATA ./t_c_g.dat
        &END INTERACTION_POTENTIAL
        &SCREENING
          EPS_SCHWARZ 1.0E-12
        &END SCREENING
      &END HF
      &XC_FUNCTIONAL
        &PBE
          SCALE_C 1.0
          SCALE_X 0.75
        &END PBE
      &END XC_FUNCTIONAL
    &END XC
  &END DFT
  &PROPERTIES
    &TDDFPT
      CONVERGENCE 1.0e-5
      MAX_ITER 10
      MAX_KV 10
      NSTATES 3
      SPINFLIP COLLINEAR
      &XC
        &XC_FUNCTIONAL PBE
        &END XC_FUNCTIONAL
        &XC_GRID
          XC_DERIV SPLINE2_SMOOTH
        &END XC_GRID
      &END XC
    &END TDDFPT
  &END PROPERTIES
  &SUBSYS
    &CELL
      ABC 5.0 5.0 5.0
    &END CELL
    &COORD
      O   0.000000    0.000000   -0.065587 H2O
      H   0.000000   -0.757136    0.520545 H2O
      H   0.000000    0.757136    0.520545 H2O
    &END COORD
    &KIND H
      BASIS_SET DZVP-GTH-PADE
      BASIS_SET AUX_FIT cFIT3
      POTENTIAL GTH-PADE-q1
    &END KIND
    &KIND O
      BASIS_SET DZVP-GTH-PADE
      BASIS_SET AUX_FIT cFIT3
      POTENTIAL GTH-PADE-q6
    &END KIND
  &END SUBSYS
&END FORCE_EVAL
