&FORCE_EVAL
  METHOD Quickstep
  STRESS_TENSOR ANALYTICAL
  &PRINT
    &FORCES
    &END FORCES
    &STRESS_TENSOR
     COMPONENTS
    &END STRESS_TENSOR
  &END
  &DFT
    BASIS_SET_FILE_NAME GTH_BASIS_SETS
    POTENTIAL_FILE_NAME GTH_POTENTIALS
    BASIS_SET_FILE_NAME BASIS_ADMM
    &AUXILIARY_DENSITY_MATRIX_METHOD
      ADMM_PURIFICATION_METHOD NONE
      EXCH_CORRECTION_FUNC DEFAULT
      EXCH_SCALING_MODEL NONE
      METHOD BASIS_PROJECTION
    &END
    &MGRID
      CUTOFF 200
      REL_CUTOFF 20
    &END MGRID
    &QS
      EPS_DEFAULT 1.E-10
    &END QS
    &ENERGY_CORRECTION
      ENERGY_FUNCTIONAL DCDFT
      HARRIS_BASIS ORBITAL 
      &RESPONSE_SOLVER
        METHOD AO_ORTHO
        PRECONDITIONER MULTI_LEVEL
      &END
      &XC
        &XC_FUNCTIONAL PBE
        &END
      &END XC
    &END ENERGY_CORRECTION
    &SCF
      EPS_SCF 1.0E-6
      SCF_GUESS ATOMIC 
    &END
    &XC
      &XC_FUNCTIONAL  NONE
      &END
      &HF
        &SCREENING
          EPS_SCHWARZ 1.0E-14
        &END
      &END
    &END XC
    &POISSON
      PERIODIC NONE
      POISSON_SOLVER MT
    &END
  &END DFT
  &SUBSYS
    &CELL
      ABC 4.0 4.0 4.0
      PERIODIC NONE
    &END CELL
    &COORD
    N     0.400000     0.000000     0.500000    
    N    -0.400000     0.000000    -0.500000   
    &END COORD
    &KIND N
      BASIS_SET ORB DZVP-GTH
      BASIS_SET AUX_FIT FIT3
      POTENTIAL GTH-PADE-q5
    &END KIND
  &END SUBSYS
&END FORCE_EVAL
&GLOBAL
  PROJECT N2
  RUN_TYPE CELL_OPT
  PRINT_LEVEL LOW
&END GLOBAL
&MOTION
  &CELL_OPT
     MAX_ITER 1
  &END
&END
