&FORCE_EVAL
  METHOD Quickstep
  &DFT
    BASIS_SET_FILE_NAME GTH_BASIS_SETS
    POTENTIAL_FILE_NAME GTH_POTENTIALS
    &MGRID
      CUTOFF 200
    &END MGRID
    &QS
      EPS_DEFAULT 1.E-10
    &END QS
    &ENERGY_CORRECTION
      ENERGY_FUNCTIONAL HARRIS
      HARRIS_BASIS ORBITAL
      &RESPONSE_SOLVER
         METHOD MO_SOLVER
         PRECONDITIONER FULL_SINGLE_INVERSE
      &END
      &XC
        &XC_FUNCTIONAL PADE
        &END
      &END XC
    &END ENERGY_CORRECTION
    &SCF
      EPS_SCF 1.0E-7
      SCF_GUESS ATOMIC 
    &END
    &XC
       &XC_FUNCTIONAL
          &MGGA_X_TPSS
          &END
       &END
    &END XC
    &POISSON
       PERIODIC NONE
       POISSON_SOLVER MT
    &END
  &END DFT
  &SUBSYS
    &CELL
      ABC 4.0 4.0 4.0
      PERIODIC NONE
    &END CELL
    &COORD
    N     0.400000     0.000000     0.500000    
    N    -0.400000     0.000000    -0.500000   
    &END COORD
    &KIND N
      BASIS_SET ORB DZVP-GTH
      POTENTIAL GTH-PADE-q5
    &END KIND
  &END SUBSYS
&END FORCE_EVAL
&GLOBAL
  PROJECT N2_tpss_pade
  RUN_TYPE GEO_OPT
  PRINT_LEVEL LOW
&END GLOBAL
&MOTION
  &GEO_OPT
     MAX_ITER 1
  &END
&END

