&GLOBAL
  PRINT_LEVEL LOW
  PROJECT O2-HF-uks
  RUN_TYPE ENERGY
&END GLOBAL

&FORCE_EVAL
  METHOD Quickstep
  &DFT
    AUTO_BASIS RI_XAS MEDIUM
    BASIS_SET_FILE_NAME EMSL_BASIS_SETS
    MULTIPLICITY 3
    POTENTIAL_FILE_NAME POTENTIAL
    UKS
    &POISSON
      PERIODIC NONE
      PSOLVER MT
    &END POISSON
    &QS
      METHOD GAPW
    &END QS
    &XAS_TDP
      EXCITATIONS OS_SPIN_CONS
      &DONOR_STATES
        DEFINE_EXCITED BY_KIND
        KIND_LIST O
        LOCALIZE
        N_SEARCH 2
        STATE_TYPES 1s
      &END DONOR_STATES
      &GW2X
      &END GW2X
      &KERNEL
        &EXACT_EXCHANGE
          FRACTION 1.0
        &END EXACT_EXCHANGE
        &XC_FUNCTIONAL NONE
        &END XC_FUNCTIONAL
      &END KERNEL
    &END XAS_TDP
    &XC
      &HF
        FRACTION 1.0
      &END HF
      &XC_FUNCTIONAL NONE
      &END XC_FUNCTIONAL
    &END XC
  &END DFT
  &SUBSYS
    &CELL
      ABC 5.0 5.0 5.0
      PERIODIC NONE
    &END CELL
    &COORD
      O  0.00000000  0.00000000  -0.00423076
      O  0.00000000  -0.00000000  1.21423076
    &END COORD
    &KIND O
      BASIS_SET 6-31G*
      POTENTIAL ALL
    &END KIND
    &TOPOLOGY
      &CENTER_COORDINATES
      &END CENTER_COORDINATES
    &END TOPOLOGY
  &END SUBSYS
&END FORCE_EVAL
