&FORCE_EVAL
  METHOD Quickstep
  &DFT
    BASIS_SET_FILE_NAME ../../../data/GTH_BASIS_SETS
    POTENTIAL_FILE_NAME ../../../data/GTH_POTENTIALS
    &MGRID
      CUTOFF 200
    &END MGRID
    &QS
    &END QS
    &SCF
      MAX_SCF 4
      SCF_GUESS ATOMIC
      &OT
        ALGORITHM IRAC
        ORTHO_IRAC CHOL
        EPS_IRAC_SWITCH 0.0E0
        MINIMIZER CG
        PRECONDITIONER FULL_ALL
      &END OT
    &END SCF
    &XC
      &XC_FUNCTIONAL Pade
      &END XC_FUNCTIONAL
    &END XC
  &END DFT
  &SUBSYS
    &CELL
      ABC 4.00 4.00 4.00
    &END CELL
    &COORD
 O    0.000000    0.000000    0.119173
 H    0.000000    0.759392   -0.476691
 H    0.000000   -0.759392   -0.476691
    &END COORD
    &KIND H
      BASIS_SET DZVP-GTH
      POTENTIAL GTH-PADE-q1
    &END KIND
    &KIND O
      BASIS_SET DZVP-GTH
      POTENTIAL GTH-PADE-q6
    &END KIND
  &END SUBSYS
&END FORCE_EVAL
&GLOBAL
  PROJECT h2o_ot_chol_1
  RUN_TYPE ENERGY
  PRINT_LEVEL LOW
&END GLOBAL
