&FORCE_EVAL
  METHOD Quickstep
  &DFT
    LSD
    MULTIP 2
    BASIS_SET_FILE_NAME GTH_BASIS_SETS
    POTENTIAL_FILE_NAME GTH_POTENTIALS
    &MGRID
      CUTOFF 50
    &END MGRID
    &QS
    &END QS
    &SCF
      MAX_SCF 3
      SCF_GUESS ATOMIC
      &OT
        ALGORITHM IRAC
        ORTHO_IRAC LWDN
        EPS_IRAC_SWITCH 0.0E0
        MINIMIZER DIIS
        PRECONDITIONER FULL_S_INVERSE
        PRECOND_SOLVER DEFAULT
      &END OT
    &END SCF
    &XC
      &XC_FUNCTIONAL PADE
      &END XC_FUNCTIONAL
    &END XC
  &END DFT
  &SUBSYS
    &CELL
      ABC 4.00 4.00 4.00
    &END CELL
    &COORD
 O   0.000000    0.000000    0.542338
 N   0.000000    0.000000   -0.619815
    &END COORD
    &KIND N
      BASIS_SET SZV-GTH
      POTENTIAL GTH-PADE-q5
    &END KIND
    &KIND O
      BASIS_SET SZV-GTH
      POTENTIAL GTH-PADE-q6
    &END KIND
  &END SUBSYS
&END FORCE_EVAL
&GLOBAL
  PROJECT no_ot_precond_10
  RUN_TYPE ENERGY
  PRINT_LEVEL LOW
&END GLOBAL
