&GLOBAL
  PRINT_LEVEL MEDIUM
  PROJECT scalable_GW
  RUN_TYPE ENERGY
  &TIMINGS
    THRESHOLD 0.01
  &END TIMINGS
&END GLOBAL

&FORCE_EVAL
  METHOD Quickstep
  &DFT
    BASIS_SET_FILE_NAME HFX_BASIS
    POTENTIAL_FILE_NAME GTH_POTENTIALS
    SORT_BASIS EXP
    &MGRID
      CUTOFF 100
      REL_CUTOFF 20
    &END MGRID
    &QS
      EPS_DEFAULT 1.0E-15
      EPS_PGF_ORB 1.0E-15
      METHOD GPW
    &END QS
    &SCF
      ADDED_MOS -1
      EPS_SCF 1.0E-5
      MAX_SCF 100
      SCF_GUESS ATOMIC
    &END SCF
    &XC
      &XC_FUNCTIONAL PBE
      &END XC_FUNCTIONAL
    &END XC
  &END DFT
  &PROPERTIES
    &BANDSTRUCTURE
      &GW
        NUM_TIME_FREQ_POINTS 6
      &END GW
    &END BANDSTRUCTURE
  &END PROPERTIES
  &SUBSYS
    &CELL
      ABC [angstrom] 8.000 8.000 8.000
      PERIODIC XY
    &END CELL
    &COORD
      H  -3.7  0.0  -0.4
      H   3.7  0.4   0.0
    &END COORD
    &KIND H
      BASIS_SET ORB DZVP-GTH
      BASIS_SET RI_AUX RI_DZVP-GTH
      POTENTIAL GTH-PBE-q1
    &END KIND
  &END SUBSYS
&END FORCE_EVAL
