&FORCE_EVAL
  &DFT
    &QS
      METHOD SCPTB
      &SCPTB
        DISPERSION .FALSE.
        DO_EWALD .FALSE.
        PARAMETER_FILE_NAME ../nm12_parameters.xml
      &END SCPTB
    &END QS
    &SCF
      SCF_GUESS CORE
      &MIXING
          METHOD DIRECT_P_MIXING
          ALPHA   1.
      &END
    &END SCF
  &END DFT
  &SUBSYS
    &CELL
      ABC 20.0 20.0 20.0
      PERIODIC NONE
    &END CELL
    &COORD
     H      0.000000    0.000000    0.000000   
     H      0.729177    0.000000    0.000000   
    &END COORD
  &END SUBSYS

&END FORCE_EVAL
&GLOBAL
  PROJECT h2
  RUN_TYPE ENERGY
  PRINT_LEVEL HIGH
&END GLOBAL
