&FORCE_EVAL
  &DFT
    &QS
      METHOD SCPTB
      &SCPTB
        DISPERSION .TRUE.
        DISPERSION_PARAMETER_FILE ../../../data/dftd3.dat
        DO_EWALD .FALSE.
        DO_SCP   .FALSE.
        PARAMETER_FILE_NAME ../../../data/nm12_parameters.xml
      &END SCPTB
    &END QS
    &SCF
      SCF_GUESS ATOMIC
      EPS_SCF   1.e-7
      MAX_SCF   10000
      &OT
         MINIMIZER DIIS
         PRECONDITIONER FULL_KINETIC
      &END
    &END SCF
  &END DFT
  &SUBSYS
    &CELL
      ABC 20.0 20.0 20.0
      PERIODIC NONE
    &END CELL
    &COORD
     H      0.000000    0.000000    0.000000
     F      1.050000    0.000000    0.000000
    &END COORD
  &END SUBSYS
&END FORCE_EVAL
&GLOBAL
  PROJECT HF
  RUN_TYPE ENERGY
  PRINT_LEVEL LOW
&END GLOBAL
