&FORCE_EVAL
  &DFT
    &QS
      METHOD SCPTB
      EXTRAPOLATION USE_GUESS
      &SCPTB
        DISPERSION .FALSE.
        DISPERSION_PARAMETER_FILE ../../../data/dftd3.dat
        DO_EWALD .FALSE.
        DO_SCC   .FALSE.
        DO_SCP   .FALSE.
        PARAMETER_FILE_NAME ../../../data/nm12_parameters.xml
      &END SCPTB
    &END QS
    &SCF
      SCF_GUESS ATOMIC
      EPS_SCF   1.e-7
      MAX_SCF   1000
      &MIXING
         ALPHA 1.000
      &END MIXING
    &END SCF
    &KPOINTS
       SCHEME  MONKHORST-PACK  1 1 1
       SYMMETRY OFF
       EPS_GEO 1.e-8
       FULL_GRID ON
       VERBOSE T
       PARALLEL_GROUP_SIZE   0
    &END KPOINTS
	&PRINT
	   &MULLIKEN OFF
	   &END MULLIKEN
	&END PRINT
  &END DFT
  &SUBSYS
    &CELL
      ABC 5.431 5.431 5.431
    &END CELL
    &COORD
     SCALED
     Si     0.000000    0.000000    0.000000
     Si     0.500000    0.500000    0.000000
     Si     0.500000    0.000000    0.500000
     Si     0.000000    0.500000    0.500000
     Si     0.250000    0.250000    0.250000
     Si     0.250000    0.750000    0.750000
     Si     0.750000    0.250000    0.750000
     Si     0.750000    0.750000    0.250000
    &END COORD
  &END SUBSYS
  &PRINT
    &DISTRIBUTION OFF
	&END DISTRIBUTION
  &END PRINT
&END FORCE_EVAL
&GLOBAL
  PROJECT Si
  RUN_TYPE ENERGY
  PRINT_LEVEL MEDIUM
&END GLOBAL
