&GLOBAL
  PROJECT He_nmr_full
  PRINT_LEVEL LOW
  RUN_TYPE LINEAR_RESPONSE
&END GLOBAL
&FORCE_EVAL
  &DFT
    BASIS_SET_FILE_NAME ../../../data/GTH_BASIS_SETS
    POTENTIAL_FILE_NAME ../../../data/GTH_POTENTIALS
    &MGRID
      CUTOFF 50
    &END MGRID
    &QS
    &END QS
    &SCF
      MAX_SCF 5
      SCF_GUESS ATOMIC
    &END SCF
    &XC
      &XC_FUNCTIONAL BLYP
      &END XC_FUNCTIONAL
    &END XC
  &END DFT
  &PROPERTIES
    &LINRES
       MAX_ITER 100
       &LOCALIZE
       &END
       PRECONDITIONER FULL_ALL
       &CURRENT
          GAUGE R_AND_STEP_FUNCTION
       &END CURRENT
       &NMR
       &END
    &END
  &END
  &SUBSYS
    &CELL
      ABC 4.5 4.5 10.0
    &END CELL
    &COORD
 He  0.0 0.0 0.0 
 He  1.5 0.0 0.0 
 He  3.0 0.0 0.0 
 He  0.0 1.5 0.0 
 He  1.5 1.5 0.0 
 He  3.0 1.5 0.0 
 He  0.0 3.0 0.0 
 He  1.5 3.0 0.0 
 He  3.0 3.0 0.0 
    &END COORD
    &KIND He
      BASIS_SET DZVP-GTH
      POTENTIAL GTH-BLYP-q2
    &END KIND
  &END SUBSYS
&END FORCE_EVAL
