&GLOBAL
  PREFERRED_DIAG_LIBRARY SL
  PRINT_LEVEL MEDIUM
  PROJECT H2O-32-RI-RPA-TZ
  RUN_TYPE ENERGY
&END GLOBAL

&FORCE_EVAL
  METHOD Quickstep
  &DFT
    BASIS_SET_FILE_NAME ./BASIS_H2O
    POTENTIAL_FILE_NAME POTENTIAL
    WFN_RESTART_FILE_NAME ./H2O-32-PBE-TZ-RESTART.wfn
    &MGRID
      CUTOFF 800
      REL_CUTOFF 50
    &END MGRID
    &QS
      EPS_DEFAULT 1.0E-12
    &END QS
    &SCF
      EPS_SCF 1.0E-6
      MAX_SCF 30
      SCF_GUESS RESTART
      &OT
        MINIMIZER CG
        PRECONDITIONER FULL_ALL
      &END OT
      &OUTER_SCF
        EPS_SCF 1.0E-6
        MAX_SCF 20
      &END OUTER_SCF
      &PRINT
        &RESTART OFF
        &END RESTART
      &END PRINT
    &END SCF
    &XC
      &WF_CORRELATION
        MEMORY 3000
        NUMBER_PROC 1
        &INTEGRALS
          &WFC_GPW
            CUTOFF 200
            EPS_FILTER 1.0E-12
            EPS_GRID 1.0E-8
            REL_CUTOFF 35
          &END WFC_GPW
        &END INTEGRALS
        &RI_RPA
          MINIMAX_QUADRATURE
          RPA_NUM_QUAD_POINTS 16
        &END RI_RPA
      &END WF_CORRELATION
      &XC_FUNCTIONAL PBE
      &END XC_FUNCTIONAL
    &END XC
  &END DFT
  &SUBSYS
    &CELL
      ABC 9.8528 9.8528 9.8528
    &END CELL
    &KIND H
      BASIS_SET cc-TZ
      BASIS_SET RI_AUX RI-cc-TZ
      POTENTIAL GTH-PBE-q1
    &END KIND
    &KIND O
      BASIS_SET cc-TZ
      BASIS_SET RI_AUX RI-cc-TZ
      POTENTIAL GTH-PBE-q6
    &END KIND
    &TOPOLOGY
      COORD_FILE_FORMAT cp2k
      COORD_FILE_NAME ./H2O-32.xyz
    &END TOPOLOGY
  &END SUBSYS
&END FORCE_EVAL
