#CPQA INCLUDE ./H2O-32.xyz
#CPQA INCLUDE ./BASIS_H2O
#CPQA INCLUDE ./H2O-32-HF-TZ.inp
#CPQA INCLUDE ./H2O-32-PBE-TZ.inp
#CPQA INCLUDE ./H2O-32-RI-MP2-TZ.inp
&GLOBAL
  PROJECT RI-MP2
  PROGRAM FARMING
  RUN_TYPE NONE
  &PRINT OFF
  &END PRINT
  &TIMINGS OFF
  &END TIMINGS
&END GLOBAL
&FARMING
  NGROUP 1
  # calculate DFT wave function
  &JOB
    DIRECTORY .
    INPUT_FILE_NAME  H2O-32-PBE-TZ.inp
    OUTPUT_FILE_NAME H2O-32-PBE-TZ.inp.log
  &END JOB
  # calculate HF wave function (using DFT guess)
  &JOB
    DIRECTORY .
    INPUT_FILE_NAME  H2O-32-HF-TZ.inp
    OUTPUT_FILE_NAME H2O-32-HF-TZ.inp.log
  &END JOB
  # calculate RI-MP2 correlation energy (three times)
  &JOB
    DIRECTORY .
    INPUT_FILE_NAME  H2O-32-RI-MP2-TZ.inp
    OUTPUT_FILE_NAME result.log
  &END JOB
  &JOB
    DIRECTORY .
    INPUT_FILE_NAME  H2O-32-RI-MP2-TZ.inp
    OUTPUT_FILE_NAME result.log
  &END JOB
  &JOB
    DIRECTORY .
    INPUT_FILE_NAME  H2O-32-RI-MP2-TZ.inp
    OUTPUT_FILE_NAME result.log
  &END JOB
&END FARMING
