
&FORCE_EVAL
  &MM
    &FORCEFIELD
      parmfile water.pot
      parmtype CHM
      &CHARGE
        ATOM O
        CHARGE -0.8476
      &END CHARGE
      &CHARGE
        ATOM H
        CHARGE 0.4238
      &END CHARGE
      &NONBONDED
        &LENNARD-JONES 
  	  ATOMS O O
          EPSILON 78.19580 
          SIGMA 3.2655 
          RCUT 5.0
        &END LENNARD-JONES
        &LENNARD-JONES 
  	  ATOMS O H
          EPSILON 0.0
          SIGMA 3.1655 
          RCUT 5.0
        &END LENNARD-JONES
        &LENNARD-JONES 
  	  ATOMS H H 
          EPSILON 0.0
          SIGMA 3.1655 
          RCUT 5.0
        &END LENNARD-JONES
      &END NONBONDED
    &END FORCEFIELD
    &POISSON_MM
      &EWALD
        EWALD_TYPE ewald
        ALPHA .40
        GMAX 11
      &END EWALD
    &END POISSON_MM
  &END MM
  &SUBSYS
    &CELL
      ABC 13.5 13.5 13.5
      UNIT ANGSTROM
    &END CELL
    &COORD
 O      11.667599837210      7.964352234664      0.059453614019
 H      10.873359634781      8.005423314626      0.665667823055
 H      11.364979095795      7.770411108906     -0.873716837951
 O       2.314161441602      5.011228167767      2.784706973673
 H       1.663128370368      5.686998340596      3.130381117447
 H       2.659721328394      5.306531429441      1.893985965664
 O       0.642162229044      6.771126426871      1.132197763265
 H       1.174103801202      6.545007709389      0.316165601268
 H      -0.212924468549      7.212926626058      0.860832899248
 O      13.451567873107     11.645049663051      6.563478432872
 H      12.969012403968     11.858990730162      7.412813136631
 H      14.110953270878     12.369671853810      6.363145850174
 O       1.814222417474      1.909306250901      9.270493845857
 H       1.868103480245      2.707330866468      8.670282596358
 H       2.374093108697      1.170984841379      8.894427533654
 O       2.815726709019      6.571631009528     10.666716707538
 H       2.159432974875      7.104101042341     10.132156889855
 H       3.531458906730      6.221305833829     10.062565022731
 O       8.794247079455      9.210433389456      7.763250539987
 H       8.717708399871     10.057380374638      8.289389908234
 H       8.423874591570      9.353564305596      6.845461170420
 O       7.042895922834      9.376378553230     10.136838396359
 H       6.612125836220      8.720928154977      9.516498241356
 H       7.681904592558      8.896208810398     10.737758111388
 O       1.534946770934      4.263137270973      7.714844853231
 H       1.425756169594      4.889514328477      8.486679806062
 H       1.100598405233      4.654794689773      6.903706437585
 O       3.827656951369     10.654350056111     13.161953799987
 H       3.970622824125      9.716322187687     12.846256987705
 H       3.560068648495     11.229157382563     12.388653985267
 O       8.379914380538     11.244072176617      4.272366456888
 H       7.831215841012     10.466271988328      4.578890158775
 H       7.986881238016     12.090997441825      4.630475532246
 O       2.171488216134     11.865767443921      1.396897807457
 H       2.159238127265     12.763576427305      0.956683127242
 H       2.607507017213     11.202323526137      0.788844077196
 O       6.712666130027      2.763172609724      0.676667847316
 H       7.703690597706      2.874936461527      0.750011871553
 H       6.301066145059      3.625027364034      0.380371710532
 O      11.618717274047      3.090667651226     12.946719773153
 H      12.617808617861      3.123003316188     12.918954840453
 H      11.309299413509      2.163108078700     12.737212272522
 O      13.386404056672      5.833519186348      6.018972582484
 H      13.761111125136      6.227336163409      5.179625930962
 H      12.868903989432      6.532253649788      6.512899091017
 O       8.979582235789      0.479737384097      7.507272922698
 H       9.892116425655      0.625681009473      7.125197261947
 H       9.000074780284     -0.302638087032      8.129742394738
 O       2.114638662539      2.795316525936      4.262206061340
 H       2.184542585166      3.655284869325      3.756668832275
 H       3.021079410234      2.524609023335      4.586369885320
 O       2.507536854868      0.813886487906     13.362425524989
 H       3.483250402087      0.776035152493     13.578180826613
 H       2.123874012152      1.672191442516     13.703182027256
 O       0.747449020205      7.198735384441      3.799325685019
 H       0.784325438973      7.226545970209      2.800392903967
 H       0.253957043609      8.000221507315      4.137090736054
 O       6.248755593743      1.984313222947      3.407298784376
 H       6.400395492890      1.502584323279      2.544198206106
 H       5.932240272847      2.914016984392      3.218967869707
 O      13.473546739589     10.285182715905      2.536907956619
 H      12.695702073731     10.481771745356      1.939990517356
 H      14.324840543147     10.412429232549      2.027882662699
 O       3.420720818953     12.336278184278      4.234148419905
 H       2.798957088271     11.614557377869      3.929962718720
 H       4.335881580072     12.163111225996      3.870151782983
 O      11.680721653518      1.138525031718      6.989059802630
 H      12.195924436621      0.706456257476      7.729250768941
 H      12.293563238062      1.715203322974      6.448812723532
 O      11.466901106480     10.834547504086      0.929606997597
 H      10.492508312721     10.886387083760      1.148402201956
 H      11.614794175261     10.134880350679      0.230612662519
 O       8.258673301714     11.797882743931      9.354857461724
 H       9.050260895049     12.016764958160      9.925365707387
 H       7.813229173561     10.973813657017      9.704842082119
 O       8.869484805687     10.487948521408      1.813306382231
 H       8.878658534111     10.854478094850      2.743667556453
 H       7.995146885909     10.703794184138      1.378630160494
 O      13.038248634154      9.407771178407      5.012583991386
 H      12.968831612091      9.685128616759      4.054328217369
 H      13.278271061696     10.200756444238      5.572551104952
 O      12.358892392439     12.965659979102      9.184033972015
 H      11.486759631346     13.021587981122      9.670096216610
 H      13.105418476820     12.896241011553      9.845758520530
 O       4.934674874301      5.535883910218      9.411005040733
 H       4.805213091059      4.633811979298      8.999294125008
 H       5.818597319245      5.907865347165      9.127613989861
 O       1.934211567297      0.038152262081      6.117280380200
 H       2.378444483180     -0.654838802888      5.549459545499
 H       1.527889584047      0.739020005740      5.531032635940
 O       7.161301482632      6.036463835583      2.559861615070
 H       6.395672024897      5.457166951877      2.839551897308
 H       7.948724058399      5.855659669313      3.149162138110
 O       0.749093060237      0.266911639194     11.270820391253
 H       1.040832692451      0.947900675999     10.599149401299
 H       1.399254538644      0.248093961558     12.030383102837
 O       7.294467602246     -0.042836945259      5.225736306938
 H       8.165217347932      0.341346565432      5.532653088004
 H       6.858535524979      0.589341336115      4.585179197546
 O       9.481230170627      3.324733298453      1.217404915996
 H       9.843138148886      3.485565479505      2.135639975668
 H      10.236570249498      3.136591645842      0.589660023840
 O      13.049448721102      3.023143574353      5.422420332066
 H      12.875523768130      3.976675851844      5.668441279377
 H      13.839870788898      2.975326004268      4.811727282689
 O       6.556866832839      9.514613798701      5.518777131561
 H       6.739801223395      8.557917221433      5.745198570026
 H       5.905518593358      9.893989285877      6.175906705146
 O       5.094397844013      0.453993154632      0.293600554398
 H       5.774159434281      1.185416318944      0.239338826606
 H       5.528469767475     -0.421023053805      0.079292910898
 O       4.323833849802      1.646608890328      5.357605010037
 H       4.999147549196      1.714140393866      4.623172641851
 H       3.795679192821      0.804516144067      5.248371174483
 O       2.433742326409     10.398618721212      9.332529992486
 H       2.628033602817     11.234138513963      8.818567371441
 H       2.757474499189     10.502879746388     10.272916447493
 O       1.117264528262      7.737242194085      8.647222886312
 H       0.135027358725      7.550935814434      8.624860514278
 H       1.268664344578      8.725472886648      8.669080601673
 O       6.548160483577     11.106666011890      0.059952103149
 H       7.021095640989     10.847375415684     -0.782129082724
 H       5.560828684886     11.106589928533     -0.098715723866
 O       9.557682677508      5.825554082765      4.015408857348
 H      10.256279229100      6.487120552344      4.287975664630
 H       9.998376834163      4.976939155970      3.722764137361
 O       4.754303615719      5.756777674202      5.752879018931
 H       4.541999486973      5.116400804016      6.491014793059
 H       4.104924515696      6.516947880306      5.774035767981
 O      10.102287074930      0.209099458152     10.554151698795
 H      10.567810229669      0.228154815468     11.438982239497
 H      10.056147122612      1.136030301466     10.181767646587
 O       3.296581471942     12.922094761041      8.457171771610
 H       4.234729021017     12.912700216605      8.111063524527
 H       2.661762490637     13.054265821235      7.695899653608
 O       5.048997162368      4.451618353438      3.311151284554
 H       4.231700545459      4.669869189266      2.777866358224
 H       5.005156662206      4.918446838041      4.194411575936
 O      12.113719488751      6.827309439282      9.498441099458
 H      11.659101145094      7.089517200914      8.647224763061
 H      11.609590529272      6.078415642065      9.928570892113
 O       8.119791604111      8.013068414823     12.342832283776
 H       8.557098344913      8.263412652918     13.206597632063
 H       7.751056787456      7.086132277509     12.412284412261
 O       2.895647407460      8.006346906821      5.824605671236
 H       2.331513696198      7.984087811600      6.649989029741
 H       2.321052714489      8.216967856595      5.033733165612
 O       7.552802580491      5.475681513266     13.386624397532
 H       8.110917552519      4.650385635477     13.300633746290
 H       7.701995084179      5.886742280285     14.285940920502
 O       3.682470190592     12.665974256319     11.056240243835
 H       3.491287382151     12.880828480900     10.098489338882
 H       3.933134172369     13.503317379716     11.542062873778
 O       7.540104161970      6.619355230135      5.844163161890
 H       6.573933222982      6.361655368773      5.833940730280
 H       8.014452740885      6.164230482979      5.090601979217
 O       7.398842013658      6.246668484607      8.793847524317
 H       8.113632716929      6.945640473769      8.771211073946
 H       7.167005419711      5.976625361515      7.859327288472
 O       9.361782412296      7.798948850769      1.446535444167
 H       9.115485364267      7.106758400963      2.124923345984
 H       9.094246886883      8.702827999698      1.780341963872
 O       2.836569320252      3.821206427973     11.243124579904
 H       2.686876946154      4.721557275999     10.834516523698
 H       2.493125818765      3.113631986643     10.625561192804
 O       4.055386719216      3.663305490090      7.468169306049
 H       3.978263818550      2.815760510928      6.943079250449
 H       3.156874869751      4.097204875881      7.534557145342
 O      10.421301477740      3.187425006325      3.950228409239
 H       9.758685408001      2.534824214041      4.317722831013
 H      11.337107581942      2.951222821927      4.275047240924
 O      11.586364997051      0.218025090734     12.872184523780
 H      12.438165550308     -0.051844914688     12.423178958509
 H      11.358988955198     -0.447439095360     13.583139598620
 O       4.282892535680      7.995116709737     12.349920706578
 H       5.212107360177      8.075300763454     11.989184892630
 H       3.714607556130      7.492597506078     11.698363957096
 O      10.262864742466      5.548805003571     11.360725453725
 H      10.424041748648      4.666485986338     11.802918991113
 H       9.436479204754      5.494708086386     10.800225647804
 O       5.937092785694     12.752770338234      7.554822749656
 H       6.459679552548     12.731874699056      8.407152758147
 H       6.560379344025     12.890048310674      6.784973290144
 O       1.052476316752      3.192494253568      0.284763135867
 H       1.009686510209      3.892635795528      0.997483876183
 H       1.385134340137      3.601676794269     -0.564888471374
 O      11.621014134223      7.899470257763      6.835708666826
 H      10.723243819476      8.290315257093      7.038806299646
 H      12.107936378358      8.496446358905      6.198114886544
 O       3.255054397643      5.532098285916     13.500752220167
 H       3.169785700155      4.860242146843     12.764995074351
 H       3.889107504717      6.253294143532     13.221731148935
    &END COORD
    &TOPOLOGY
      CONN_FILE topology_64.psf
      CONNECTIVITY PSF
    &END TOPOLOGY
  &END SUBSYS
&END FORCE_EVAL
&GLOBAL
  FFTLIB FFTSG
  PROGRAM Fist
  PROJECT H2O_MC
  RUN_TYPE MC
  PRINT_LEVEL LOW
&END GLOBAL
&MOTION
  &MC
    IUPTRANS 6400000
    IUPVOLUME 3200000
    LBIAS no
    LSTOP no
    NMOVES 1
    NSTEP 10
    NVOLMOVES 1
    PMSWAP 0.0
    PMTRAION 0.00
    PMTRANS 0.50
    PMVOLUME 0.05
    PRESSURE 1.013
    PROGRAM traditional
    RESTART no
    RESTART_FILE_NAME mc_restart_1
    RMDIHEDRAL 3.0
    RMANGLE 3.0
    RMBOND 0.074
    RMROT 26.0
    RMTRANS 0.38
    RMVOLUME 1.0
    TEMP 298.0
    IPRINT 64
  &END MC
&END MOTION
