
&FORCE_EVAL
  METHOD FIST
  &MM
    &FORCEFIELD
      &SPLINE
        EMAX_SPLINE 1000000.0
      &END
      &CHARGE
        ATOM Ar
        CHARGE 0.0
      &END CHARGE
      &NONBONDED
        &LENNARD-JONES
      ATOMS Ar Ar
          EPSILON 114.98
          SIGMA 3.4
          RCUT 17.0
        &END LENNARD-JONES
      &END NONBONDED
    &END FORCEFIELD
    &POISSON
      &EWALD
        EWALD_TYPE none
      &END EWALD
    &END POISSON
  &END MM
  &SUBSYS
    &CELL
      ABC 36.4725257 36.4725257 36.4725257
    &END CELL
    &COORD
Ar               19.4011        12.7247        20.3114
Ar               10.8409        34.6074        15.1609
Ar               11.9614        23.7141         4.3930
Ar               14.4487         6.4748        13.8530
Ar               16.9010        19.4856        22.9489
Ar               11.2420        34.9831        21.4633
Ar                8.6170        28.0040        32.9723
Ar                8.1074        24.5435        11.4120
Ar               12.4555         7.6907        32.2034
Ar                4.8355        28.8214         9.4589
Ar               18.3594         8.3384         4.0392
Ar               18.5416        25.0903        20.4931
Ar               25.4921        35.6996        11.5849
Ar               31.1923        12.4535        16.3252
Ar               33.4717         8.8716        31.4569
Ar               23.3132         1.6130        19.3175
Ar               14.4129        20.4047         5.1556
Ar                5.9455        25.8901        22.9029
Ar               17.9798        18.1791        36.0355
Ar               33.3867         8.7958        35.2230
Ar               23.0158         7.4130        26.5273
Ar               22.3014         6.1130        35.7290
Ar                9.3391         2.6904         7.3858
Ar                2.2816        19.5466        17.8350
Ar               34.8713        32.3399        16.6647
Ar               31.6745        27.9901        18.1579
Ar                6.5134        25.4207         1.3542
Ar               28.1386         4.0476         4.8123
Ar               16.9529        29.5430        20.9334
Ar               30.5497         5.4745        26.4848
Ar                5.1594         5.3940         2.2124
Ar               29.7711        15.5770         3.4479
Ar               10.1473         2.8821        30.6781
Ar               22.7083        16.0812        14.7639
Ar               14.2553         4.1536         0.9914
Ar               34.0254        20.4313        25.5413
Ar               23.8019         4.4020        32.7703
Ar               20.3799        14.9351        17.3777
Ar               17.9612         6.7042        12.7546
Ar                0.0379        13.9538        33.3739
Ar                8.7597         3.4615        27.4738
Ar                0.4281        10.1033         8.8558
Ar                0.6330        29.2984        23.1242
Ar               35.0481         6.4929        14.2664
Ar               34.7044        14.8006        23.7584
Ar                1.4788        34.6118        26.8612
Ar                4.6879         5.7082        13.2357
Ar               16.3105        20.8802         9.5557
Ar               18.3772         4.0180        10.3575
Ar               28.1080         1.0456        22.1191
Ar               25.2824         3.5277        21.9851
Ar               18.8247        32.8237        11.7000
Ar               16.9882        12.7136        13.7481
Ar                5.9830        14.4740        10.2808
Ar               15.8273         2.1771         3.7951
Ar                9.8312        14.6448        22.0170
Ar                6.5762        28.5912        20.2593
Ar               17.5563         5.2886        16.8538
Ar               14.9090        26.6202        22.2063
Ar               34.0239        14.2030        36.1083
Ar               21.3307        25.0903         9.9213
Ar                0.5903        32.0706         2.4770
Ar               16.3274        35.8355        33.1307
Ar                5.4088        15.6991        35.0261
Ar               35.6133         2.7079        23.3248
Ar               12.2337        19.2947        17.9670
Ar                2.3945        21.3840        21.7038
Ar                2.8917        25.9300         2.0355
Ar               23.8944         0.6850         8.6553
Ar               10.2278        26.8696        13.3658
Ar                8.3640         4.6155         4.4198
Ar               19.6683         1.9866        17.9327
Ar               19.8133        31.8542        19.3303
Ar               31.2849        19.1758        31.7200
Ar               28.9382         3.6831        14.9321
Ar                4.1016        14.5105        13.0980
Ar                7.6523        11.0461        16.8000
Ar               13.0461        22.0446        15.7089
Ar                6.9319        12.4413        13.2073
Ar               16.4759        21.4315        13.4488
Ar               34.4399        23.6401        27.3351
Ar               20.4759        15.1227        31.2229
Ar               21.7132        26.2658        13.8644
Ar                5.8833        32.2813        19.9233
Ar               25.5821        27.1094        16.7924
Ar               11.9107        33.0100        18.3758
Ar                3.5963        11.5025        10.9951
Ar               10.7740        35.2455        33.8300
Ar                3.6094        29.5778        33.3478
Ar               33.0857         3.4714        34.8708
Ar               15.2455        10.9716         3.1064
Ar               16.7046        30.7694        24.4229
Ar                1.1648         6.9355        22.3268
Ar                0.1535         0.7726         8.3305
Ar                3.1409        14.7908        27.9077
Ar                0.4675         2.0274        34.7078
Ar               35.8593        12.2913        20.0726
Ar               29.5194        26.4862        31.4083
Ar               33.4790        33.4772        21.5929
Ar               16.5114        35.9441        10.8206
Ar                5.5643         5.4177        26.8666
Ar               17.1807         9.4188        19.4202
Ar               27.2901         9.7223        30.7647
Ar               16.0745        23.4517         7.1588
Ar               19.8467        31.3986        22.9430
Ar               21.0866        18.0512        25.1862
Ar               17.2467        10.0035        28.2900
Ar               24.3671         0.9880         2.0060
Ar               27.1218         9.0352        27.2323
Ar               35.4861        15.8116         2.5559
Ar                6.5862        27.8434        12.5139
Ar                0.1573        28.8797        32.4541
Ar               34.2386        32.9885         0.5318
Ar               32.4760         9.2142        14.6308
Ar               36.2977        10.4110        32.7530
Ar                3.5878        29.8096         0.8929
Ar               26.9345        24.4473         5.6247
Ar               31.7292        31.3055        27.6518
Ar               27.5669        27.7800        34.5197
Ar                6.7714        17.5806        20.8934
Ar               12.5051        29.4483        12.5519
Ar               34.2990        22.0132         9.6838
Ar               21.5980        10.1194        21.9573
Ar                7.2932        31.2618        12.4018
Ar               21.2609         7.6897        30.7202
Ar               27.3181        25.4880         9.2740
Ar               19.1245        22.4539        16.5877
Ar               18.6207        11.4253        23.3089
Ar               32.4885        36.4400        27.6825
Ar               11.4752        16.1091        35.9582
Ar               11.0039        25.4034        35.4166
Ar               25.9390        17.7269        10.1803
Ar               23.6496        30.0538        31.4100
Ar                2.5764        33.0141         8.1861
Ar                8.0703        10.4136        27.9649
Ar               31.0492        17.5494        20.9564
Ar               31.9107        11.1632         6.3657
Ar               16.5049         9.1934        10.5784
Ar               12.2337        25.7773        20.1904
Ar                4.1806         9.2345         1.1814
Ar               18.6124        26.0882        23.7300
Ar               15.8969        24.3058        15.5474
Ar                7.0049        13.2867        20.1140
Ar                0.3257        23.6585         7.6395
Ar               18.2358         6.2300         7.4959
Ar               15.0372        32.8257         4.7067
Ar               20.3519        18.2606        33.0563
Ar               23.4470        13.9031        29.6891
Ar                3.0251        26.9591         6.9583
Ar               26.6525        34.9525        35.9387
Ar               11.3608         8.6718        16.4896
Ar               12.2437        29.2040        21.5262
Ar                1.4078        28.6237        16.9018
Ar                1.8773        14.6813        24.6330
Ar               14.0358        17.2885        28.6403
Ar               23.7742         9.8219        18.8940
Ar               18.0781        15.3457        10.5638
Ar               29.6913        23.3890        16.5526
Ar               35.8010         3.3863        31.1547
Ar               28.3734        20.9727        31.0441
Ar               32.3554        17.0713         1.7019
Ar               31.0963         8.6213        24.6084
Ar                2.1647        14.9543         4.4935
Ar                3.3495        33.1478        22.7055
Ar                0.2519         9.0955        15.9261
Ar               25.2343        30.4088        18.2511
Ar               26.5238        21.8739        35.9448
Ar               21.3969        29.0417        17.6967
Ar               11.2640         6.3225         1.9144
Ar               26.8619        21.2149        20.5058
Ar               33.8268        30.3741        23.8931
Ar                4.7230        10.4622        18.7377
Ar               22.4052        31.9502         5.7017
Ar                9.0183        35.3387        25.1465
Ar               12.1470        22.6634        30.1322
Ar               10.1107        23.1914        14.0377
Ar                7.8610        18.8479        27.5021
Ar               29.3922        13.8805        33.6167
Ar               26.4852        32.3517        21.6816
Ar                7.6783        22.8342        24.6793
Ar               35.8624        19.6498        11.8485
Ar                5.9520        36.3146        32.1249
Ar               28.7564        12.2310         4.5385
Ar               21.2888        24.4706        34.4719
Ar               12.9945        15.1047        15.7490
Ar               28.5971        32.6699        30.8642
Ar                3.5961        29.9841        14.1109
Ar               27.5748        28.2111        12.0411
Ar                9.6493        23.7991         1.6205
Ar               34.3012        14.9451        15.0595
Ar                2.1421        15.1213         0.3458
Ar               19.0854        28.8533        12.9210
Ar                1.7818        34.9978        10.8841
Ar                4.4255         4.9542         6.1303
Ar               16.8887         6.2073        31.5867
Ar               25.4382        21.3881         3.9602
Ar               11.5974        33.2627        29.3528
Ar               21.6817        28.4941        35.0846
Ar                6.4372        18.0851        10.2838
Ar               33.3599         1.0313         6.7321
Ar               22.1408        14.0067        22.0469
Ar               12.8192        18.9656         8.6512
Ar                3.9748         9.4453        22.6233
Ar                7.2714        32.5107         8.9661
Ar               18.1817         4.0991         0.5455
Ar               15.5901        26.7650        18.6693
Ar                2.9054         3.0483        21.6186
Ar                3.7306        17.7115        14.5547
Ar                5.2993        13.1861        32.4073
Ar               30.0086        15.3767        30.3242
Ar               27.1284         9.2294        10.6589
Ar               35.2629        34.1860         6.7564
Ar               33.4475        31.5170        13.1163
Ar               12.6346        15.5653         7.3441
Ar               32.9382        25.3783        11.5237
Ar               15.7413        32.8134         8.5211
Ar               24.0350        10.3675        29.6122
Ar               24.3721        12.8058        14.2647
Ar                4.4106        11.5510         4.1504
Ar               14.5417         0.6730        21.8440
Ar               15.3794        16.3718        23.0426
Ar                3.8887         1.8082        27.4400
Ar                7.9936        21.3357        17.6243
Ar               23.3415        17.5231        18.4556
Ar               24.6236         4.6200         2.7205
Ar               27.6938        23.7074        33.1826
Ar               17.4925        16.6906        26.1731
Ar                0.6299        31.8821        34.9887
Ar               22.2560         4.5126        12.5810
Ar               24.7521        35.6119        21.7810
Ar               22.8868        12.0850         2.5002
Ar                7.7738        28.1662        16.0867
Ar                1.6571         8.8717        19.6472
Ar                3.3240        35.3172        19.7837
Ar               20.3922        35.1941        24.1577
Ar                5.6275         8.8721        25.9214
Ar               23.7979         2.4031        25.7241
Ar               21.9730        21.2480        31.1489
Ar               27.6564         6.5339        16.6837
Ar               22.5968        33.6463        13.3773
Ar               13.2602        11.6491         9.7864
Ar               21.7754        25.4941        18.7112
Ar                5.0914        25.0244         8.7165
Ar               22.2219        31.0614        27.0688
Ar                9.6883        20.8191        10.2351
Ar               14.6674        22.4299        33.1867
Ar               24.4757        24.4399        26.9316
Ar                2.4217         2.6458        17.9678
Ar               24.3511        29.6668        14.2696
Ar                5.0764        21.2442        27.1117
Ar               24.0617        27.6906        10.5983
Ar               14.2661        12.6953        33.6824
Ar               15.2327         3.7880        34.0561
Ar                8.1026         1.8112        16.7131
Ar                4.7614        33.9986        13.8584
Ar                3.3275        16.2321        31.3378
Ar               13.2807         4.5176        30.5597
Ar               19.2520        30.2890         4.1170
Ar               12.8204        19.0971        32.1253
Ar               27.2815        12.4888         1.5149
Ar               22.4010        35.7416        15.8780
Ar                9.7755         7.7096         4.8017
Ar               32.1610        35.0501        17.4116
Ar               17.8906        21.4862        20.1876
Ar               13.7303        13.6628        29.0995
Ar               17.2559        17.2478         3.8672
Ar                9.9437        17.2986        19.5553
Ar               28.4450        16.4641         0.4091
Ar               32.5431         2.7077        25.4724
Ar               10.0728        31.3177        35.1497
Ar               26.2725        27.3618         3.5522
Ar               34.7888        19.5314         2.1405
Ar               10.8661         2.2309        25.0622
Ar                7.4661        10.3959         9.7783
Ar               34.9022        35.4664         3.4314
Ar               18.8795        14.9635        23.6722
Ar                8.5803        29.0321        23.1239
Ar               21.6919        27.3051         6.8051
Ar                2.9540        23.8937        34.1835
Ar                0.2250        15.8632         8.5141
Ar               35.4828         2.2753         1.5618
Ar                3.0993        14.0306         8.0727
Ar               26.0360        15.2535        16.9154
Ar               34.5375         8.8263        21.6371
Ar               36.0287        19.2230        22.6663
Ar                5.9570        35.2858        10.7319
Ar               32.2214         2.4825         3.1972
Ar                4.7294         5.9063        23.4637
Ar                6.0789        18.0316        17.1387
Ar               18.4797        33.2180        26.4274
Ar                8.3068        10.8630         5.9826
Ar               19.5682         1.4124         2.4339
Ar               11.0569        22.5266        19.6249
Ar               18.1300        27.1579         7.7559
Ar               22.8685        20.3046        34.9924
Ar               31.0880         7.8925        20.8285
Ar                3.9897         0.2044        35.3711
Ar               32.6681        20.4738        21.7558
Ar               26.4197        34.0556        14.6397
Ar               31.0707        20.7046         1.9397
Ar               24.1919         0.2215        33.6540
Ar               26.7404        24.2559         1.7489
Ar               12.1298        20.2035         2.5161
Ar               22.2729         6.3890        22.7407
Ar               24.3015        22.9658        33.2963
Ar               21.5233         3.6979         9.0776
Ar               13.8438         0.1480        13.2848
Ar               29.7319         0.8750        29.6312
Ar               21.0165        26.4922         1.7533
Ar               32.0911        33.7059        30.5083
Ar                8.0220        26.1534        25.6941
Ar               22.4950         4.4373        28.5987
Ar               19.4408        33.6446         7.4024
Ar                6.0082         7.8611        34.6319
Ar               17.0753        23.7923        27.2680
Ar               27.2477        22.2196        11.0444
Ar               26.1909        36.0047        25.9403
Ar               16.8772        19.3874        31.7870
Ar               26.4087         6.0740        13.2405
Ar               24.5607        30.0299        23.9489
Ar               24.8228        10.1239        36.3226
Ar               25.3442         6.7108         5.8653
Ar               32.6931        23.5322        23.5863
Ar               28.7120        15.3649        26.8264
Ar               20.1894         0.1984         9.3581
Ar                8.7860        20.4824        21.5369
Ar               28.1479        26.5926        19.4907
Ar                6.6478         3.0445        30.5334
Ar               22.2554        21.3730         5.2597
Ar                1.1753        27.3503        35.4653
Ar               29.4426        16.4325        11.0069
Ar               17.8347        13.8726        34.7375
Ar                9.3481         6.5753        10.6211
Ar                2.5352        29.1996         4.3963
Ar               24.1580        17.8574        22.1130
Ar                0.7088        21.2372        35.0787
Ar               25.7381         0.2923         5.7259
Ar               27.5657        30.4743        15.4327
Ar               34.9122        26.8663        24.9587
Ar               17.1896        16.1551        14.5385
Ar               20.8566        18.4009        21.5540
Ar                6.3954        29.6072        30.5102
Ar                2.2071         0.1773        23.7226
Ar               27.7867         6.3523        32.5804
Ar               13.0447        24.5029        12.7234
Ar               26.4660        12.7806        27.5845
Ar               24.6358        10.6317         5.3569
Ar               18.2728        26.4156         4.3208
Ar                2.3200        29.3195        29.0592
Ar               11.6979        17.6489        22.6190
Ar                0.4688         8.8018         0.6188
Ar               10.3421        35.2604         7.1045
Ar                1.0414        35.4297         0.7563
Ar               34.2771        13.1614         8.9537
Ar               34.8751        33.4019        27.6881
Ar               10.3066        10.5485        11.8734
Ar               26.5458         2.0666        31.2882
Ar               30.0227        34.9892        20.2611
Ar               29.3682        11.0578        13.5483
Ar                4.9825        20.8022         3.9240
Ar                5.8997         3.3008        34.1868
Ar               12.6887        13.6896        18.9850
Ar                0.8497        13.8863        11.4361
Ar               20.5238         6.8041        14.8964
Ar               10.6299        18.6781        14.5195
Ar               34.8425        29.8758        27.5565
Ar               34.8550         4.2526         8.6460
Ar               22.5686        27.3705        25.6722
Ar                7.8276         4.2100        13.2049
Ar               10.6896         2.6784         1.2507
Ar               32.1955        24.4252        19.0617
Ar               16.0916        17.5075         7.9303
Ar               21.6107        27.9467        28.9637
Ar               33.0889        11.8140        24.2694
Ar                9.0782         5.1505        23.9507
Ar                4.1748        32.9804        32.7503
Ar                1.1420        21.5233         4.1539
Ar                9.1918        35.5711        18.5919
Ar               19.5130         3.0318         6.0641
Ar               34.9805        36.4259        14.7991
Ar               21.2634         9.1691        34.8893
Ar                5.2749         1.7833        14.0857
Ar                9.6555        29.3926         3.7089
Ar                8.1445        12.0868         2.9771
Ar               32.8114        14.4622        27.5691
Ar               10.8414        19.8410         6.1850
Ar                3.3519        20.4712        11.4287
Ar                2.8940         2.6405         2.2402
Ar               12.1434         8.4679        24.1736
Ar               32.7076        12.2627        33.5544
Ar                2.6349        23.5575        18.7259
Ar               15.6226        23.7876         3.5251
Ar               22.1586        34.2872        30.8213
Ar               18.9140        11.6793        16.7447
Ar                3.4027        12.6614        21.3347
Ar               28.8288        13.5493        20.0483
Ar                7.2184        13.6596        26.3001
Ar                9.0206        28.2888         0.2320
Ar                5.1940        26.5135        34.7228
Ar               15.0304        20.8897        29.3542
Ar               16.2978        29.4330        10.0208
Ar               15.5515         2.9337        19.2063
Ar                7.5396         4.7913        20.6397
Ar               24.2531        21.0929        17.7404
Ar               31.7733         5.6352        16.4136
Ar               24.4923        11.9899        32.8001
Ar               10.9628        26.1591        10.0306
Ar               22.1327        36.0327        27.3145
Ar               26.7407        12.6608        24.0457
Ar               10.1285        13.9490         5.4306
Ar               34.0577         4.7735         5.2438
Ar                5.8311        19.8258        23.5272
Ar               34.8802        22.5352        13.5721
Ar                4.6136        30.1815        23.2438
Ar               30.1560        29.6200         0.1189
Ar               10.2283         6.3446        29.6615
Ar               17.2266        30.0543        27.9941
Ar                1.0962        35.1187        33.4232
Ar               29.6431        31.0811        11.2864
Ar                3.9925        33.1643         0.3555
Ar               22.8665        22.9589         1.0503
Ar                5.5120        14.8785        23.3145
Ar               16.0322         3.0637         7.2955
Ar               24.3408        23.6838         7.9895
Ar               23.9344        15.9943        32.5302
Ar               31.4418        34.6907         7.8315
Ar               18.8043        21.9982        29.5823
Ar                2.6869        20.9678        31.9125
Ar               13.8939        27.3022        15.1096
Ar               35.7962        17.2184        35.7952
Ar               10.2628        20.5877        25.2236
Ar               33.2858         6.0598        24.0148
Ar               20.6858         4.8437         2.9410
Ar               13.8192        24.9597        25.0188
Ar                0.1635        25.8077         4.4069
Ar               19.7157        11.1375         1.3865
Ar               21.0722        10.2476         5.1220
Ar               36.4131        32.8024        24.2755
Ar                8.3170        32.5903        27.9132
Ar               12.9220        12.2933        23.0498
Ar               12.7038        13.3785         2.3220
Ar               14.6628         7.4271        28.5301
Ar                7.8258         8.2516        22.6590
Ar               16.2085        14.3810         1.2810
Ar               32.4622         3.8336        20.8450
Ar                2.8036        31.2935        25.9450
Ar               22.6495        17.8725        29.2280
Ar               32.6673        17.9426        15.9678
Ar               13.1875         9.8365        20.5683
Ar                2.1505         8.1566        13.1383
Ar               28.7175        34.0988        23.8094
Ar               17.8138        32.6407        33.7077
Ar               25.4219         3.4042        17.1014
Ar                4.7587        11.6818        28.7095
Ar                5.1901        13.7731         1.5644
Ar               30.1462        23.1053         9.1429
Ar               19.9162        19.8661         1.8347
Ar               20.8646         6.8282        10.3681
Ar               32.3820        32.5245         4.8245
Ar               34.2364        15.4210         5.8531
Ar               15.1915        14.4828         4.9648
Ar                7.5836         6.7573         7.6883
Ar               20.6729        15.0186        27.5522
Ar               12.5164         3.7526        22.3613
Ar               21.2178         2.3957        35.8885
Ar               25.2771        24.1171        19.0842
Ar               35.7701        21.0685        19.2425
Ar               30.8559         9.7887         2.5626
Ar               10.7041        25.4081        16.7077
Ar               24.7329        27.0788         0.0928
Ar               11.6229        26.7858        31.3936
Ar               29.4315        24.4589        12.9902
Ar                0.8194         6.9747         6.6533
Ar               14.0781        17.1890         2.4268
Ar               28.4766        17.6398         6.0366
Ar                0.4775         9.9406        29.1622
Ar               14.8980        16.8325        34.5875
Ar               11.4206        26.5284         2.7864
Ar               29.2308         0.1234        15.5094
Ar               19.6263        18.5985         8.4705
Ar                4.9131        34.7620        25.9307
Ar               36.1622        12.1589         5.8508
Ar               18.8225        15.1771         6.4937
Ar                2.2518         0.3056        15.0688
Ar                1.4976         7.3457        33.3354
Ar                7.2483        32.4511        16.3506
Ar               22.6075        16.7796         8.2886
Ar                2.8566        17.8101        22.9406
Ar               14.0215         6.2046        17.3579
Ar               21.2094        11.7618        32.1764
Ar                0.8972        23.8023        11.5893
Ar                1.0167         5.8098        17.1724
Ar               14.5039        26.4095         5.8505
Ar               36.0810        23.4720        24.2104
Ar               31.2467        26.7597        34.6784
Ar               13.0180        11.6375         6.0577
Ar               23.8459        15.0726        11.5529
Ar               27.3490        29.2361         8.7787
Ar               36.3607         4.1984        20.1868
Ar               28.3661         9.3018         0.2434
Ar               32.1876        18.8847        11.2833
Ar               16.0250        29.7940         6.4529
Ar               34.3611        28.6005        20.5588
Ar               12.6737        29.3447         4.8757
Ar               14.1472        27.1556         1.0682
Ar               30.1265         0.5965        35.7493
Ar               27.8715         0.0871         8.7194
Ar               19.5694        34.8626         0.1831
Ar               31.0258        14.4423        23.4379
Ar               13.8187        32.1148        15.6774
Ar                4.1539        26.7628        15.4664
Ar               31.4466        33.9468        34.7623
Ar               29.8814         0.8051         5.4700
Ar               11.1946        19.4686        28.5442
Ar               25.1586        19.1748        13.9688
Ar               14.8184        25.8621         9.6686
Ar               12.3059        15.5203        32.3403
Ar               10.4737        31.9656        24.7871
Ar               26.9730        22.0778        14.9308
Ar                3.0449         2.2325        31.4715
Ar               11.2440        26.4995         6.5266
Ar               26.6479        13.7085        30.8848
Ar               32.8949         6.3452         1.2683
Ar               35.9754         6.7783        30.3285
Ar               24.6011         8.2390        33.0250
Ar                9.4148         1.6699        22.1471
Ar                6.2317        36.0728        28.9187
Ar               31.7708         0.3749        22.9303
Ar               22.7274        11.8288        11.0942
Ar                7.4778        34.3093        35.1383
Ar               20.9740        24.6992        31.0666
Ar               29.6618        27.1156         6.1889
Ar                1.8791         4.4395        28.7922
Ar               19.6365        18.6418        17.5185
Ar               31.8033        18.1343         5.1206