
&FORCE_EVAL
  METHOD kg
  &DFT
    &XC
      &XC_FUNCTIONAL
        &PADE
        &END
        &KE_GGA
          FUNCTIONAL  LLP
        &END
      &END
    &END XC
    &MGRID
      CUTOFF 50
    &END MGRID
    &QS
      eps_core_charge 1.0E-96
      eps_ppl 1.0E-96
      eps_pgf_orb 1.0E-10
      eps_gvg_rspace 1.0E-10
      eps_rho 1.0E-10
      method  KG_NOPOL
    &END QS
    &SCF
      SCF_GUESS ATOMIC
    &END SCF
  &END DFT
  &SUBSYS
    &CELL
     ABC 5.0 5.0 5.0
      UNIT ANGSTROM
    &END CELL
    &COORD
     O          2.8618391587       1.1262212638       0.8067716497
     H          3.7885812039       1.2213178792       0.4837188849
     H          2.4050791412       1.6367607407       0.0086990777
     O          1.2482936756       0.6926552354       3.5876311084
     H          2.0049860962       0.0755517129       3.2546387846
     H          1.1567427889       1.2966422959       2.8169934311
     O          4.8631825886       4.1751225282       1.5320584673
     H          4.0339593053       4.7472306483       1.6023778687
     H          4.5959779716       3.3785364775       1.1011958798
    &END COORD
    &KIND O
      BASIS_SET KG-FEDPD-BARKER
      POTENTIAL ELP
    &END KIND
    &KIND H
      BASIS_SET KG-FEDPD-BARKER
      POTENTIAL ELP
    &END KIND
    &TOPOLOGY
      &MOL_SET
        &MOLECULE
          NMOL 3
          CONN_FILE_NAME topology_atoms_WAT.psf
        &END
      &END
      CONNECTIVITY MOL_SET
    &END TOPOLOGY
  &END SUBSYS
&END FORCE_EVAL
&GLOBAL
  FFTLIB FFTSG

  PROJECT h2o
  RUN_TYPE MC
  PRINT_LEVEL LOW
&END GLOBAL
&MOTION
  &MC
    IUPTRANS 100
    IUPVOLUME 100
    LBIAS no
    LSTOP no
    NMOVES 1
    NSTEP 10
    PMSWAP 0.0
    PMSWAP_MOL 1.0
    PMTRAION 0.00
    PMTRAION_MOL 1.0 
    PMTRANS 0.5
    PMTRANS_MOL 1.0
    PMROT_MOL 1.0 
    PMVOLUME 0.2
    PMVOL_BOX 1.0
    PRESSURE 1.013
    ENSEMBLE traditional
    RESTART no
    RESTART_FILE_NAME mc_restart_1
    RMDIHEDRAL 1.0
    RMANGLE 3.0
    RMBOND 0.074 
    RMROT 26.0 
    RMTRANS 0.38 
    RMVOLUME 1.0
    TEMPERATURE 298.0
    IPRINT 1
    AVBMC_ATOM 1
    NSWAPMOVES 4
    PMAVBMC 0.5
    PMAVBMC_MOL 1.0
    AVBMC_RMIN 2.0
    AVBMC_RMAX 4.0
    PBIAS 0.5 
    VIRIAL_TEMPS 300.0
  &END MC
&END MOTION

