
&FORCE_EVAL
  &DFT
    &MGRID
      CUTOFF 100
    &END MGRID
    &QS
    &END QS
    &SCF
      SCF_GUESS ATOMIC
    &END SCF
    &XC
      &XC_FUNCTIONAL Pade
      &END XC_FUNCTIONAL
      &XC_GRID
        XC_DERIV SPLINE2
        XC_SMOOTH_RHO NONE
      &END XC_GRID
    &END XC
  &END DFT
  &SUBSYS
    &CELL
      ABC 5.54977 5.54977 5.54977
      UNIT ANGSTROM
    &END CELL
    &COORD
    O        1.2800787584      4.9190590225      5.4068869361    H2O
    H        0.3351791612      4.6586967171      5.6190711999    H2O
    H        1.4116643764      4.4305766295      4.5105787575    H2O
    O        4.4875783856      1.4836711271      3.0006603483    H2O
    H        4.9671230827      1.7095861893      3.8177730188    H2O
    H        5.1098422204      0.8203811616      2.5526968144    H2O
    O        2.4481880011      0.6611554391      2.0397458635    H2O
    H        3.1297716132     -0.0493997260      2.1196285754    H2O
    H        2.6496458696      1.1605962687      1.2407561637    H2O
    &END COORD
    &KIND H
      BASIS_SET DZVP-GTH-Pade
      POTENTIAL GTH-BLYP-q1
    &END KIND
    &KIND O
      BASIS_SET DZVP-GTH-Pade
      POTENTIAL GTH-BLYP-q6
    &END KIND
    &TOPOLOGY
      CONN_FILE topology_3.psf
      CONNECTIVITY PSF
    &END TOPOLOGY
  &END SUBSYS
&END FORCE_EVAL
&GLOBAL
  FFTLIB FFTSG
  PROGRAM Quickstep
  PROJECT H2O_MC
  RUN_TYPE MC
  PRINT_LEVEL LOW
&END GLOBAL
&MOTION
  &MC
    IUPTRANS 6400000
    IUPVOLUME 3200000
    LBIAS no
    LSTOP yes
    NMOVES 1
    NSTEP 2
    NVOLMOVES 1
    PMSWAP 0.0
    PMTRAION 0.33
    PMTRANS 0.67
    PMVOLUME 0.00
    PRESSURE 1.013
    PROGRAM traditional
    RESTART no
    RESTART_FILE_NAME mc_restart_1
    RMANGLE 3.0
    RMDIHEDRAL 3.0
    RMBOND 0.074
    RMROT 26.0
    RMTRANS 0.38
    RMVOLUME 100.5
    TEMP 298.0
  &END MC
&END MOTION
