
&FORCE_EVAL
  &DFT
    &MGRID
      CUTOFF 100
    &END MGRID
    &QS
    &END QS
    &SCF
      SCF_GUESS ATOMIC
    &END SCF
    &XC
      &XC_FUNCTIONAL Pade
      &END XC_FUNCTIONAL
      &XC_GRID
        XC_DERIV SPLINE2
        XC_SMOOTH_RHO NONE
      &END XC_GRID
    &END XC
  &END DFT
  &SUBSYS
    &CELL
      ABC 5.04977 5.04977 5.04977
      UNIT ANGSTROM
    &END CELL
    &COORD
     O          1.8618391587       2.1262212638       0.8067716497
     H          2.7885812039       2.2213178792       0.4837188849
     H          1.4050791412       2.6367607407       0.0086990777
     O          1.2482936756       0.6926552354       3.5876311084
     H          2.0049860962       0.0755517129       3.2546387846
     H          1.1567427889       1.2966422959       2.8169934311
     O          1.8631825886       4.1751225282       1.5320584673
     H          1.0339593053       4.7472306483       1.6023778687
     H          1.5959779716       3.3785364775       1.1011958798
    &END COORD
    &KIND H
      BASIS_SET DZVP-GTH-Pade
      POTENTIAL GTH-BLYP-q1
    &END KIND
    &KIND O
      BASIS_SET DZVP-GTH-Pade
      POTENTIAL GTH-BLYP-q6
    &END KIND
    &TOPOLOGY
      CONN_FILE topology_3.psf
      CONNECTIVITY PSF
    &END TOPOLOGY
  &END SUBSYS
&END FORCE_EVAL
&GLOBAL
  FFTLIB FFTSG
  PROGRAM Quickstep
  PROJECT H2O_MC
  RUN_TYPE MC
  PRINT_LEVEL LOW
&END GLOBAL
&MOTION
  &MC
    IUPTRANS 6400000
    IUPVOLUME 3200000
    LBIAS no
    LSTOP yes
    NMOVES 8
    NSTEP 2
    NVOLMOVES 1
    PMSWAP 0.0
    PMTRAION 0.00
    PMTRANS 0.00
    PMVOLUME 1.00
    PRESSURE 1.013
    PROGRAM traditional
    RESTART no
    RESTART_FILE_NAME mc_restart_1
    RMDIHEDRAL 3.0
    RMANGLE 3.0
    RMBOND 0.074
    RMROT 26.0
    RMTRANS 0.38
    RMVOLUME 1.5
    TEMP 298.0
  &END MC
&END MOTION
