&FORCE_EVAL
  METHOD QS
  &DFT
    CHARGE 0
    LSD
    MULTIPLICITY 6
    BASIS_SET_FILE_NAME EMSL_BASIS_SETS
    POTENTIAL_FILE_NAME POTENTIAL
    ! WFN_RESTART_FILE_NAME restart_gga.wfn
    &MGRID
      CUTOFF 300
    &END MGRID
    &QS
       METHOD GAPW
       EPS_DEFAULT 1.0E-12
       EPS_PGF_ORB 1.0E-15
    &END QS
    &SCF 
      EPS_SCF 6.0E-8
      MAX_SCF 60
      SCF_GUESS RESTART
      &OT 
         PRECONDITIONER FULL_ALL
      &END
      &OUTER_SCF
         EPS_SCF 6.0E-8
         MAX_SCF 20
      &END
      &PRINT 
        &RESTART 
           FILENAME =restart_gga.wfn
        &END
      &END
    &END SCF
   &XC
@IF 1
     &XC_FUNCTIONAL BLYP
     &END
@ENDIF
@IF 0
      &XC_FUNCTIONAL
       &LYP
         SCALE_C 0.81
       &END
       &BECKE88
         SCALE_X 0.72
       &END
       &VWN
         FUNCTIONAL_TYPE VWN5
         SCALE_C 0.19
       &END
       &XALPHA
         SCALE_X 0.08
       &END
      &END XC_FUNCTIONAL
      &HF
        &SCREENING
          EPS_SCHWARZ 1.0E-8
          SCREEN_ON_INITIAL_P TRUE
        &END
        &INTERACTION_POTENTIAL
          POTENTIAL_TYPE TRUNCATED
          CUTOFF_RADIUS 6.0
          T_C_G_DATA t_c_g.dat
        &END
        &MEMORY
          MAX_MEMORY  13000
          EPS_STORAGE_SCALING 0.1
        &END
        FRACTION 0.20
        TREAT_LSD_IN_CORE TRUE
      &END
@ENDIF
    &END XC
  &END DFT
  &SUBSYS
    &CELL
      ABC 31.136 28.095 30.502
    &END CELL
    &COORD
     N       16.76600       17.20000        3.65500
     H       15.92000       17.34100        3.12100
     H       17.00300       18.09500        4.05700
     H       17.53600       16.90600        3.07100
     C       16.52500       16.26800        4.77100
     H       16.29600       15.27700        4.38000
     C       17.74300       16.18200        5.68100
     H       18.04800       17.20200        5.91300
     H       17.48400       15.67700        6.61100
     C       18.87300       15.39300        5.01800
     H       18.52800       14.37700        4.82800
     H       19.13800       15.86100        4.07000
     S       20.35700       15.30500        6.03100
     C       20.83200       17.02500        5.81600
     H       21.03900       17.23400        4.76700
     H       19.97900       17.62100        6.14200
     H       21.70400       17.28300        6.41700
     C       15.33900       16.76400        5.57700
     O       15.07000       17.95900        5.60100
     N       14.57900       15.86500        6.20400
     H       14.74400       14.86900        6.22100
     C       13.37600       16.16400        6.94400
     H       12.93100       17.08900        6.57700
     C       12.39500       14.98500        6.78500
     H       12.85700       14.06100        7.13100
     H       11.51100       15.16800        7.39500
     C       11.96400       14.79400        5.32500
     H       12.77600       14.35700        4.74400
     H       11.11600       14.10900        5.28900
     C       11.55800       16.13200        4.70400
     H       10.72100       16.53800        5.27300
     H       12.38000       16.84800        4.69200
     C       11.19600       15.92100        3.26300
     H       12.03300       15.47600        2.72500
     H       10.34400       15.24200        3.23600
     N       10.84600       17.18500        2.64200
     H       11.51900       17.93600        2.70900
     H       10.49300       17.04400        1.70600
     H       10.00700       17.45200        3.13800
     C       13.69500       16.42900        8.38900
     O       14.61300       15.84800        8.95300
     N       12.94300       17.35300        8.96000
     H       12.18200       17.72700        8.41000
     C       12.85100       17.50300       10.39200
     H       13.85300       17.46100       10.81900
     C       12.19000       18.83800       10.72200
     H       11.20000       18.86700       10.26500
     H       12.07400       18.91400       11.80300
     C       13.02800       20.01600       10.20800
     H       14.00400       20.01200       10.69300
     H       13.16800       19.93200        9.13100
     C       12.30200       21.32200       10.51700
     H       11.25400       21.22000       10.23500
     H       12.37200       21.52200       11.58600
     C       12.91900       22.48300        9.74500
     H       13.97100       22.57400       10.01300
     H       12.86900       22.25400        8.68000
     N       12.21300       23.74200       10.07200
     H       12.29000       23.95400       11.05600
     H       12.56200       24.51900        9.52900
     H       11.21900       23.63300        9.92900
     C       12.03800       16.35100       10.96400
     O       11.16100       15.79600       10.30400
     N       12.31300       16.03900       12.21200
     H       13.02000       16.58500       12.68400
     C       11.56500       15.08600       13.01400
     H       10.64800       14.79200       12.50300
     C       12.40700       13.84100       13.29600
     H       13.40900       14.13000       13.61000
     H       11.94400       13.30200       14.12200
     C       12.48900       12.90600       12.11400
     C       13.18200       13.28800       10.95100
     H       13.72100       14.22300       10.91300
     C       13.18200       12.44700        9.82700
     H       13.70800       12.74200        8.93100
     C       12.51500       11.20400        9.88600
     O       12.55200       10.36400        8.82600
     H       11.93600        9.62900        8.87600
     C       11.83800       10.81000       11.05800
     H       11.33800        9.85400       11.09700
     C       11.82500       11.66800       12.17100
     H       11.30600       11.37800       13.07300
     C       11.19900       15.77200       14.30700
     O       11.96800       16.57900       14.81300
     N       10.04400       15.45000       14.85300
     H        9.46600       14.75400       14.40400
     C        9.61300       15.98100       16.13400
     H       10.36600       16.66600       16.52400
     C        8.33200       16.78700       15.97700
     H        8.50200       17.58400       15.25400
     C        7.13300       15.95400       15.52000
     H        6.91200       15.17600       16.25100
     H        6.25200       16.58700       15.40700
     H        7.36300       15.48300       14.56400
     O        8.06100       17.37500       17.21000
     H        7.16900       17.72600       17.15300
     C        9.46200       14.85500       17.13400
     O        8.97000       13.77600       16.79800
     N        9.91900       15.11000       18.34500
     H       10.26500       16.04700       18.49100
     C        9.64300       14.33100       19.52700
     H        9.88600       13.28300       19.35300
     C        10.51600       14.89500       20.63000
     H        11.57100       14.82600       20.36600
     H        10.26000       15.94200       20.79500
     S        10.19900       14.00400       22.15200
     C        8.16700       14.48200       19.88600
     O        7.72300       15.56500       20.28100
     N        7.38100       13.42200       19.73600
     H        7.77700       12.52500       19.49400
     C        5.93200       13.50300       19.96300
     H        5.57800       14.43400       19.52100
     C        5.16600       12.35800       19.29300
     H        4.09900       12.54300       19.42200
     C        5.46500       12.29000       17.79200
     H        5.19300       13.23900       17.32900
     H        6.52400       12.10700       17.60800
     H        4.87900       11.49100       17.33800
     O        5.48000       11.12300       19.88900
     H        4.93200       10.45000       19.47800
     C        5.56600       13.56000       21.44200
     O        4.42300       13.84900       21.77900
     N        6.53400       13.34600       22.34000
     H        7.45400       13.11800       21.99300
     C        6.33600       13.47900       23.78200
     H        5.32700       13.14800       24.02400
     C        7.33100       12.57900       24.53200
     H        8.33500       12.74300       24.13900
     C        7.34400       12.87000       26.03600
     H        7.66600       13.89600       26.21600
     H        6.34600       12.74200       26.45300
     H        8.05800       12.21900       26.54000
     C        6.93100       11.11400       24.28700
     H        6.97300       10.89300       23.22100
     H        7.61100       10.43700       24.80600
     H        5.91000       10.94500       24.62800
     C        6.42300       14.93600       24.23100
     O        5.55900       15.37700       24.98600
     N        7.43500       15.69400       23.79000
     H        8.08900       15.27200       23.14600
     C        7.66500       17.05500       24.30200
     H        6.87800       17.28900       25.01900
     C        8.97700       17.12400       25.08400
     H        8.97300       18.03500       25.68300
     H        9.06500       16.25600       25.73700
     S       10.39000       17.20400       23.95600
     C        7.60000       18.17900       23.26300
     O        7.46900       19.34700       23.63900
     N        7.65900       17.85900       21.97000
     H        7.76300       16.89000       21.70500
     C        7.57200       18.82300       20.88100
     H        7.03400       18.36600       20.05000
     H        7.00900       19.69400       21.21700
     C        8.91500       19.32400       20.35800
     O        8.90600       20.12700       19.42500
     N       10.04900       18.90300       20.93800
     H        9.98800       18.28100       21.73200
     C       11.37900       19.18300       20.39600
     H       11.58300       20.24900       20.49300
     C       12.44000       18.38700       21.16900
     H       12.51500       18.76300       22.18900
     H       12.11300       17.34900       21.22600
     C       13.81200       18.39700       20.52000
     C       14.68000       19.49400       20.68500
     H       14.38200       20.34000       21.28600
     C       15.94500       19.48800       20.06400
     H       16.62000       20.31800       20.21900
     C       16.32300       18.39200       19.25400
     O       17.53800       18.32400       18.66000
     H       18.07800       19.07100       18.92800
     C       15.45100       17.30500       19.08000
     H       15.78400       16.48700       18.45800
     C       14.19800       17.30700       19.71600
     H       13.52300       16.47300       19.58900
     C       11.44200       18.80600       18.91700
     O       11.00800       17.72400       18.53000
     N       12.03800       19.67100       18.10000
     H       12.44500       20.51000       18.48800
     C       12.26100       19.39200       16.68700
     H       11.71800       18.49100       16.40200
     C       11.71300       20.53200       15.81400
     H       12.12800       21.47800       16.16000
     C       12.11500       20.32300       14.33900
     H       11.66200       19.40200       13.97200
     H       11.80500       21.18000       13.74000
     H       13.19800       20.25200       14.24700
     C       10.17500       20.55900       15.97000
     H        9.75700       19.59900       15.66600
     H        9.91700       20.70700       17.01800
     C        9.51200       21.68000       15.16900
     H        9.71000       21.55200       14.10400
     H        8.43500       21.65200       15.33200
     H        9.90500       22.63900       15.50500
     C       13.74200       19.12300       16.46500
     O       14.58700       19.98600       16.65300
     N       14.05100       17.93000       15.97800
     H       13.28300       17.31000       15.76800
     C       15.32700       17.67700       15.34700
     H       16.10400       18.13500       15.95900
     C       15.59300       16.18100       15.28100
     H       15.57000       15.77400       16.29200
     H       14.81100       15.70200       14.69200
     C       16.94900       15.92100       14.67300
     C       18.09800       16.18600       15.43900
     H       18.01000       16.52100       16.46200
     C       19.36900       16.05700       14.86700
     H       20.25900       16.24200       15.45100
     C       19.49000       15.68800       13.51700
     O       20.73100       15.58500       12.99800
     H       20.67600       15.25400       12.09800
     C       18.33900       15.41100       12.73900
     H       18.43500       15.10300       11.70800
     C       17.06500       15.53800       13.32200
     H       16.17300       15.36300       12.73800
     C       15.36800       18.30100       13.94800
     O       14.61600       17.92100       13.04400
     N       16.25900       19.26000       13.75900
     H       16.86800       19.45600       14.54100
     C       16.59000       19.88300       12.50300
     H       15.79700       19.64200       11.79500
     C       16.60900       21.40000       12.67700
     H       15.66800       21.71000       13.13300
     H       17.42500       21.68800       13.34000
     C       16.76700       22.11700       11.35100
     O       17.19100       21.57900       10.33400
     N       16.33700       23.35000       11.31900
     H       16.72400       23.88200       10.55300
     H       16.30400       23.76500       12.24000
     C       17.95000       19.35600       12.01300
     O       18.98600       19.68900       12.59700
     N       17.98400       18.59700       10.90700
     C       16.85000       18.20600       10.08900
     H       16.15400       19.02800        9.92500
     H       16.34600       17.35900       10.55500
     C       17.44500       17.80400        8.75300
     H       17.52700       18.69400        8.13000
     H       16.83400       17.04500        8.26500
     C       18.84700       17.29800        9.10000
     H       19.54500       17.53600        8.29800
     H       18.83100       16.22500        9.28900
     C       19.22500       18.04800       10.37700
     H       19.64200       17.35100       11.10400
     C       20.29500       19.09700       10.07400
     O       21.47500       18.79200       10.18600
     N       19.92000       20.32500        9.69900
     H       18.93900       20.56200        9.72300
     C       20.89100       21.39600        9.44600
     H       21.63800       21.04000        8.73600
     C       20.19500       22.63700        8.88500
     H       19.32300       22.88300        9.49100
     H       20.89900       23.46800        8.92400
     C       19.79300       22.42200        7.43500
     H       20.64600       21.97100        6.92800
     H       18.94100       21.74300        7.40300
     C       19.46200       23.70700        6.68100
     O       19.52500       24.80600        7.30600
     O       19.16800       23.56300        5.48200
     C       21.64800       21.85700       10.68700
     O       22.74100       22.39800       10.56800
     N       21.06100       21.67000       11.86300
     H       20.15700       21.22000       11.87900
     C       21.66100       22.04500       13.13600
     H       22.43500       22.79600       12.97900
     C       20.57100       22.65400       14.02200
     H       19.77400       21.92000       14.14200
     H       20.98000       22.85000       15.01400
     C       19.98900       23.96000       13.45800
     O       20.72700       24.73400       12.79900
     O       18.79100       24.19900       13.74300
     C       22.32000       20.84200       13.82100
     O       23.32700       20.99700       14.51200
     N       21.79800       19.63300       13.58700
     H       20.97200       19.58400       13.00700
     C       22.16800       18.45500       14.35500
     H       21.67000       17.57600       13.94600
     H       23.24700       18.32400       14.27700
     C       21.78600       18.59100       15.83400
     O       20.90100       19.35600       16.22200
     N       22.48500       17.82800       16.66400
     H       23.22100       17.28500       16.23600
     C       22.53500       17.94000       18.12300
     H       22.19500       18.93100       18.42100
     C       21.58300       16.90200       18.73900
     H       20.59500       17.04600       18.30200
     H       21.91900       15.90300       18.46400
     C       21.49500       16.96800       20.26500
     O       21.63800       18.05800       20.85500
     O       21.31200       15.93400       20.93300
     C       24.00300       17.78000       18.56800
     O       24.39600       16.74500       19.12100
     N       24.86500       18.77300       18.25100
     C       24.52300       20.04200       17.62300
     H       23.78400       20.58400       18.21300
     H       24.13900       19.87200       16.61700
     C       25.81000       20.85300       17.53700
     H       25.82200       21.59600       18.33500
     H       25.89400       21.34000       16.56500
     C       26.94900       19.85400       17.74500
     H       27.67500       20.26500       18.44600
     H       27.43700       19.62800       16.79800
     C       26.31100       18.58100       18.30400
     H       26.57500       17.74000       17.66300
     C       26.84600       18.27800       19.69900
     O       27.81000       17.53100       19.83300
     N       26.20500       18.80400       20.74200
     H       25.31500       19.23300       20.53100
     C       26.65500       18.57400       22.12500
     H       27.72500       18.77800       22.17700
     C       25.93800       19.50300       23.11100
     H       24.86100       19.37100       23.00200
     H       26.18300       19.16900       24.11900
     C       26.35400       20.98200       23.00000
     O       27.37500       21.32900       22.38200
     O       25.70600       21.82800       23.66400
     C       26.45900       17.12000       22.57600
     O       27.07600       16.67800       23.54400
     N       25.62900       16.36300       21.86300
     H       25.14700       16.80000       21.08900
     C       25.42700       14.93200       22.05200
     H       25.97400       14.61100       22.93900
     C       23.94400       14.69800       22.31200
     H       23.38900       15.01900       21.43100
     H       23.76700       13.63300       22.46100
     C       23.53400       15.43200       23.58300
     O       24.00500       15.12400       24.66500
     N       22.64000       16.39200       23.50900
     H       22.28900       16.78700       24.37000
     H       22.23200       16.51300       22.59300
     C       25.99800       14.10600       20.89200
     O       25.63300       12.94100       20.72000
     N       26.88900       14.69600       20.09400
     H       27.10100       15.67000       20.25800
     C       27.69400       13.98700       19.10700
     H       28.62100       14.53700       18.94400
     H       27.94100       13.00100       19.50000
     C       27.00000       13.79900       17.76200
     O       27.44500       12.97600       16.96200
     N       25.89400       14.50200       17.51000
     H       25.56400       15.15600       18.20600
     C       25.14100       14.44200       16.25900
     H       25.46300       13.57300       15.68500
     C       23.63800       14.31200       16.49800
     H       23.28500       15.18300       17.04900
     C       22.91900       14.23500       15.14700
     H       23.07400       15.14700       14.57100
     H       23.29600       13.38900       14.57200
     H       21.84700       14.12300       15.30800
     C       23.35800       13.03200       17.29400
     H       23.84800       13.07500       18.26700
     H       22.28500       12.92700       17.45400
     H       23.73000       12.16600       16.74700
     C       25.45800       15.69100       15.46800
     O       25.01600       16.79100       15.78900
     N       26.28800       15.52600       14.45000
     H       26.40600       14.58100       14.11300
     C       26.79900       16.69200       13.74700
     H       27.07500       17.43300       14.49700
     C       28.04900       16.32600       12.93600
     H       27.83700       15.46000       12.30900
     H       28.30700       17.17000       12.29500
     C       29.25700       16.03300       13.80000
     O       29.20100       15.92000       15.01000
     N       30.39700       15.86200       13.17900
     H       31.16000       15.65800       13.80800
     H       30.49700       15.96000       12.17900
     C       25.70800       17.28800       12.85100
     O       24.86300       16.54800       12.33700
     N       25.79200       18.59900       12.55900
     C       26.71000       19.56000       13.14500
     H       27.73400       19.32300       12.85600
     H       26.62200       19.57200       14.23200
     C       26.31400       20.92000       12.58500
     H       27.19400       21.53000       12.38100
     H       25.65100       21.41900       13.29100
     C       25.55600       20.60500       11.29800
     H       26.25100       20.61300       10.45700
     H       24.75700       21.32700       11.13200
     C       25.01200       19.18900       11.48700
     H       23.97100       19.23100       11.80700
     C       25.16300       18.36800       10.19600
     O       26.25900       17.89100        9.86200
     N       24.06700       18.19300        9.47300
     H       23.20800       18.58300        9.83600
     C       23.96100       17.39600        8.25800
     H       23.20400       17.85200        7.62000
     H       24.91800       17.42900        7.73700
     C       23.59300       15.92100        8.49200
     O       23.51100       15.14900        7.54600
     N       23.39900       15.49000        9.74400
     H       23.40200       16.16300       10.49700
     C       23.00500       14.10500       10.03400
     H       23.52800       13.44400        9.34300
     C       23.38500       13.67500       11.45800
     H       22.82100       14.26300       12.18200
     C       23.17200       12.18500       11.66200
     H       23.73500       11.63900       10.90600
     H       23.53500       11.90000       12.64900
     H       22.11100       11.94800       11.57500
     O       24.75400       13.83700       11.70200
     H       24.92100       14.77100       11.55600
     C       21.49800       13.94100        9.82700
     O       20.69300       14.56300       10.51800
     N       21.09800       13.11500        8.87000
     H       21.78900       12.56400        8.38000
     C       19.74900       12.62800        8.65800
     H       19.10500       13.49200        8.49200
     C       19.77800       11.72900        7.40500
     H       20.46300       12.16400        6.67800
     H       20.18800       10.76100        7.69500
     C       18.43300       11.51600        6.69800
     O       17.44000       12.21300        7.03000
     O       18.33900       10.65900        5.80800
     C       19.30200       11.84100        9.90200
     O       20.08300       11.10300       10.50300
     N       18.03900       11.94900       10.30100
     H       17.39800       12.51400        9.76200
     C       17.53900       11.33900       11.53200
     H       18.05900       11.79300       12.37500
     C       16.04700       11.63800       11.65300
     H       15.88300       12.70500       11.50600
     H       15.51100       11.10600       10.86700
     C       15.48200       11.24600       12.99800
     C       15.68900       12.09200       14.09900
     H       16.23800       13.01400       13.98000
     C       15.20700       11.73000       15.36500
     H       15.38100       12.38200       16.20800
     C       14.50100       10.52800       15.52900
     H       14.12100       10.26500       16.50500
     C       14.27800        9.68300       14.42700
     H       13.70900        8.77400       14.55600
     C       14.78400       10.03400       13.16200
     H       14.62800        9.38100       12.31600
     C       17.78200        9.82500       11.57900
     O       18.11100        9.25000       12.61800
     N       17.66400        9.14600       10.43500
     H       17.32900        9.67900        9.64500
     C       17.89600        7.71000       10.30600
     H       17.22200        7.22300       11.01100
     C       17.50400        7.21700        8.90400
     H       17.25100        6.16400        9.02700
     H       16.60000        7.71500        8.55200
     C       18.58900        7.34000        7.81800
     H       18.69700        8.37300        7.48800
     H       19.55300        7.01000        8.20600
     C       18.18800        6.44000        6.64100
     H       17.69600        5.53700        7.00200
     H       17.49300        6.98300        6.00100
     C       19.39800        6.00500        5.82600
     H       19.06300        5.47900        4.93200
     H       19.94600        6.89600        5.52000
     N       20.28500        5.13200        6.61500
     H       19.85200        4.27800        6.93400
     H       21.10200        4.89800        6.06900
     H       20.69400        5.67400        7.36400
     C       19.33200        7.29800       10.65000
     O       19.57400        6.14900       11.02700
     N       20.28700        8.20000       10.47200
     H       20.05500        9.11400       10.11100
     C       21.69700        7.94300       10.72400
     H       21.87800        6.87000       10.67800
     C       22.55000        8.58800        9.63800
     H       22.35400        9.66000        9.62200
     H       23.60000        8.45600        9.90000
     C       22.25100        7.92900        8.27500
     O       21.97900        6.67100        8.27100
     O       22.17300        8.60300        7.25900
     C       22.13700        8.35500       12.11800
     O       23.19900        7.90900       12.53900
     N       21.30000        9.06700       12.87700
     H       20.40400        9.33600       12.49500
     C       21.56400        9.28200       14.29800
     H       22.49700        9.84000       14.37500
     C       20.43400       10.08900       14.96000
     H       19.48900        9.57000       14.79700
     C       20.67000       10.17600       16.47800
     H       20.68100        9.18200       16.92400
     H       21.62200       10.66800       16.68000
     H       19.86500       10.71800       16.97400
     C       20.35300       11.48700       14.32200
     H       21.29800       12.00900       14.47200
     H       20.19300       11.38900       13.24800
     C       19.19600       12.31300       14.88900
     H       19.34600       12.51700       15.94900
     H       19.13200       13.26400       14.36100
     H       18.26900       11.75400       14.75800
     C       21.69400        7.91100       14.97300
     O       20.80000        7.08500       14.76400
     N       22.75400        7.66900       15.77700
     C       23.88800        8.54000       16.03500
     H       23.60700        9.31000       16.75400
     H       24.27200        8.99000       15.12000
     C       24.94900        7.63100       16.64900
     H       25.64800        8.17300       17.28600
     H       25.47100        7.10700       15.84900
     C       24.10500        6.64300       17.44700
     H       23.79400        7.10600       18.38400
     H       24.63000        5.70600       17.63500
     C       22.89400        6.43700       16.53900
     H       23.09800        5.63000       15.83500
     C       21.63700        6.11800       17.34200
     O       21.00500        7.00000       17.92400
     N       21.23500        4.85500       17.33800
     H       21.81700        4.17000       16.87800
     C       19.89300        4.48900       17.81800
     H       19.19200        5.23900       17.45300
     C       19.48300        3.13800       17.23500
     H       20.33900        2.46600       17.30200
     H       18.70100        2.70700       17.86000
     C       18.96400        3.19200       15.78400
     O       18.56800        4.33300       15.31600
     O       18.94300        2.16600       15.12100
     C       19.73300        4.53000       19.35500
     O       18.62400        4.37000       19.86000
     N       20.80200        4.79500       20.10300
     H       21.68300        5.02000       19.66300
     C       20.77200        5.07500       21.53800
     H       19.87600        4.61400       21.95400
     C       21.99200        4.43200       22.22200
     H       21.86500        4.56800       23.29600
     H       21.97200        3.36200       22.01500
     C       23.34900        5.01100       21.79900
     O       23.44000        5.58200       20.70100
     O       24.31700        4.90700       22.61400
     C       20.67100        6.57000       21.88200
     O       20.54900        6.91700       23.05500
     N       20.67000        7.46600       20.89200
     H       20.76100        7.14400       19.93900
     C       20.39800        8.87700       21.11700
     H       21.09700        9.25200       21.86500
     C       20.62700        9.62000       19.80500
     H       21.65100        9.44800       19.47500
     H       19.95400        9.18100       19.06900
     C       20.36000       11.08700       19.80500
     C       21.25600       12.06800       20.06600
     H       22.28500       11.89500       20.34400
     N       20.64000       13.29100       19.89000
     H       21.04600       14.19400       20.09300
     C       19.32400       13.16100       19.49500
     C       18.32500       14.08000       19.16900
     H       18.53800       15.13900       19.20900
     C       17.05000       13.60100       18.80500
     H       16.25900       14.29400       18.55900
     C       16.80600       12.21500       18.77700
     H       15.82700       11.84600       18.50900
     C       17.82300       11.30400       19.10800
     H       17.64400       10.23900       19.11000
     C       19.11500       11.75500       19.46700
     C       18.96700        9.08100       21.63300