
&FORCE_EVAL
  METHOD FIST
  &MM
    &FORCEFIELD
      &SPLINE
        EMAX_ACCURACY 500.0
        EMAX_SPLINE    1000.0
        EPS_SPLINE 1.0E-9
      &END
      &NONBONDED
        &LENNARD-JONES
          atoms Ar Ar
          EPSILON 119.8
          SIGMA 3.405
          RCUT 11.66
        &END LENNARD-JONES
      &END NONBONDED
      &CHARGE
        ATOM Ar
        CHARGE 0.0
      &END CHARGE
    &END FORCEFIELD
    &POISSON
      &EWALD
        EWALD_TYPE none
      &END EWALD
    &END POISSON
    &PRINT
      &FF_INFO
      &END
    &END
  &END MM
  &SUBSYS
    &CELL
      ABC 13.9057 12.9595 13.9676
      UNIT ANGSTROM
    &END CELL
    &COORD
   Ar 0.0 0.0 0.0
   Ar 6.56554 0.0 0.0
   Ar 0.0 3.79061 0.0
   Ar 6.56554 3.79061 0.0
   Ar 0.0 7.58124 0.0
   Ar 6.56554 7.58124 0.0
   Ar 0.0 11.3719 0.0
   Ar 6.56554 11.3719 0.0
   Ar 0.0 0.0 9.28508
   Ar 6.56554 0.0 9.28508
   Ar 0.0 3.79061 9.28508
   Ar 6.56554 3.79061 9.28508
   Ar 0.0 7.58124 9.28508
   Ar 6.56554 7.58124 9.28508
   Ar 0.0 11.3719 9.28508
   Ar 6.56554 11.3719 9.28508
   Ar 3.28277 1.89531 0.0
   Ar 9.84831 1.89531 0.0
   Ar 3.28277 5.68592 0.0
   Ar 9.84831 5.68592 0.0
   Ar 3.28277 9.47654 0.0
   Ar 9.84831 9.47654 0.0
   Ar 3.28277 1.89531 9.28508
   Ar 9.84831 1.89531 9.28508
   Ar 3.28277 5.68592 9.28508
   Ar 9.84831 5.68592 9.28508
   Ar 3.28277 9.47654 9.28508
   Ar 9.84831 9.47654 9.28508
   Ar 2.18851 0.0 3.09502
   Ar 8.75404 0.0 3.09502
   Ar 2.18851 3.79061 3.09502
   Ar 8.75404 3.79061 3.09502
   Ar 2.18851 7.58124 3.09502
   Ar 8.75404 7.58124 3.09502
   Ar 2.18851 11.3719 3.09502
   Ar 8.75404 11.3719 3.09502
   Ar 2.18851 0.0 12.3801
   Ar 8.75404 0.0 12.3801
   Ar 2.18851 3.79061 12.3801
   Ar 8.75404 3.79061 12.3801
   Ar 2.18851 7.58124 12.3801
   Ar 8.75404 7.58124 12.3801
   Ar 2.18851 11.3719 12.3801
   Ar 8.75404 11.3719 12.3801
   Ar 5.47128 1.89531 3.09502
   Ar 12.0368 1.89531 3.09502
   Ar 5.47128 5.68592 3.09502
   Ar 12.0368 5.68592 3.09502
   Ar 5.47128 9.47654 3.09502
   Ar 12.0368 9.47654 3.09502
   Ar 5.47128 1.89531 12.3801
   Ar 12.0368 1.89531 12.3801
   Ar 5.47128 5.68592 12.3801
   Ar 12.0368 5.68592 12.3801
   Ar 5.47128 9.47654 12.3801
   Ar 12.0368 9.47654 12.3801
   Ar 1.09426 1.89531 6.19005
   Ar 7.65982 1.89531 6.19005
   Ar 1.09426 5.68592 6.19005
   Ar 7.65982 5.68592 6.19005
   Ar 1.09426 9.47654 6.19005
   Ar 7.65982 9.47654 6.19005
   Ar 4.37703 0.0 6.19005
   Ar 10.9426 0.0 6.19005
   Ar 4.37703 3.79061 6.19005
   Ar 10.9426 3.79061 6.19005
   Ar 4.37703 7.58124 6.19005
   Ar 10.9426 7.58124 6.19005
   Ar 4.37703 11.3719 6.19005
   Ar 10.9426 11.3719 6.19005
    &END COORD
    &TOPOLOGY
      CONNECTIVITY OFF
    &END TOPOLOGY
  &END SUBSYS
  STRESS_TENSOR ANALYTICAL
&END FORCE_EVAL
&GLOBAL
  PROJECT cell_opt
  RUN_TYPE CELL_OPT
&END GLOBAL
&MOTION
  &MD
    ENSEMBLE NVT
    STEPS 10
    TIMESTEP 1
    TEMPERATURE 20.0
    &THERMOSTAT
       TYPE NOSE
       &NOSE
       &END
    &END
  &END MD
  &CELL_OPT
    TYPE GEO_OPT
    OPTIMIZER CG
    KEEP_SHAPE
    MAX_ITER 5
    EXTERNAL_PRESSURE 1.0
    MAX_DR 0.02
    RMS_DR 0.01
    MAX_FORCE 0.002
    RMS_FORCE 0.001
    &CG
      &LINE_SEARCH
        TYPE 2PNT
        &2PNT
        &END
      &END
    &END
  &END
  &GEO_OPT
    OPTIMIZER BFGS
    MAX_ITER 100
    &BFGS
    &END
  &END
&END MOTION
