&GLOBAL
  PROJECT ethene_colv3
  RUN_TYPE md
&END GLOBAL

&MOTION
  &CONSTRAINT
    &COLLECTIVE
      COLVAR 1
      MOLECULE 1
      TARGET 2.09433
    &END COLLECTIVE
    &COLLECTIVE
      COLVAR 2
      MOLECULE 1
      TARGET 2.09433
    &END COLLECTIVE
    &FIXED_ATOMS
      LIST 1 2
    &END FIXED_ATOMS
  &END CONSTRAINT
  &MD
    ENSEMBLE NVE
    STEPS 50
    TEMPERATURE 500
    TIMESTEP 0.5
  &END MD
&END MOTION

&FORCE_EVAL
  METHOD FIST
  &MM
    &FORCEFIELD
      PARMTYPE CHM
      PARM_FILE_NAME ../sample_pot/charmm.pot
      &CHARGE
        ATOM CE2
        CHARGE -0.42
      &END CHARGE
      &CHARGE
        ATOM HE2
        CHARGE 0.21
      &END CHARGE
    &END FORCEFIELD
    &POISSON
      &EWALD
        ALPHA .44
        EWALD_TYPE spme
        GMAX 24
        O_SPLINE 6
      &END EWALD
    &END POISSON
  &END MM
  &SUBSYS
    &CELL
      ABC 24.955 24.955 24.955
    &END CELL
    &COLVAR
      &ANGLE
        ATOMS 6 2 4
      &END ANGLE
    &END COLVAR
    &COLVAR
      &ANGLE
        ATOMS 5 1 3
      &END ANGLE
    &END COLVAR
    &TOPOLOGY
      COORDINATE pdb
      COORD_FILE_NAME ../sample_pdb/ethene.pdb
    &END TOPOLOGY
  &END SUBSYS
&END FORCE_EVAL
