&MULTIPLE_FORCE_EVALS
   FORCE_EVAL_ORDER 1 2 3
&END
 &FORCE_EVAL
  METHOD MIXED
  &MIXED
    MIXING_TYPE GENMIX
    &GENERIC
      # X: Energy force_eval 2
      # Y: Energy force_eval 3
      MIXING_FUNCTION X+k*(X-Y-t)**2
      VARIABLES X Y
      PARAMETERS k t
      VALUES 1.0 0.0
    &END
  &END
  &SUBSYS
    &TOPOLOGY
      CONNECTIVITY UPSF
      CONN_FILE_NAME ../sample_psf/topo.psf
    &END TOPOLOGY
    &KIND F3
        ELEMENT FE
    &END
    &KIND F2
        ELEMENT FE
    &END
    &CELL
      ABC  19.7299995  19.7299995  19.7299995
    &END CELL
  &COORD
 O        0.5452667     -0.3260423     -0.1309573
 H        1.0216732      0.3503118     -0.6927247
 H        0.3297549     -1.1288455     -0.6868913
 O        3.3386919     -2.6194429     -0.6746731
 H        4.2550735     -2.9181702     -0.4082008
 H        3.2934303     -2.5299318     -1.6696303
 O        2.2071524     -1.6357466      1.8380059
 H        2.4165771     -1.9562308      0.9141922
 H        2.1490760     -2.4187474      2.4573100
 O        1.9597735      2.8916209      2.6789658
 H        2.5586348      3.1396165      1.9174778
 H        2.2371807      2.0036089      3.0456822
 O       -0.1841888      4.5323505     -0.2758712
 H       -0.6129253      4.1373515     -1.0883744
 H        0.0434898      3.8027275      0.3689646
 O       -1.6441346      0.1063547     -2.4611344
 H       -1.2739372     -0.6276242     -1.8917230
 H       -1.2048746      0.0853202     -3.3592486
 O        1.7445489      0.0300564     -3.5273366
 H        2.0130303     -0.9211178     -3.3750668
 H        2.1461165      0.6076388     -2.8166027
 O        2.8142173     -3.8328180      3.5118492
 H        3.5137391     -3.9851115      4.2100444
 H        2.0259912     -4.4199867      3.6960592
 O       -0.6570415     -0.7039469      2.4343464
 H       -1.5930719     -0.3531801      2.4058805
 H       -0.2616168     -0.6735763      1.5163500
 O       -0.3004059     -3.7946129      2.2017982
 H       -0.5079198     -2.8181062      2.2598798
 H       -0.2767875     -4.0738626      1.2418698
 O       -4.3408980      2.9127693      4.4972377
 H       -3.4318342      2.7868502      4.1000624
 H       -4.4499173      2.3012078      5.2808881
 O        4.7126236     -4.3078232      1.4952512
 H        5.4878426     -4.2351527      2.1227508
 H        3.8742359     -4.0372791      1.9684451
 O       -2.1652689      4.7511206     -4.6136398
 H       -3.0460997      4.5051541     -4.2091174
 H       -1.9889263      4.1692009     -5.4075379
 O        2.9041348     -2.7699120     -3.3320818
 H        3.6827643     -3.2463622     -3.7404099
 H        2.1784940     -3.4280844     -3.1314447
 O        3.9198978      2.9788985      0.8106084
 H        4.3546219      2.0786192      0.8332528
 H        4.5107994      3.6459136      1.2643998
 O       -5.3532548     -4.7073016     -4.4187951
 H       -5.5490012     -4.9908967     -3.4800417
 H       -5.1693845     -5.5146761     -4.9794540
 O       -0.5535475      0.4399378     -4.8924699
 H        0.3018571      0.4281786     -4.3746424
 H       -0.4797358     -0.1817439     -5.6722546
 O        0.5727751      4.4439344      4.1132898
 H        0.8460187      3.5791492      3.6919999
 H        0.1624043      5.0371451      3.4206879
 O        2.3442979      0.5949942      3.7191322
 H        2.1563275     -0.1300955      3.0566273
 H        1.9710603      0.3372025      4.6103325
 O       -0.2622731     -2.8701954     -4.2777767
 H       -0.6913587     -3.7660389     -4.3933220
 H        0.0014073     -2.5090251     -5.1722202
 O       -5.6632404      0.2374333      0.7382495
 H       -6.3637810     -0.3927068      1.0731629
 H       -4.7622814     -0.0753395      1.0389931
 O       -2.9242394     -3.3997424      2.9602532
 H       -1.9722326     -3.7055576      2.9729347
 H       -3.2092657     -3.1585443      3.8879302
 O       -2.0302980      2.5365939      3.5564666
 H       -1.5756495      1.8383847      4.1094580
 H       -1.8220474      2.3844121      2.5903025
 O        1.3213593      4.5611110     -2.7946639
 H        0.7601234      3.7807238     -2.5189631
 H        1.0053859      4.9028096     -3.6797647
 O       -0.1841894      2.1366735      1.0617703
 H        0.6093670      2.3597240      1.6279130
 H       -0.0072237      1.2911261      0.5580508
 O       -4.6945047     -0.0537037     -5.5818472
 H       -4.3794165      0.1935600     -4.6655612
 H       -5.6535182      0.2094709     -5.6868849
 O       -3.5061288     -0.9711588      2.0847447
 H       -3.2866402     -1.9345045      2.2389865
 H       -3.9480090     -0.5953859      2.8993227
 O        2.7793756      1.1336914     -1.3050275
 H        3.3114128      0.6532306     -0.6078227
 H        3.1046073      2.0762029     -1.3818203
 O       -4.0865636      1.3096608     -3.1384490
 H       -4.8221807      1.4309431     -2.4719965
 H       -3.2178853      1.1893522     -2.6579030
 O       -0.7759274      2.8643389     -2.4591238
 H       -1.0481224      1.9090906     -2.5749307
 H       -1.3633324      3.4485724     -3.0191481
 O        3.9588163      3.9195695     -1.8904058
 H        3.0232153      4.2386012     -2.0416343
 H        4.1363449      3.8609974     -0.9080343
 O       -0.2833094     -2.5543928     -1.6657813
 H       -0.3416132     -3.3898771     -1.1193681
 H       -0.0631971     -2.7898705     -2.6124077
 O       10.4102669     -0.3260423     -0.1309573
 H       10.8866730      0.3503118     -0.6927247
 H       10.1947546     -1.1288455     -0.6868913
 O       13.2036915     -2.6194429     -0.6746731
 H       14.1200733     -2.9181702     -0.4082008
 H       13.1584301     -2.5299318     -1.6696303
 O       12.0721521     -1.6357466      1.8380059
 H       12.2815771     -1.9562308      0.9141922
 H       12.0140762     -2.4187474      2.4573100
 O       11.8247738      2.8916209      2.6789658
 H       12.4236345      3.1396165      1.9174778
 H       12.1021805      2.0036089      3.0456822
 O        9.6808109      4.5323505     -0.2758712
 H        9.2520742      4.1373515     -1.0883744
 H        9.9084892      3.8027275      0.3689646
 O        8.2208652      0.1063547     -2.4611344
 H        8.5910625     -0.6276242     -1.8917230
 H        8.6601248      0.0853202     -3.3592486
 O       11.6095486      0.0300564     -3.5273366
 H       11.8780298     -0.9211178     -3.3750668
 H       12.0111160      0.6076388     -2.8166027
 O       12.6792173     -3.8328180      3.5118492
 H       13.3787384     -3.9851115      4.2100444
 H       11.8909912     -4.4199867      3.6960592
 O        9.2079582     -0.7039469      2.4343464
 H        8.2719278     -0.3531801      2.4058805
 H        9.6033831     -0.6735763      1.5163500
 O        9.5645943     -3.7946129      2.2017982
 H        9.3570795     -2.8181062      2.2598798
 H        9.5882120     -4.0738626      1.2418698
 O        5.5241017      2.9127693      4.4972377
 H        6.4331656      2.7868502      4.1000624
 H        5.4150825      2.3012078      5.2808881
 O       14.5776234     -4.3078232      1.4952512
 H       15.3528423     -4.2351527      2.1227508
 H       13.7392359     -4.0372791      1.9684451
 O        7.6997309      4.7511206     -4.6136398
 H        6.8189001      4.5051541     -4.2091174
 H        7.8760734      4.1692009     -5.4075379
 O       12.7691345     -2.7699120     -3.3320818
 H       13.5477638     -3.2463622     -3.7404099
 H       12.0434933     -3.4280844     -3.1314447
 O       13.7848978      2.9788985      0.8106084
 H       14.2196217      2.0786192      0.8332528
 H       14.3757992      3.6459136      1.2643998
 O        4.5117450     -4.7073016     -4.4187951
 H        4.3159986     -4.9908967     -3.4800417
 H        4.6956153     -5.5146761     -4.9794540
 O        9.3114519      0.4399378     -4.8924699
 H       10.1668568      0.4281786     -4.3746424
 H        9.3852644     -0.1817439     -5.6722546
 O       10.4377747      4.4439344      4.1132898
 H       10.7110186      3.5791492      3.6919999
 H       10.0274038      5.0371451      3.4206879
 O       12.2092972      0.5949942      3.7191322
 H       12.0213270     -0.1300955      3.0566273
 H       11.8360596      0.3372025      4.6103325
 O        9.6027269     -2.8701954     -4.2777767
 H        9.1736412     -3.7660389     -4.3933220
 H        9.8664074     -2.5090251     -5.1722202
 O        4.2017593      0.2374333      0.7382495
 H        3.5012188     -0.3927068      1.0731629
 H        5.1027184     -0.0753395      1.0389931
 O        6.9407606     -3.3997424      2.9602532
 H        7.8927670     -3.7055576      2.9729347
 H        6.6557341     -3.1585443      3.8879302
 O        7.8347015      2.5365939      3.5564666
 H        8.2893505      1.8383847      4.1094580
 H        8.0429525      2.3844121      2.5903025
 O       11.1863594      4.5611110     -2.7946639
 H       10.6251230      3.7807238     -2.5189631
 H       10.8703861      4.9028096     -3.6797647
 O        9.6808100      2.1366735      1.0617703
 H       10.4743671      2.3597240      1.6279130
 H        9.8577757      1.2911261      0.5580508
 O        5.1704950     -0.0537037     -5.5818472
 H        5.4855833      0.1935600     -4.6655612
 H        4.2114816      0.2094709     -5.6868849
 O        6.3588710     -0.9711588      2.0847447
 H        6.5783596     -1.9345045      2.2389865
 H        5.9169908     -0.5953859      2.8993227
 O       12.6443748      1.1336914     -1.3050275
 H       13.1764126      0.6532306     -0.6078227
 H       12.9696074      2.0762029     -1.3818203
 O        5.7784362      1.3096608     -3.1384490
 H        5.0428190      1.4309431     -2.4719965
 H        6.6471148      1.1893522     -2.6579030
 O        9.0890722      2.8643389     -2.4591238
 H        8.8168774      1.9090906     -2.5749307
 H        8.5016670      3.4485724     -3.0191481
 O       13.8238163      3.9195695     -1.8904058
 H       12.8882151      4.2386012     -2.0416343
 H       14.0013447      3.8609974     -0.9080343
 O        9.5816908     -2.5543928     -1.6657813
 H        9.5233870     -3.3898771     -1.1193681
 H        9.8018026     -2.7898705     -2.6124077
 O        0.5452667      9.5389576     -0.1309573
 H        1.0216732     10.2153111     -0.6927247
 H        0.3297549      8.7361546     -0.6868913
 O        3.3386919      7.2455568     -0.6746731
 H        4.2550735      6.9468298     -0.4082008
 H        3.2934303      7.3350677     -1.6696303
 O        2.2071524      8.2292528      1.8380059
 H        2.4165771      7.9087691      0.9141922
 H        2.1490760      7.4462523      2.4573100
 O        1.9597735     12.7566204      2.6789658
 H        2.5586348     13.0046158      1.9174778
 H        2.2371807     11.8686085      3.0456822
 O       -0.1841888     14.3973503     -0.2758712
 H       -0.6129253     14.0023518     -1.0883744
 H        0.0434898     13.6677275      0.3689646
 O       -1.6441346      9.9713545     -2.4611344
 H       -1.2739372      9.2373753     -1.8917230
 H       -1.2048746      9.9503202     -3.3592486
 O        1.7445489      9.8950558     -3.5273366
 H        2.0130303      8.9438820     -3.3750668
 H        2.1461165     10.4726381     -2.8166027
 O        2.8142173      6.0321817      3.5118492
 H        3.5137391      5.8798885      4.2100444
 H        2.0259912      5.4450130      3.6960592
 O       -0.6570415      9.1610527      2.4343464
 H       -1.5930719      9.5118198      2.4058805
 H       -0.2616168      9.1914234      1.5163500
 O       -0.3004059      6.0703869      2.2017982
 H       -0.5079198      7.0468936      2.2598798
 H       -0.2767875      5.7911372      1.2418698
 O       -4.3408980     12.7777691      4.4972377
 H       -3.4318342     12.6518497      4.1000624
 H       -4.4499173     12.1662073      5.2808881
 O        4.7126236      5.5571766      1.4952512
 H        5.4878426      5.6298470      2.1227508
 H        3.8742359      5.8277206      1.9684451
 O       -2.1652689     14.6161203     -4.6136398
 H       -3.0460997     14.3701534     -4.2091174
 H       -1.9889263     14.0342007     -5.4075379
 O        2.9041348      7.0950880     -3.3320818
 H        3.6827643      6.6186376     -3.7404099
 H        2.1784940      6.4369154     -3.1314447
 O        3.9198978     12.8438988      0.8106084
 H        4.3546219     11.9436188      0.8332528
 H        4.5107994     13.5109138      1.2643998
 O       -5.3532548      5.1576982     -4.4187951
 H       -5.5490012      4.8741031     -3.4800417
 H       -5.1693845      4.3503237     -4.9794540
 O       -0.5535475     10.3049374     -4.8924699
 H        0.3018571     10.2931786     -4.3746424
 H       -0.4797358      9.6832561     -5.6722546
 O        0.5727751     14.3089342      4.1132898
 H        0.8460187     13.4441490      3.6919999
 H        0.1624043     14.9021454      3.4206879
 O        2.3442979     10.4599943      3.7191322
 H        2.1563275      9.7349043      3.0566273
 H        1.9710603     10.2022018      4.6103325
 O       -0.2622731      6.9948044     -4.2777767
 H       -0.6913587      6.0989609     -4.3933220
 H        0.0014073      7.3559747     -5.1722202
 O       -5.6632404     10.1024332      0.7382495
 H       -6.3637810      9.4722929      1.0731629
 H       -4.7622814      9.7896605      1.0389931
 O       -2.9242394      6.4652576      2.9602532
 H       -1.9722326      6.1594419      2.9729347
 H       -3.2092657      6.7064552      3.8879302
 O       -2.0302980     12.4015942      3.5564666
 H       -1.5756495     11.7033844      4.1094580
 H       -1.8220474     12.2494116      2.5903025
 O        1.3213593     14.4261112     -2.7946639
 H        0.7601234     13.6457233     -2.5189631
 H        1.0053859     14.7678089     -3.6797647
 O       -0.1841894     12.0016727      1.0617703
 H        0.6093670     12.2247238      1.6279130
 H       -0.0072237     11.1561260      0.5580508
 O       -4.6945047      9.8112965     -5.5818472
 H       -4.3794165     10.0585594     -4.6655612
 H       -5.6535182     10.0744705     -5.6868849
 O       -3.5061288      8.8938408      2.0847447
 H       -3.2866402      7.9304953      2.2389865
 H       -3.9480090      9.2696142      2.8993227
 O        2.7793756     10.9986916     -1.3050275
 H        3.3114128     10.5182304     -0.6078227
 H        3.1046073     11.9412022     -1.3818203
 O       -4.0865636     11.1746607     -3.1384490
 H       -4.8221807     11.2959433     -2.4719965
 H       -3.2178853     11.0543518     -2.6579030
 O       -0.7759274     12.7293386     -2.4591238
 H       -1.0481224     11.7740908     -2.5749307
 H       -1.3633324     13.3135719     -3.0191481
 O        3.9588163     13.7845688     -1.8904058
 H        3.0232153     14.1036015     -2.0416343
 H        4.1363449     13.7259970     -0.9080343
 O       -0.2833094      7.3106070     -1.6657813
 H       -0.3416132      6.4751225     -1.1193681
 H       -0.0631971      7.0751295     -2.6124077
 O        0.5452667     -0.3260423      9.7340422
 H        1.0216732      0.3503118      9.1722755
 H        0.3297549     -1.1288455      9.1781082
 O        3.3386919     -2.6194429      9.1903267
 H        4.2550735     -2.9181702      9.4567986
 H        3.2934303     -2.5299318      8.1953697
 O        2.2071524     -1.6357466     11.7030058
 H        2.4165771     -1.9562308     10.7791920
 H        2.1490760     -2.4187474     12.3223095
 O        1.9597735      2.8916209     12.5439653
 H        2.5586348      3.1396165     11.7824774
 H        2.2371807      2.0036089     12.9106817
 O       -0.1841888      4.5323505      9.5891285
 H       -0.6129253      4.1373515      8.7766256
 H        0.0434898      3.8027275     10.2339640
 O       -1.6441346      0.1063547      7.4038653
 H       -1.2739372     -0.6276242      7.9732766
 H       -1.2048746      0.0853202      6.5057511
 O        1.7445489      0.0300564      6.3376632
 H        2.0130303     -0.9211178      6.4899330
 H        2.1461165      0.6076388      7.0483971
 O        2.8142173     -3.8328180     13.3768492
 H        3.5137391     -3.9851115     14.0750446
 H        2.0259912     -4.4199867     13.5610590
 O       -0.6570415     -0.7039469     12.2993460
 H       -1.5930719     -0.3531801     12.2708797
 H       -0.2616168     -0.6735763     11.3813496
 O       -0.3004059     -3.7946129     12.0667982
 H       -0.5079198     -2.8181062     12.1248798
 H       -0.2767875     -4.0738626     11.1068697
 O       -4.3408980      2.9127693     14.3622379
 H       -3.4318342      2.7868502     13.9650621
 H       -4.4499173      2.3012078     15.1458874
 O        4.7126236     -4.3078232     11.3602505
 H        5.4878426     -4.2351527     11.9877510
 H        3.8742359     -4.0372791     11.8334446
 O       -2.1652689      4.7511206      5.2513599
 H       -3.0460997      4.5051541      5.6558824
 H       -1.9889263      4.1692009      4.4574618
 O        2.9041348     -2.7699120      6.5329180
 H        3.6827643     -3.2463622      6.1245899
 H        2.1784940     -3.4280844      6.7335548
 O        3.9198978      2.9788985     10.6756077
 H        4.3546219      2.0786192     10.6982527
 H        4.5107994      3.6459136     11.1293993
 O       -5.3532548     -4.7073016      5.4462047
 H       -5.5490012     -4.9908967      6.3849583
 H       -5.1693845     -5.5146761      4.8855457
 O       -0.5535475      0.4399378      4.9725299
 H        0.3018571      0.4281786      5.4903574
 H       -0.4797358     -0.1817439      4.1927452
 O        0.5727751      4.4439344     13.9782896
 H        0.8460187      3.5791492     13.5569992
 H        0.1624043      5.0371451     13.2856874
 O        2.3442979      0.5949942     13.5841322
 H        2.1563275     -0.1300955     12.9216270
 H        1.9710603      0.3372025     14.4753323
 O       -0.2622731     -2.8701954      5.5872231
 H       -0.6913587     -3.7660389      5.4716778
 H        0.0014073     -2.5090251      4.6927795
 O       -5.6632404      0.2374333     10.6032495
 H       -6.3637810     -0.3927068     10.9381628
 H       -4.7622814     -0.0753395     10.9039927
 O       -2.9242394     -3.3997424     12.8252525
 H       -1.9722326     -3.7055576     12.8379345
 H       -3.2092657     -3.1585443     13.7529297
 O       -2.0302980      2.5365939     13.4214668
 H       -1.5756495      1.8383847     13.9744577
 H       -1.8220474      2.3844121     12.4553022
 O        1.3213593      4.5611110      7.0703359
 H        0.7601234      3.7807238      7.3460369
 H        1.0053859      4.9028096      6.1852350
 O       -0.1841894      2.1366735     10.9267702
 H        0.6093670      2.3597240     11.4929123
 H       -0.0072237      1.2911261     10.4230509
 O       -4.6945047     -0.0537037      4.2831526
 H       -4.3794165      0.1935600      5.1994386
 H       -5.6535182      0.2094709      4.1781149
 O       -3.5061288     -0.9711588     11.9497442
 H       -3.2866402     -1.9345045     12.1039867
 H       -3.9480090     -0.5953859     12.7643223
 O        2.7793756      1.1336914      8.5599728
 H        3.3114128      0.6532306      9.2571774
 H        3.1046073      2.0762029      8.4831791
 O       -4.0865636      1.3096608      6.7265511
 H       -4.8221807      1.4309431      7.3930035
 H       -3.2178853      1.1893522      7.2070971
 O       -0.7759274      2.8643389      7.4058762
 H       -1.0481224      1.9090906      7.2900691
 H       -1.3633324      3.4485724      6.8458519
 O        3.9588163      3.9195695      7.9745941
 H        3.0232153      4.2386012      7.8233652
 H        4.1363449      3.8609974      8.9569654
 O       -0.2833094     -2.5543928      8.1992188
 H       -0.3416132     -3.3898771      8.7456322
 H       -0.0631971     -2.7898705      7.2525921
 O       10.4102669      9.5389576     -0.1309573
 H       10.8866730     10.2153111     -0.6927247
 H       10.1947546      8.7361546     -0.6868913
 O       13.2036915      7.2455568     -0.6746731
 H       14.1200733      6.9468298     -0.4082008
 H       13.1584301      7.3350677     -1.6696303
 O       12.0721521      8.2292528      1.8380059
 H       12.2815771      7.9087691      0.9141922
 H       12.0140762      7.4462523      2.4573100
 O       11.8247738     12.7566204      2.6789658
 H       12.4236345     13.0046158      1.9174778
 H       12.1021805     11.8686085      3.0456822
 O        9.6808109     14.3973503     -0.2758712
 H        9.2520742     14.0023518     -1.0883744
 H        9.9084892     13.6677275      0.3689646
 O        8.2208652      9.9713545     -2.4611344
 H        8.5910625      9.2373753     -1.8917230
 H        8.6601248      9.9503202     -3.3592486
 O       11.6095486      9.8950558     -3.5273366
 H       11.8780298      8.9438820     -3.3750668
 H       12.0111160     10.4726381     -2.8166027
 O       12.6792173      6.0321817      3.5118492
 H       13.3787384      5.8798885      4.2100444
 H       11.8909912      5.4450130      3.6960592
 O        9.2079582      9.1610527      2.4343464
 H        8.2719278      9.5118198      2.4058805
 H        9.6033831      9.1914234      1.5163500
 O        9.5645943      6.0703869      2.2017982
 H        9.3570795      7.0468936      2.2598798
 H        9.5882120      5.7911372      1.2418698
 O        5.5241017     12.7777691      4.4972377
 H        6.4331656     12.6518497      4.1000624
 H        5.4150825     12.1662073      5.2808881
 O       14.5776234      5.5571766      1.4952512
 H       15.3528423      5.6298470      2.1227508
 H       13.7392359      5.8277206      1.9684451
 O        7.6997309     14.6161203     -4.6136398
 H        6.8189001     14.3701534     -4.2091174
 H        7.8760734     14.0342007     -5.4075379
 O       12.7691345      7.0950880     -3.3320818
 H       13.5477638      6.6186376     -3.7404099
 H       12.0434933      6.4369154     -3.1314447
 O       13.7848978     12.8438988      0.8106084
 H       14.2196217     11.9436188      0.8332528
 H       14.3757992     13.5109138      1.2643998
 O        4.5117450      5.1576982     -4.4187951
 H        4.3159986      4.8741031     -3.4800417
 H        4.6956153      4.3503237     -4.9794540
 O        9.3114519     10.3049374     -4.8924699
 H       10.1668568     10.2931786     -4.3746424
 H        9.3852644      9.6832561     -5.6722546
 O       10.4377747     14.3089342      4.1132898
 H       10.7110186     13.4441490      3.6919999
 H       10.0274038     14.9021454      3.4206879
 O       12.2092972     10.4599943      3.7191322
 H       12.0213270      9.7349043      3.0566273
 H       11.8360596     10.2022018      4.6103325
 O        9.6027269      6.9948044     -4.2777767
 H        9.1736412      6.0989609     -4.3933220
 H        9.8664074      7.3559747     -5.1722202
 O        4.2017593     10.1024332      0.7382495
 H        3.5012188      9.4722929      1.0731629
 H        5.1027184      9.7896605      1.0389931
 O        6.9407606      6.4652576      2.9602532
 H        7.8927670      6.1594419      2.9729347
 H        6.6557341      6.7064552      3.8879302
 O        7.8347015     12.4015942      3.5564666
 H        8.2893505     11.7033844      4.1094580
 H        8.0429525     12.2494116      2.5903025
 O       11.1863594     14.4261112     -2.7946639
 H       10.6251230     13.6457233     -2.5189631
 H       10.8703861     14.7678089     -3.6797647
 O        9.6808100     12.0016727      1.0617703
 H       10.4743671     12.2247238      1.6279130
 H        9.8577757     11.1561260      0.5580508
 O        5.1704950      9.8112965     -5.5818472
 H        5.4855833     10.0585594     -4.6655612
 H        4.2114816     10.0744705     -5.6868849
 O        6.3588710      8.8938408      2.0847447
 H        6.5783596      7.9304953      2.2389865
 H        5.9169908      9.2696142      2.8993227
 O       12.6443748     10.9986916     -1.3050275
 H       13.1764126     10.5182304     -0.6078227
 H       12.9696074     11.9412022     -1.3818203
 O        5.7784362     11.1746607     -3.1384490
 H        5.0428190     11.2959433     -2.4719965
 H        6.6471148     11.0543518     -2.6579030
 O        9.0890722     12.7293386     -2.4591238
 H        8.8168774     11.7740908     -2.5749307
 H        8.5016670     13.3135719     -3.0191481
 O       13.8238163     13.7845688     -1.8904058
 H       12.8882151     14.1036015     -2.0416343
 H       14.0013447     13.7259970     -0.9080343
 O        9.5816908      7.3106070     -1.6657813
 H        9.5233870      6.4751225     -1.1193681
 H        9.8018026      7.0751295     -2.6124077
 O        0.5452667      9.5389576      9.7340422
 H        1.0216732     10.2153111      9.1722755
 H        0.3297549      8.7361546      9.1781082
 O        3.3386919      7.2455568      9.1903267
 H        4.2550735      6.9468298      9.4567986
 H        3.2934303      7.3350677      8.1953697
 O        2.2071524      8.2292528     11.7030058
 H        2.4165771      7.9087691     10.7791920
 H        2.1490760      7.4462523     12.3223095
 O        1.9597735     12.7566204     12.5439653
 H        2.5586348     13.0046158     11.7824774
 H        2.2371807     11.8686085     12.9106817
 O       -0.1841888     14.3973503      9.5891285
 H       -0.6129253     14.0023518      8.7766256
 H        0.0434898     13.6677275     10.2339640
 O       -1.6441346      9.9713545      7.4038653
 H       -1.2739372      9.2373753      7.9732766
 H       -1.2048746      9.9503202      6.5057511
 O        1.7445489      9.8950558      6.3376632
 H        2.0130303      8.9438820      6.4899330
 H        2.1461165     10.4726381      7.0483971
 O        2.8142173      6.0321817     13.3768492
 H        3.5137391      5.8798885     14.0750446
 H        2.0259912      5.4450130     13.5610590
 O       -0.6570415      9.1610527     12.2993460
 H       -1.5930719      9.5118198     12.2708797
 H       -0.2616168      9.1914234     11.3813496
 O       -0.3004059      6.0703869     12.0667982
 H       -0.5079198      7.0468936     12.1248798
 H       -0.2767875      5.7911372     11.1068697
 O       -4.3408980     12.7777691     14.3622379
 H       -3.4318342     12.6518497     13.9650621
 H       -4.4499173     12.1662073     15.1458874
 O        4.7126236      5.5571766     11.3602505
 H        5.4878426      5.6298470     11.9877510
 H        3.8742359      5.8277206     11.8334446
 O       -2.1652689     14.6161203      5.2513599
 H       -3.0460997     14.3701534      5.6558824
 H       -1.9889263     14.0342007      4.4574618
 O        2.9041348      7.0950880      6.5329180
 H        3.6827643      6.6186376      6.1245899
 H        2.1784940      6.4369154      6.7335548
 O        3.9198978     12.8438988     10.6756077
 H        4.3546219     11.9436188     10.6982527
 H        4.5107994     13.5109138     11.1293993
 O       -5.3532548      5.1576982      5.4462047
 H       -5.5490012      4.8741031      6.3849583
 H       -5.1693845      4.3503237      4.8855457
 O       -0.5535475     10.3049374      4.9725299
 H        0.3018571     10.2931786      5.4903574
 H       -0.4797358      9.6832561      4.1927452
 O        0.5727751     14.3089342     13.9782896
 H        0.8460187     13.4441490     13.5569992
 H        0.1624043     14.9021454     13.2856874
 O        2.3442979     10.4599943     13.5841322
 H        2.1563275      9.7349043     12.9216270
 H        1.9710603     10.2022018     14.4753323
 O       -0.2622731      6.9948044      5.5872231
 H       -0.6913587      6.0989609      5.4716778
 H        0.0014073      7.3559747      4.6927795
 O       -5.6632404     10.1024332     10.6032495
 H       -6.3637810      9.4722929     10.9381628
 H       -4.7622814      9.7896605     10.9039927
 O       -2.9242394      6.4652576     12.8252525
 H       -1.9722326      6.1594419     12.8379345
 H       -3.2092657      6.7064552     13.7529297
 O       -2.0302980     12.4015942     13.4214668
 H       -1.5756495     11.7033844     13.9744577
 H       -1.8220474     12.2494116     12.4553022
 O        1.3213593     14.4261112      7.0703359
 H        0.7601234     13.6457233      7.3460369
 H        1.0053859     14.7678089      6.1852350
 O       -0.1841894     12.0016727     10.9267702
 H        0.6093670     12.2247238     11.4929123
 H       -0.0072237     11.1561260     10.4230509
 O       -4.6945047      9.8112965      4.2831526
 H       -4.3794165     10.0585594      5.1994386
 H       -5.6535182     10.0744705      4.1781149
 O       -3.5061288      8.8938408     11.9497442
 H       -3.2866402      7.9304953     12.1039867
 H       -3.9480090      9.2696142     12.7643223
 O        2.7793756     10.9986916      8.5599728
 H        3.3114128     10.5182304      9.2571774
 H        3.1046073     11.9412022      8.4831791
 O       -4.0865636     11.1746607      6.7265511
 H       -4.8221807     11.2959433      7.3930035
 H       -3.2178853     11.0543518      7.2070971
 O       -0.7759274     12.7293386      7.4058762
 H       -1.0481224     11.7740908      7.2900691
 H       -1.3633324     13.3135719      6.8458519
 O        3.9588163     13.7845688      7.9745941
 H        3.0232153     14.1036015      7.8233652
 H        4.1363449     13.7259970      8.9569654
 O       -0.2833094      7.3106070      8.1992188
 H       -0.3416132      6.4751225      8.7456322
 H       -0.0631971      7.0751295      7.2525921
 O       10.4102669     -0.3260423      9.7340422
 H       10.8866730      0.3503118      9.1722755
 H       10.1947546     -1.1288455      9.1781082
 O       13.2036915     -2.6194429      9.1903267
 H       14.1200733     -2.9181702      9.4567986
 H       13.1584301     -2.5299318      8.1953697
 O       12.0721521     -1.6357466     11.7030058
 H       12.2815771     -1.9562308     10.7791920
 H       12.0140762     -2.4187474     12.3223095
 O       11.8247738      2.8916209     12.5439653
 H       12.4236345      3.1396165     11.7824774
 H       12.1021805      2.0036089     12.9106817