&GLOBAL
  PROJECT mfi
  RUN_TYPE MD
&END GLOBAL

&MOTION
  &MD
    STEPS 20
    TEMPERATURE 300
  &END MD
&END MOTION

&FORCE_EVAL
  METHOD FIST
  &MM
    &FORCEFIELD
      &BEND
        ATOMS Si O Si
        K 0.0
        KIND HARMONIC
        THETA0 0.0
      &END BEND
      &BEND
        ATOMS O Si O
        K 0.0
        KIND HARMONIC
        THETA0 0.0
      &END BEND
      &BOND
        ATOMS Si O
        K 0.5
        KIND HARMONIC
        R0 [angstrom] 1.59
      &END BOND
      &CHARGE
        ATOM Si
        CHARGE 0.0
      &END CHARGE
      &CHARGE
        ATOM O
        CHARGE 0.0
      &END CHARGE
      &NONBONDED
        &GENPOT
          ATOMS Si Si
          FUNCTION 0.0
          VARIABLES r
        &END GENPOT
        &GENPOT
          ATOMS Si O
          FUNCTION 0.0
          VARIABLES r
        &END GENPOT
        &GENPOT
          ATOMS O O
          FUNCTION 0.0
          VARIABLES r
        &END GENPOT
      &END NONBONDED
      &SPLINE
        R0_NB 0.1
      &END SPLINE
    &END FORCEFIELD
    &POISSON
      &EWALD
        GMAX 25
      &END EWALD
    &END POISSON
    &PRINT
      #&NEIGHBOR_LISTS
      #&END NEIGHBOR_LISTS
      &FF_INFO DEBUG
      &END FF_INFO
      &SUBCELL
      &END SUBCELL
    &END PRINT
  &END MM
  &PRINT
    &FORCES
      &EACH
        MD 1
      &END EACH
    &END FORCES
  &END PRINT
  &SUBSYS
    &CELL
      ABC 20.413734 19.904612 13.453377
    &END CELL
    &PRINT
      #&INTERATOMIC_DISTANCES
      #&END INTERATOMIC_DISTANCES
      #&TOPOLOGY_INFO
      #    XYZ_INFO T
      #    GENERATE_INFO F
      #&END TOPOLOGY_INFO
      #&KINDS
      #&END KINDS
    &END PRINT
    &TOPOLOGY
      COORDINATE XYZ
      COORD_FILE_NAME ../sample_xyz/mfi.xyz
      &GENERATE
        CREATE_MOLECULES T
      &END GENERATE
    &END TOPOLOGY
  &END SUBSYS
&END FORCE_EVAL
