&FORCE_EVAL
  METHOD FIST
  &MM
    &FORCEFIELD
      &SPLINE
        EPS_SPLINE 1.E-5
      &END
      &BOND
        ATOMS O H
        KIND HARMONIC
        K     0.4544027121
        R0     1.8247411098
      &END BOND
      &BOND
        ATOMS H H
        KIND HARMONIC
        K     0.0540008776
        R0     3.0623488049
      &END BOND
      &CHARGE
        ATOM O
        CHARGE    -0.8251540287
      &END CHARGE
      &CHARGE
        ATOM H
        CHARGE     0.4125770143
      &END CHARGE
      &NONBONDED
        &IPBV
          atoms O O
          RCUT 7.8
        &END IPBV
        &IPBV
          atoms H O
          RCUT 7.8
        &END IPBV
        &IPBV
          atoms H H
          RCUT 7.8
        &END IPBV
      &END NONBONDED
    &END FORCEFIELD
    &POISSON
      &EWALD
        EWALD_TYPE spme
        ALPHA .2
        GMAX 32
        O_SPLINE 4
      &END EWALD
    &END POISSON
  &END MM
  &SUBSYS
# Hayward-Reimers 3x2x2-C2 xl=13.52118 yl=15.61292 zl=14.72000 x-shift=  .00000
    &CELL
      ABC 1.3715563069122998E+01 1.5837374323333655E+01 1.4931617534674354E+01
      UNIT ANGSTROM
    &END CELL
     &COORD
O    8.2681683892966973E-01    1.4029934995339690E+00    1.7951662704728535E+00 H2O
H    9.5896463872029836E-01    1.3628446824407388E+00    8.3486570035490859E-01 H2O
H    7.7246252902465395E-02    2.0078178718009050E+00    2.0078189196185989E+00 H2O
O    3.3348524845531200E+00    2.6706086050905662E+00    2.1636289006960232E+00 H2O
H    2.5506948378584173E+00    2.0961182755221643E+00    2.0072207636107211E+00 H2O
H    4.0905071139049829E+00    2.3226820958021333E+00    1.6648698127240342E+00 H2O
O    1.4094417110109281E+00    1.2619857749289696E+00    6.0439338442201436E+00 H2O
H    1.3915531790539877E+00    3.6482662866538185E-01    5.6311089365241616E+00 H2O
H    2.2508792199562806E+00    1.6647716241456878E+00    5.6988112980560572E+00 H2O
O    3.7262459753322363E+00    2.5796120210474816E+00    5.1310622165137980E+00 H2O
H    3.5453213054346766E+00    2.5381921182485141E+00    4.2142893918729598E+00 H2O
H    4.5703906646158785E+00    2.1932721588402004E+00    5.3995058851503277E+00 H2O
O    3.1472897300843710E+00    5.2370976412506272E+00    1.3168242213663370E+00 H2O
H    2.3961147238464728E+00    5.6665145737216198E+00    1.9139820126391121E+00 H2O
H    3.1562945024773654E+00    4.3871298813713553E+00    1.7013850952472767E+00 H2O
O    1.1807787776317111E+00    6.5345726075894728E+00    2.6562040962796876E+00 H2O
H    4.0365509775875191E-01    6.0741515845140048E+00    2.3638798178435496E+00 H2O
H    1.0632477763427899E+00    7.4745416341392028E+00    2.4411555824227555E+00 H2O
O    3.7339456217792106E+00    5.2228081826542621E+00    5.8735699302656164E+00 H2O
H    3.8020848753123735E+00    5.2304357926497174E+00    6.8383896718221067E+00 H2O
H    3.7413263702392943E+00    4.3277563485413646E+00    5.5850891862510528E+00 H2O
O    1.4392262515599983E+00    6.6631589830712699E+00    5.5676042962606074E+00 H2O
H    1.4027686100440739E+00    6.5185682824727271E+00    4.6170279306111484E+00 H2O
H    2.3088801350941739E+00    6.3208713638645202E+00    5.8783437449484763E+00 H2O
O    1.2486980485764572E+00    9.2633599625266356E+00    1.7436422387446180E+00 H2O
H    1.3460553553498993E+00    9.1333291067776710E+00    7.7396057784618832E-01 H2O
H    2.0277470172707863E+00    9.9181547271832091E+00    1.9430061689598030E+00 H2O
O    3.5832453141292340E+00    1.0611596484551898E+01    2.4610225383719122E+00 H2O
H    3.6618331615839788E+00    1.0471928439410251E+01    3.4681993825582986E+00 H2O
H    3.5930372664142238E+00    1.1564200307840915E+01    2.1967245351895497E+00 H2O
O    1.0876098311803886E+00    9.1433608546552794E+00    6.6078235350489534E+00 H2O
H    4.2539176117524036E-01    9.5348105707428754E+00    5.9833955283463887E+00 H2O
H    1.1340418350941206E+00    8.1981468784470302E+00    6.2711966950957816E+00 H2O
O    3.4353070439487774E+00    1.0427020937281341E+01    5.2708233893905678E+00 H2O
H    2.7670947730470674E+00    9.9512721215240596E+00    5.8187103703453005E+00 H2O
H    4.1971833195933597E+00    9.9637851339539161E+00    5.7059686808636370E+00 H2O
O    3.5493329819147288E+00    1.3290647104860941E+01    1.5541752496117494E+00 H2O
H    3.4452733722580176E+00    1.3197027014446995E+01    6.1640073725260913E-01 H2O
H    2.7733590198539861E+00    1.3822413232127458E+01    1.7873946752274128E+00 H2O
O    1.2992934104574339E+00    1.4568125604305816E+01    2.5125045170588636E+00 H2O
H    1.1899047261747455E+00    1.4552457952992450E+01    3.5021099760366474E+00 H2O
H    1.0617687465781371E+00    1.5455724758237828E+01    2.3034426967728328E+00 H2O
O    3.6369858343292587E+00    1.3240532262383439E+01    6.3955382896791759E+00 H2O
H    3.6227839503286265E+00    1.3218530773451567E+01    7.3487221545266674E+00 H2O
H    3.4925990209806987E+00    1.2310024130022471E+01    6.0939848406082726E+00 H2O
O    1.3939131883263918E+00    1.4495953737430279E+01    5.2228950655253135E+00 H2O
H    6.1780426605012884E-01    1.3956237114260110E+01    5.6693353369387456E+00 H2O
H    2.2794446682480221E+00    1.4116018539267611E+01    5.5788597675094733E+00 H2O
O    5.7604668746466299E+00    1.1573772188097136E+00    1.1709840581171396E+00 H2O
H    5.6561068432264223E+00    3.5345932734891944E-01    1.6601860378674576E+00 H2O
H    6.5905110699978202E+00    1.6139569504025029E+00    1.5658309263436787E+00 H2O
O    7.9546309026830917E+00    2.3862162214369640E+00    2.2433323324403323E+00 H2O
H    7.9612863062653165E+00    2.4504005449815365E+00    3.2395234732702636E+00 H2O
H    8.7798840596840542E+00    1.9290139110639157E+00    2.0812186364659651E+00 H2O
O    5.9235126924222863E+00    1.5680504034649372E+00    6.0682063171773777E+00 H2O
H    6.0619784743671703E+00    1.5812336345795208E+00    7.0564587553698868E+00 H2O
H    6.7407321944908647E+00    2.0279780611724729E+00    5.6972746310202860E+00 H2O
O    8.1395935407512088E+00    2.7744277849164760E+00    5.0436542891994725E+00 H2O
H    8.8877683460003123E+00    2.1617542491562380E+00    5.3428680247416072E+00 H2O
H    8.3873317108688195E+00    3.7104762042900390E+00    5.3031851531088376E+00 H2O
O    8.2434571748793068E+00    5.1397898358879468E+00    1.4244487484199275E+00 H2O
H    7.4421707941233874E+00    5.4784387402735124E+00    1.8500452170287891E+00 H2O
H    8.1464472228450120E+00    4.1595235629479204E+00    1.6368776026026652E+00 H2O
O    5.6815048447714442E+00    6.3330521513669593E+00    2.0551505933251510E+00 H2O
H    4.9318108274772845E+00    5.8678458610834179E+00    1.5122450853336871E+00 H2O
H    5.6660958945316384E+00    7.2471980505366362E+00    1.7116273301791252E+00 H2O
O    8.1969766759403644E+00    5.4469249060717821E+00    6.0117043578916816E+00 H2O
H    7.3662715347476917E+00    5.8680681332135514E+00    5.7457911645431388E+00 H2O
H    9.0106635302601994E+00    5.8560784081643673E+00    5.6570830699845658E+00 H2O
O    5.7759151280113716E+00    6.6323509771907325E+00    4.7713986753934803E+00 H2O
H    5.7048240278551265E+00    6.4409032073561523E+00    3.7762436661233707E+00 H2O
H    5.1262871796744234E+00    5.9927901359203481E+00    5.1681967630150947E+00 H2O
O    5.3868726975065222E+00    9.0721665587235716E+00    9.7922240767310931E-01 H2O
H    4.7277531793870109E+00    9.5998047999941161E+00    1.5845662012481005E+00 H2O
H    6.1794759264445904E+00    9.5417416932247416E+00    1.3352593018377310E+00 H2O
O    7.5683538139678914E+00    1.0465395093065661E+01    1.8793759603122435E+00 H2O
H    8.4759390166639434E+00    1.0112186535627107E+01    1.7966149515220029E+00 H2O
H    7.7088769535719255E+00    1.1422514859673390E+01    1.5542463153401804E+00 H2O
O    5.6919396706156622E+00    8.8876743113209535E+00    6.2071655965256243E+00 H2O
H    5.9420991234942502E+00    8.0257805298497580E+00    5.8557725367301758E+00 H2O
H    6.3593966370028356E+00    9.5009278886301338E+00    5.6661332245948888E+00 H2O
O    7.5151787570135076E+00    1.0529980985887894E+01    4.7531786377077587E+00 H2O
H    7.9162005469461869E+00    1.0488647913636328E+01    3.8403633217132649E+00 H2O
H    7.6336020027428244E+00    1.1464043104111235E+01    4.9876748096275429E+00 H2O
O    7.9864392536067053E+00    1.3076132098668184E+01    1.3707015354552730E+00 H2O
H    7.2180613543668324E+00    1.3604202753501612E+01    1.6923121271923585E+00 H2O
H    8.7622466791152895E+00    1.3647891711273505E+01    1.6014725976877147E+00 H2O
O    5.7802663495262978E+00    1.4594201320270720E+01    2.3799788134961681E+00 H2O
H    5.7712457818422518E+00    1.4676830607757676E+01    3.3773587480593457E+00 H2O
H    5.0212395240401166E+00    1.4001307194629522E+01    2.3079724129736179E+00 H2O
O    7.8674638104615262E+00    1.3226334031385738E+01    5.6008574510955409E+00 H2O
H    7.8579141279196438E+00    1.3129341505797461E+01    6.6190295069703557E+00 H2O
H    6.9652693823299829E+00    1.3622452793719038E+01    5.4042087432136521E+00 H2O
O    5.6147044648014273E+00    1.4772864475392026E+01    5.2001230626604693E+00 H2O
H    4.8713828491170910E+00    1.4311376585326167E+01    5.7221425709459570E+00 H2O
H    5.7346562409382811E+00    1.5691631905049359E+01    5.5582455447064607E+00 H2O
O    1.0229410974748562E+01    1.0160139543121876E+00    1.4858886834707097E+00 H2O
H    1.0257109961793258E+01    9.5778427143290956E-01    5.1076159530075405E-01 H2O
H    1.0314858754112947E+01    1.2045788549690491E-01    1.8337276949780967E+00 H2O
O    1.2166635912602260E+01    2.7502172605876054E+00    2.4781295984092759E+00 H2O
H    1.2314875555608619E+01    2.6154250108790285E+00    3.4203563983316996E+00 H2O
H    1.1401826948823397E+01    2.1485866398469535E+00    2.1641004218033468E+00 H2O
O    1.0406435076633207E+01    1.2375269055672007E+00    5.7902757417659032E+00 H2O
H    1.0442866638024082E+01    1.2219058541792045E+00    6.7883026016946486E+00 H2O
H    1.1177513919876246E+01    1.6882479044153536E+00    5.5324814916019580E+00 H2O
O    1.2596923746743178E+01    2.6254765051704529E+00    5.1931341403793860E+00 H2O
H    1.3376657896542362E+01    2.0705415784006962E+00    5.5279478155413750E+00 H2O
H    1.2706474236668422E+01    3.5532855153123628E+00    5.4126750432511290E+00 H2O
O    1.2809213296139024E+01    5.2709313988466873E+00    1.5484508558669527E+00 H2O
H    1.2746636063236441E+01    5.3451367499292282E+00    5.4883124536975259E-01 H2O
H    1.2451078700278693E+01    4.4523616472436620E+00    1.8763368067406609E+00 H2O
O    1.0302848755887998E+01    6.8287406625312403E+00    2.2897234523190875E+00 H2O
H    9.7020701834254020E+00    6.1034533306299767E+00    1.8684325533548809E+00 H2O
H    1.1139650246998228E+01    6.3924839700845100E+00    2.1898426821550370E+00 H2O
O    1.2398539999493622E+01    5.3907799616123251E+00    5.8390321192971957E+00 H2O
H    1.1676256427135510E+01    6.0548924328519229E+00    5.6070412644578864E+00 H2O
H    1.3245370618913412E+01    5.8724052486507565E+00    5.7549291455614782E+00 H2O
O    1.0329081599806420E+01    6.8513160003700220E+00    5.0078316561260730E+00 H2O
H    1.0300863565122697E+01    7.0098268852177457E+00    4.0570712851157094E+00 H2O
H    1.0101421535707342E+01    7.7604045929135284E+00    5.3503241688874930E+00 H2O
O    1.0151567207869988E+01    9.4929974200637695E+00    1.4244356146925974E+00 H2O
H    1.0156236272547439E+01    8.6211025321712818E+00    1.8828436414889906E+00 H2O
H    1.0888175209168873E+01    9.9530155715219220E+00    1.8236843950026853E+00 H2O
O    1.2656354358072763E+01    1.0589483271713137E+01    2.6208769622357919E+00 H2O
H    1.3568850357268914E+01    1.0140191253445190E+01    2.4296757993573825E+00 H2O
H    1.2808646712022686E+01    1.1502005047336667E+01    2.1253863237777222E+00 H2O
O    9.7978426707209589E+00    9.3642465747042127E+00    6.0784755992286144E+00 H2O
H    9.7536014236431257E+00    9.3924499796791086E+00    7.0678305126040231E+00 H2O
H    8.9821186540947409E+00    9.9027739513716089E+00    5.7130654828268241E+00 H2O
O    1.2537295113215832E+01    1.0391345149749831E+01    5.4781140876075867E+00 H2O
H    1.2551557073062135E+01    1.0513146433210556E+01    4.4300473813316819E+00 H2O
H    1.1680213207370983E+01    9.9599523639702685E+00    5.6853911463983327E+00 H2O
O    1.2727778713875928E+01    1.3207920476516714E+01    1.6169686153662439E+00 H2O
H    1.2710265422097253E+01    1.3249766210612352E+01    6.1169883106849243E-01 H2O
H    1.3618944340579279E+01    1.3533981519501555E+01    1.9294323406506544E+00 H2O
O    1.0405229010202795E+01    1.4376738750823346E+01    2.4237984472554133E+00 H2O
H    1.0398434656590808E+01    1.4362177921298818E+01    3.4448217197059274E+00 H2O
H    1.1336195327063134E+01    1.4026158309258099E+01    2.2110374470874836E+00 H2O
O    1.2657305366354111E+01    1.3310394300512550E+01    6.1753229686673787E+00 H2O
H    1.1831847956456100E+01    1.3721644339960203E+01    5.9217518243206335E+00 H2O
H    1.2441221258664042E+01    1.2265609497173259E+01    6.0283779904377646E+00 H2O
O    1.0335071289216879E+01    1.4397757527851850E+01    5.2432111434682485E+00 H2O
H    9.4655236507913845E+00    1.4013110629320233E+01    5.3879666450994810E+00 H2O
H    1.0114944786170120E+01    1.5355968434051164E+01    5.4372613684733571E+00 H2O
O    1.1426749312852718E+00    1.4582171809147191E+00    8.7667989605737908E+00 H2O
H    9.6273659237550080E-01    1.3313045651552420E+00    7.8241590225490976E+00 H2O
H    2.0354499427953936E+00    1.8719315490164872E+00    8.8467247417949118E+00 H2O
O    3.6403084352498865E+00    2.3856158839813033E+00    9.4076581621106836E+00 H2O
H    3.6599909803460595E+00    2.3256933613419832E+00    1.0359586776907268E+01 H2O
H    4.5175383360335744E+00    2.2865517315253254E+00    9.1030272352169099E+00 H2O
O    1.2380793980452338E+00    1.4076715846714647E+00    1.3630108704241254E+01 H2O
H    3.0801159598465561E-01    1.7525533771912212E+00    1.3609632155697472E+01 H2O
H    1.1858355864088963E+00    4.8715155866679971E-01    1.3418112598161791E+01 H2O
O    3.3175435326985840E+00    2.4929175049142418E+00    1.2436807598030704E+01 H2O
H    2.5031525205236558E+00    2.2044924817538276E+00    1.2890194537573416E+01 H2O
H    3.5064513287311079E+00    3.4651933642717818E+00    1.2718376228135787E+01 H2O
O    3.3135727098553795E+00    5.0261929423048715E+00    8.7931533348383280E+00 H2O
H    3.2946955147903627E+00    4.0832900111535730E+00    8.9898536761215819E+00 H2O
H    4.0229262270310189E+00    5.6483780507037116E+00    9.2195759284030085E+00 H2O
O    1.0183923819332077E+00    6.3631093897620969E+00    9.7374054636054126E+00 H2O
H    1.7919518453676947E-01    5.9694737867081198E+00    9.3480231034196937E+00 H2O
H    1.7322639216452040E+00    5.8188311776018242E+00    9.3141134564506132E+00 H2O
O    3.3229065114671950E+00    5.2570693324329056E+00    1.3547370340411346E+01 H2O
H    3.2882241027498615E+00    5.3101512731240055E+00    1.4565714530983653E+01 H2O
H    2.4493786779521667E+00    5.6768897514646621E+00    1.3241100840245757E+01 H2O
O    1.0544300295039042E+00    6.5580579389797826E+00    1.2612185953699283E+01 H2O
H    9.0907046637250966E-01    6.6010857689114051E+00    1.1677022982029287E+01 H2O
H    1.2362846540794492E+00    7.5323796370757110E+00    1.2883494867853360E+01 H2O
O    1.2876140418460169E+00    9.0986318038895604E+00    9.3138928727472692E+00 H2O
H    1.1624751483278888E+00    9.1917101499633560E+00    8.3750308038842771E+00 H2O
H    1.3281113081233082E+00    8.1582554574351729E+00    9.6019402590521405E+00 H2O
O    3.3828692881604092E+00    1.0757794937622009E+01    9.8744639879842229E+00 H2O
H    2.6464771615715255E+00    1.0093621649171098E+01    9.5998206878586156E+00 H2O
H    4.2054253695326871E+00    1.0395253515527914E+01    9.4339020065603822E+00 H2O
O    1.0877366008195013E+00    9.4916494424974598E+00    1.3843877941668522E+01 H2O
H    2.4862459151008084E-01    9.8542951188519030E+00    1.3575761694390554E+01 H2O
H    1.8659984194321275E+00    9.9484571676902718E+00    1.3460299601099743E+01 H2O
O    3.4366759489810179E+00    1.0907463131960073E+01    1.2666910619803859E+01 H2O
H    3.3731389005770582E+00    1.1086897349158949E+01    1.1680847388679032E+01 H2O
H    4.3024199682436262E+00    1.0358367374706658E+01    1.2698307111207301E+01 H2O
O    3.0823076106186083E+00    1.3512284921783657E+01    9.2554219657288002E+00 H2O
H    2.2442585858950923E+00    1.3915930381089163E+01    9.4542650253464426E+00 H2O
H    3.0495065564895496E+00    1.2593314341466078E+01    9.5906738318641764E+00 H2O
O    8.8840006356149248E-01    1.4976921466515964E+01    1.0168019704624058E+01 H2O
H    1.4006629300175438E-01    1.4569430969659058E+01    9.7416281783550183E+00 H2O
H    9.4118775487070760E-01    1.5860228311083935E+01    9.7229133699908612E+00 H2O
O    3.7028674689296111E+00    1.3336737569295478E+01    1.3730693386840555E+01 H2O
H    3.6381087909151986E+00    1.2411449019236830E+01    1.3561631335627139E+01 H2O
H    4.5193498842307331E+00    1.3686440957131472E+01    1.3203237703544389E+01 H2O
O    1.1411968363960483E+00    1.4750947874354916E+01    1.2680650182830231E+01 H2O
H    1.0689200980571922E+00    1.4711699041974102E+01    1.1703882165857960E+01 H2O
H    2.0322335151370550E+00    1.4427992896007819E+01    1.2866862455388835E+01 H2O
O    6.1807567387028746E+00    1.2071860155722138E+00    8.8473398688369276E+00 H2O
H    6.2007192769215571E+00    2.9380217757142146E-01    9.1343754501955914E+00 H2O
H    7.0574996458621495E+00    1.5160310034694540E+00    9.3916945090830346E+00 H2O
O    8.3570463095752281E+00    2.4493980938725981E+00    9.6092686879234872E+00 H2O
H    8.4255353520905008E+00    2.5706948675184860E+00    1.0606205131139072E+01 H2O
H    8.0443324157750258E+00    3.4387845991947543E+00    9.4380074196668193E+00 H2O
O    5.7134746203976823E+00    1.2875834005619047E+00    1.3258825380007650E+01 H2O
H    5.6279014958374463E+00    1.2065583151353960E+00    1.4256813462853367E+01 H2O
H    4.8113426919742528E+00    1.6048199708337465E+00    1.2996072742364641E+01 H2O
O    8.1237523102044733E+00    2.5141279270057195E+00    1.2551978158185905E+01 H2O
H    7.3152614895102817E+00    2.1172446241221596E+00    1.2898589741184729E+01 H2O
H    8.1804073794231158E+00    3.3931764052358075E+00    1.3051846020099584E+01 H2O
O    8.0638423402880122E+00    5.1616189792981704E+00    8.9500370257616950E+00 H2O
H    7.9759459080190380E+00    5.1642792308426273E+00    8.0608656393735050E+00 H2O
H    8.8736358564936317E+00    5.6267289609774362E+00    9.2280610172878053E+00 H2O
O    5.7270160484540220E+00    6.4701095265740900E+00    9.7077494775306832E+00 H2O
H    5.7404339076970592E+00    6.3870807434739705E+00    1.0753727997367209E+01 H2O
H    6.5311250579894748E+00    5.9000756934165777E+00    9.4235965698490212E+00 H2O
O    7.9812619582432758E+00    5.0528365881847259E+00    1.3681581400999836E+01 H2O
H    8.0806773164643904E+00    5.0587844927501235E+00    1.4663685247243716E+01 H2O
H    8.7900545412826716E+00    5.6225511499117209E+00    1.3363780845135649E+01 H2O
O    5.7946207622049428E+00    6.2518945572155618E+00    1.2403339738033612E+01 H2O
H    5.0589897130182537E+00    6.0977353545859918E+00    1.3087878234092688E+01 H2O
H    6.6322932957941649E+00    5.8101917992899503E+00    1.2737973995493835E+01 H2O
O    5.2990464677015137E+00    9.2617458710797571E+00    8.7975596778826262E+00 H2O
H    5.3004984763440914E+00    8.9759167744983888E+00    7.8461283589407156E+00 H2O
H    5.3487145315519466E+00    8.3746355858477628E+00    9.2783008197276331E+00 H2O
O    7.6542283082839990E+00    1.0595545343172425E+01    9.4885838497514587E+00 H2O
H    7.8549881644144008E+00    1.0494347621160536E+01    1.0482301421279102E+01 H2O
H    6.9197910105243849E+00    1.0063698330184705E+01    9.3348611061422240E+00 H2O
O    5.4926481880491567E+00    9.1248899359514706E+00    1.3129356903005394E+01 H2O
H    5.4401999840242530E+00    9.1634777645518035E+00    1.4113250290557023E+01 H2O
H    5.7410823600806378E+00    8.1619645856579179E+00    1.2986418515346479E+01 H2O
O    7.9945506135830628E+00    1.0307689981763721E+01    1.2259275810566701E+01 H2O
H    7.0850493892398010E+00    9.8690937039698312E+00    1.2519521264687457E+01 H2O
H    8.6678496017467292E+00    9.7533136121699560E+00    1.2747773779192180E+01 H2O
O    8.0502638073537156E+00    1.3092956331539845E+01    8.4314349495443555E+00 H2O
H    7.2202093966007848E+00    1.3526499287600744E+01    8.8610103205399717E+00 H2O
H    7.8064012412796080E+00    1.2096545796352601E+01    8.6627154171954643E+00 H2O
O    5.8813694974151325E+00    1.4482758206136959E+01    9.6437386326726884E+00 H2O
H    5.6990606503423553E+00    1.4458546219656776E+01    1.0693290034759340E+01 H2O
H    5.0532851510806189E+00    1.4221242069744232E+01    9.2770325419342115E+00 H2O
O    8.0745513843276626E+00    1.3265090532034066E+01    1.3395519621646724E+01 H2O
H    7.8778821834446262E+00    1.3508453803910289E+01    1.4336545584663915E+01 H2O
H    7.7933938178815723E+00    1.2341817475158065E+01    1.3206001315487178E+01 H2O
O    5.8289540165160929E+00    1.4446859821593465E+01    1.2384534290518918E+01 H2O
H    6.7085375332029482E+00    1.4047777777349213E+01    1.2670432166716385E+01 H2O
H    5.7977099979804878E+00    1.5367096722874532E+01    1.2791144766820786E+01 H2O
O    1.0434549741605423E+01    1.2094713649020727E+00    8.5961883678504094E+00 H2O
H    9.5468258106775057E+00    1.5569060658983436E+00    8.9092142995317456E+00 H2O
H    1.1217953327349646E+01    1.5791502796324772E+00    9.1579532063079938E+00 H2O
O    1.2395031099681674E+01    2.6996063866587559E+00    9.8133173641166724E+00 H2O
H    1.3287834272150803E+01    2.4890062040710639E+00    9.6249435259331282E+00 H2O
H    1.2297327187036991E+01    3.6485047614959183E+00    9.6408852017378379E+00 H2O
O    1.0221096615660564E+01    1.3209411837366805E+00    1.3684662525667605E+01 H2O
H    9.4993478008902770E+00    1.7102685604239096E+00    1.3255038288346197E+01 H2O
H    1.0216961527624903E+01    3.1697456247594391E-01    1.3466486648413660E+01 H2O
O    1.2335354095598550E+01    2.7784249579218994E+00    1.2644787865101517E+01 H2O
H    1.2250790499482152E+01    2.7418717483184998E+00    1.1691187342260429E+01 H2O
H    1.1501725357380192E+01    2.2624992123556003E+00    1.2898607487843199E+01 H2O
O    1.2514805467745973E+01    5.1791044655717506E+00    8.6687880839859996E+00 H2O
H    1.2363237392089413E+01    5.0757283574904060E+00    7.7237731599417154E+00 H2O
H    1.1839536355990507E+01    5.8618684065851445E+00    8.9035281468480907E+00 H2O
O    1.0367334727924083E+01    6.5763178929270776E+00    9.7456671534784540E+00 H2O
H    1.0174635330229895E+01    6.5110091218677164E+00    1.0699949305147811E+01 H2O
H    1.0287550938236727E+01    7.6064861981210292E+00    9.5329549577000456E+00 H2O
O    1.2495511962806155E+01    5.2517077760881739E+00    1.3765925775361618E+01 H2O
H    1.2396309578098803E+01    4.3054567850334182E+00    1.3536581660488796E+01 H2O
H    1.3350391985433534E+01    5.6042239182792954E+00    1.3360926536724815E+01 H2O
O    1.0186506390040353E+01    6.4616918944030255E+00    1.2691356242183666E+01 H2O
H    1.1000666880160891E+01    6.1401424222669130E+00    1.3026930525468291E+01 H2O
H    1.0034104718306649E+01    7.4248429329038563E+00    1.2951244826214886E+01 H2O
O    1.0221540870231747E+01    9.4724180722448743E+00    9.0645480591217673E+00 H2O
H    9.4329932574365944E+00    9.9698877314976411E+00    9.4165924055629944E+00 H2O
H    1.1053530244905204E+01    9.9816666684222017E+00    9.3302139215658482E+00 H2O
O    1.2547692731953102E+01    1.0837496530860816E+01    9.7870440740226474E+00 H2O
H    1.3368954274434044E+01    1.0343524910187837E+01    9.6834984176474972E+00 H2O
H    1.2717063492797479E+01    1.1736138493798476E+01    9.4167729676792788E+00 H2O
O    1.0339270069161023E+01    9.1044720863094941E+00    1.3337224327891104E+01 H2O
H    1.0133848953782222E+01    9.2995425903792732E+00    1.4320614217905948E+01 H2O
H    1.1083873527712985E+01    9.6665655503242061E+00    1.3181446972525695E+01 H2O
O    1.2501677532406163E+01    1.0687676292953958E+01    1.2921803111728618E+01 H2O
H    1.2615699714259483E+01    1.0923575595677688E+01    1.1944725136023273E+01 H2O
H    1.2577522292500149E+01    1.1550472077057083E+01    1.3407256833630509E+01 H2O
O    1.2837658637059340E+01    1.3533853934321709E+01    8.9132770665762493E+00 H2O
H    1.2837305622386767E+01    1.3540922307582029E+01    7.9407336486048861E+00 H2O
H    1.1890812517722674E+01    1.3683230871451267E+01    9.1145607515666480E+00 H2O
O    1.0211985264244680E+01    1.4464899709318612E+01    9.4950439986583053E+00 H2O
H    9.3909789815346727E+00    1.3960671955181287E+01    9.2213441399975764E+00 H2O
H    1.0290311187341601E+01    1.5381712501101475E+01    8.9776826719411051E+00 H2O
O    1.2469062806154584E+01    1.3456570046371255E+01    1.3798772614239738E+01 H2O
H    1.1767137298783926E+01    1.3908448707525761E+01    1.3326275152068689E+01 H2O
H    1.3283616423098083E+01    1.3886285813465804E+01    1.3370759009534501E+01 H2O
O    1.0371921859529115E+01    1.4609585172677768E+01    1.2415148377031720E+01 H2O
H    1.0484114091299153E+01    1.4678311047104676E+01    1.1480024865234219E+01 H2O
H    9.5714256605868577E+00    1.4087682631684840E+01    1.2560442006438034E+01 H2O
     &END COORD
    &TOPOLOGY
      CONNECTIVITY   UPSF
      CONN_FILE_NAME ../sample_psf/wat_96.psf
    &END TOPOLOGY
  &END SUBSYS
  STRESS_TENSOR ANALYTICAL
  ! STRESS_TENSOR NUMERICAL
&END FORCE_EVAL
&GLOBAL
  PROJECT TEST
  IOLEVEL LOW
  RUN_TYPE MD
&END GLOBAL
&MOTION
  &MD
    ENSEMBLE NPT_F
    STEPS    20
    TIMESTEP 0.5
    TEMPERATURE 310
    &BAROSTAT
      PRESSURE 1.0
      TIMECON  1000
    &END BAROSTAT
    &THERMOSTAT
      &NOSE
        LENGTH 3
        YOSHIDA 3
        TIMECON 1000
        MTS 2
      &END NOSE
    &END
    &PRINT
      &ENERGY
        &EACH
          MD 20
        &END
      &END
    &END
  &END MD
  &PRINT
     &TRAJECTORY
       &EACH
         MD 40
       &END
     &END
     &FORCES
       &EACH
         MD 40
       &END
     &END
     &CELL
       &EACH
         MD 40
       &END
     &END
     &RESTART_HISTORY OFF
     &END
     &RESTART
       &EACH
         MD 40
       &END
     &END
  &END
&END MOTION
