&GLOBAL
  PROJECT silicon
  RUN_TYPE cell_opt
&END GLOBAL
&MOTION
  &CELL_OPT
    TYPE GEO_OPT
    OPTIMIZER CG
    MAX_ITER 20
    EXTERNAL_PRESSURE [kbar] 100.0
    MAX_DR 0.02
    RMS_DR 0.01
    MAX_FORCE 0.002
    RMS_FORCE 0.001
    &CG
      &LINE_SEARCH
        TYPE 2PNT
        &2PNT
        &END
      &END
    &END
  &END
  &GEO_OPT
    MAX_ITER 300
    MINIMIZER BFGS
  &END
  &MD
    ENSEMBLE NVT
    STEPS 2000
    TIMESTEP 1.0
    TEMPERATURE 300.0
    &THERMOSTAT
       TYPE CSVR
       &CSVR
         TIMECON 50.
       &END
    &END
    &BAROSTAT
       PRESSURE 1.0
    &END
    &PRINT
       &PROGRAM_RUN_INFO
         &EACH
            MD 10
         &END
       &END
       &ENERGY
         &EACH
            MD 10
         &END
       &END
    &END
  &END MD
  &PRINT
    &STRESS  LOW
      FILENAME STRESS
    &END STRESS
     &TRAJECTORY
         &EACH
            MD 10
         &END
     &END
     &VELOCITIES OFF
     &END
     &RESTART
         &EACH
            MD 10
         &END
     &END
     &RESTART_HISTORY OFF
     &END
     &CELL
         &EACH
            MD 10
         &END
     &END
  &END
&END MOTION

&FORCE_EVAL
  STRESS_TENSOR ANALYTICAL
  METHOD FIST
  &MM
    &FORCEFIELD
      &SPLINE
       EPS_SPLINE 1.E-6
      &END
      &NONBONDED
        &TERSOFF
          ATOMS Si Si
          A        1.8308E3
          B        4.7118E2
          lambda1  2.4799
          lambda2  1.7322
          alpha    0.00
          beta     1.0999E-6
          n        7.8734E-1
          c        1.0039E5
          d        1.6218E1
          h       -5.9826E-1
          lambda3  1.7322
          bigR     2.85
          bigD     0.15
        &END TERSOFF
      &END NONBONDED
    &END FORCEFIELD
    &POISSON
      &EWALD
        EWALD_TYPE none
      &END EWALD
    &END POISSON
  &END MM
  &SUBSYS
     &CELL
       ABC 8.13214206 8.06814206  8.06814206
     &END CELL
     &COORD
Si   -9.1822567991031090E-01    9.9037589403214676E-01   -8.6004838111888948E-01
Si    1.4790278065311226E+00    8.3627251863229501E-01    5.4949562108358191E-02
Si    1.9251515849118377E+00   -1.1995095949578456E+00    2.3453848654447667E+00
Si    2.6655531695289786E-01    2.0651827522934623E+00    2.0592742851751593E+00
Si    3.7882415016832254E+00    1.0289064989255043E+00   -1.0150217636159131E+00
Si    6.7246333582147937E+00    3.5791144622530315E+00   -7.1730515479889978E-01
Si    6.5852325833993159E+00    5.0397185145029799E-01    1.4888951822081546E+00
Si    4.6859924877451880E+00    1.9949614724443803E+00    1.3446556769253937E+00
Si    5.0871330143033433E-01    4.2420473643248586E+00    5.0771675996083077E-01
Si    1.4213876644054060E+00    6.4974936911937267E+00   -2.7237321458212188E-01
Si    2.6225512010738568E+00    4.6149647441523181E+00    1.7144354552601853E+00
Si   -6.8589276972235180E-01    5.1120101593702625E+00    2.6245935634124313E+00
Si    4.6420239709001541E+00    4.2222116102333969E+00    3.0386641544303539E-01
Si    5.8342425109761189E+00    6.2863370816080106E+00    1.1779389192549434E+00
Si    6.0974975186324212E+00    3.0762993897221076E+00    3.0315474527819295E+00
Si    4.3628242298731115E+00    6.6819480908701490E+00    2.9903623252229767E+00
Si   -3.5635595736485043E-01   -5.5084278320227509E-01    3.3606393436938631E+00
Si    2.7025250408798818E+00    1.2845566583941785E+00    2.4520355380483716E+00
Si    2.8252417451827183E+00    4.7171413648631183E-01    4.8020854248183653E+00
Si    4.8376838390890647E-01    1.6278569205064999E+00    4.6229856607351616E+00
Si    5.4396859831476103E+00   -8.9383118717876880E-02    4.6447139196303828E+00
Si    6.0648820793264617E+00    2.1045719912240402E+00    5.3127433682691345E+00
Si    5.3680933767616690E+00   -8.7508925291976047E-01    7.0356986992332073E+00
Si    3.7996839674682388E+00    3.2619075956688453E+00    6.1136916133081387E+00
Si    6.1183809714791448E-01    4.2432624881981802E+00    4.7194718325482494E+00
Si    2.0272081665292996E+00    6.2871164606768977E+00    4.8667821692187045E+00
Si    1.4487812271661864E+00    2.8575254607766514E+00    6.7494086641515230E+00
Si    1.2013659481496564E-01    7.3126179037601169E+00    5.8329849777310816E+00
Si    2.7456008390747231E+00    3.4075324797544861E+00    3.7072310779200666E+00
Si    4.8702294430826267E+00    4.7090773140810658E+00    4.2373386805226989E+00
Si    6.7389681877516487E+00    5.4054148551738566E+00    5.7868225539255453E+00
Si    3.5116615383666456E+00    5.7514782039142220E+00    6.7183998275311527E+00
     &END COORD
  &END SUBSYS
&END FORCE_EVAL
