&GLOBAL
  PROJECT water_3_dist_inter2
  RUN_TYPE MD
&END GLOBAL

&MOTION
  &CONSTRAINT
    &COLLECTIVE
      COLVAR 1
      INTERMOLECULAR
    &END COLLECTIVE
    &COLLECTIVE
      COLVAR 2
      INTERMOLECULAR
    &END COLLECTIVE
    &COLLECTIVE
      COLVAR 3
      INTERMOLECULAR
    &END COLLECTIVE
    &COLLECTIVE
      COLVAR 4
      INTERMOLECULAR
    &END COLLECTIVE
    &COLLECTIVE
      COLVAR 5
      INTERMOLECULAR
    &END COLLECTIVE
    &COLLECTIVE
      COLVAR 6
      INTERMOLECULAR
    &END COLLECTIVE
  &END CONSTRAINT
  &MD
    ENSEMBLE NVE
    STEPS 10
    TEMPERATURE 298
    TIMESTEP 2.5
  &END MD
&END MOTION

&FORCE_EVAL
  METHOD FIST
  &MM
    &FORCEFIELD
      PARMTYPE CHM
      PARM_FILE_NAME ../sample_pot/water.pot
      &CHARGE
        ATOM OT
        CHARGE -0.8476
      &END CHARGE
      &CHARGE
        ATOM HT
        CHARGE 0.4238
      &END CHARGE
    &END FORCEFIELD
    &POISSON
      &EWALD
        ALPHA .44
        EWALD_TYPE pme
        NS_MAX 25
      &END EWALD
    &END POISSON
  &END MM
  &SUBSYS
    &CELL
      ABC 24.955 24.955 24.955
    &END CELL
    &COLVAR
      &DISTANCE
        ATOMS 1 2
      &END DISTANCE
    &END COLVAR
    &COLVAR
      &DISTANCE
        ATOMS 1 3
      &END DISTANCE
    &END COLVAR
    &COLVAR
      &DISTANCE
        ATOMS 3 2
      &END DISTANCE
    &END COLVAR
    &COLVAR
      &DISTANCE
        ATOMS 4 5
      &END DISTANCE
    &END COLVAR
    &COLVAR
      &DISTANCE
        ATOMS 4 6
      &END DISTANCE
    &END COLVAR
    &COLVAR
      &DISTANCE
        ATOMS 5 6
      &END DISTANCE
    &END COLVAR
    &TOPOLOGY
      COORDINATE pdb
      COORD_FILE_NAME ../sample_pdb/water_2.pdb
    &END TOPOLOGY
  &END SUBSYS
&END FORCE_EVAL
