&GLOBAL
  PRINT_LEVEL MEDIUM
  PROJECT H-gapw-all
  RUN_TYPE ENERGY
&END GLOBAL

&FORCE_EVAL
  METHOD Quickstep
  &DFT
    BASIS_SET_FILE_NAME BASIS_SET
    LSD
    POTENTIAL_FILE_NAME POTENTIAL
    &MGRID
      CUTOFF 150
      NGRIDS 1
    &END MGRID
    &QS
      ALPHA0_HARD 10
      EPSFIT 1.E-4
      EPSISO 1.0E-12
      EPSRHO0 1.E-8
      EPSSVD 0.0
      EPS_GVG 1.0E-6
      EPS_PGF_ORB 1.0E-6
      LMAXN0 2
      LMAXN1 6
      METHOD GAPW
      QUADRATURE GC_LOG
    &END QS
    &SCF
      EPS_SCF 1.0E-4
      IGNORE_CONVERGENCE_FAILURE
      MAX_SCF 2
      SCF_GUESS ATOMIC
    &END SCF
    &XC
      &XC_FUNCTIONAL
        &BECKE88
        &END BECKE88
        &LYP
        &END LYP
      &END XC_FUNCTIONAL
    &END XC
  &END DFT
  &SUBSYS
    &CELL
      ABC 6.0 6.0 6.0
    &END CELL
    &COORD
      H   0.0 0.0 0.0
    &END COORD
    &KIND H
      BASIS_SET DZVP-ALL-PADE
      HARD_EXP_RADIUS 1.5117809071370015011
      LEBEDEV_GRID 50
      POTENTIAL ALL
      RADIAL_GRID 50
    &END KIND
  &END SUBSYS
&END FORCE_EVAL
