&FORCE_EVAL
  METHOD Quickstep
  &DFT
    BASIS_SET_FILE_NAME GTH_BASIS_SETS
    POTENTIAL_FILE_NAME POTENTIAL
    &MGRID
      CUTOFF 240
    &END MGRID
    &QS
      EPS_DEFAULT 1.0E-8
      EXTRAPOLATION PS 
      EXTRAPOLATION_ORDER 3
      METHOD GAPW
      EPS_SVD 0.0
     
    &END QS
    &SCF
      EPS_SCF 1.0E-5
      MAX_SCF 2
      SCF_GUESS ATOMIC
      &OT
        MINIMIZER DIIS
        N_DIIS 7
        PRECONDITIONER FULL_ALL
      &END
    &END SCF
    &XC
      &XC_FUNCTIONAL BLYP
      &END XC_FUNCTIONAL
    &END XC
  &END DFT
  &SUBSYS
    &CELL
      ABC 4.0 4.0 4.0
    &END CELL
    &COORD
   S 0.0 0.0 0.104467
   H 0.0 0.975586 -0.835734
   H 0.0 -0.975586 -0.835734
    &END COORD
    &KIND H
      BASIS_SET TZV2P-GTH
      POTENTIAL GTH-BLYP-q1
      HARD_EXP_RADIUS 1.5117809071370015011
    &END KIND
    &KIND S
      BASIS_SET TZV2P-GTH
      POTENTIAL GTH-BLYP-q6
    &END KIND
  &END SUBSYS
&END FORCE_EVAL
&GLOBAL
  PROJECT H2S-gapw-gop-ot
  PRINT_LEVEL MEDIUM
  RUN_TYPE  GEO_OPT
&END GLOBAL
&MOTION
  &GEO_OPT
    MAX_ITER 2
    OPTIMIZER BFGS
  &END GEO_OPT
&END MOTION
