&FORCE_EVAL
  METHOD Quickstep
  &DFT
    BASIS_SET_FILE_NAME ALL_BASIS_SETS
    POTENTIAL_FILE_NAME POTENTIAL
    &MGRID
      CUTOFF 200
    &END MGRID
    &QS
      METHOD GAPW
    &END QS
    &SCF
      &OT 
         MINIMIZER DIIS
         PRECONDITIONER FULL_ALL
      &END
      EPS_SCF 1.0E-6
      MAX_SCF 20
      SCF_GUESS ATOMIC
    &END SCF
    &XC
      &XC_FUNCTIONAL PADE
      &END XC_FUNCTIONAL
    &END XC
    &PRINT
      &MOMENTS
        MAX_MOMENT 1
        PERIODIC   F
      &END MOMENTS
      &VORONOI
        MOLECULAR_PROPERTIES
      &END
    &END PRINT
  &END DFT
  &SUBSYS
    &CELL
      ABC 8.0 8.0 8.0
    &END CELL
    &COORD
   F 0.0 0.0 0.0    HF
   H 0.0 0.0 0.917  HF
    &END COORD
    &KIND F
      BASIS_SET DZVP-ALL-PADE
      POTENTIAL ALL
    &END KIND
    &KIND H
      BASIS_SET DZVP-ALL-PADE
      POTENTIAL ALL
    &END KIND
  &END SUBSYS
&END FORCE_EVAL
&GLOBAL
  PROJECT HF_dipole      
  RUN_TYPE ENERGY
  PRINT_LEVEL LOW
&END GLOBAL
