&GLOBAL
  PRINT_LEVEL LOW
  PROJECT HF_gapw
  RUN_TYPE WFN_OPT
&END GLOBAL

&FORCE_EVAL
  METHOD Quickstep
  &DFT
    BASIS_SET_FILE_NAME ALL_BASIS_SETS
    POTENTIAL_FILE_NAME POTENTIAL
    &MGRID
      CUTOFF 100
      NGRIDS 2
      REL_CUTOFF 40
    &END MGRID
    &QS
      ALPHA0_H 10
      EPSFIT 1.E-4
      EPSISO 1.0E-12
      EPSRHO0 1.E-8
      EPSSVD 0.0
      EPS_GVG 1.0E-8
      EPS_PGF_ORB 1.0E-8
      LMAXN0 2
      LMAXN1 6
      METHOD GAPW
      QUADRATURE GC_LOG
    &END QS
    &SCF
      EPS_DIIS 0.4
      EPS_SCF 1.0E-8
      MAX_SCF 50
      SCF_GUESS ATOMIC
    &END SCF
    &XC
      DENSITY_CUTOFF 1.0e-11
      &XC_FUNCTIONAL TPSS
      &END XC_FUNCTIONAL
    &END XC
  &END DFT
  &SUBSYS
    &CELL
      ABC 8.0 8.0 8.0
    &END CELL
    &COORD
      F 0.0 0.0 0.0
      H 0.0 0.0 0.917
    &END COORD
    &KIND F
      BASIS_SET DZVP-ALL-PADE
      LEBEDEV_GRID 40
      POTENTIAL ALL
      RADIAL_GRID 50
    &END KIND
    &KIND H
      BASIS_SET DZVP-ALL-PADE
      LEBEDEV_GRID 40
      POTENTIAL ALL
      RADIAL_GRID 50
    &END KIND
  &END SUBSYS
&END FORCE_EVAL
