
&FORCE_EVAL
  METHOD Quickstep
  &DFT
    BASIS_SET_FILE_NAME ../../../data/BASIS_SET
    POTENTIAL_FILE_NAME ../../../data/POTENTIAL
    &QS
      METHOD GAPW
    &END QS
    &SCF
      EPS_SCF 1.0E-5
      MAX_SCF 20
      SCF_GUESS ATOMIC
      &OT ON
        PRECONDITIONER FULL_ALL
      &END OT
    &END SCF
    &XC
      &XC_FUNCTIONAL
        &PADE
        &END PADE
      &END XC_FUNCTIONAL
    &END XC
    &PRINT
      &E_DENSITY_CUBE
         XRD_INTERFACE .TRUE.
      &END
    &END
  &END DFT
  &SUBSYS
    &CELL
      ABC 6.0 6.0 6.0
    &END CELL
    &COORD
    He1 0.0 0.0 0.0
    He2 2.0 0.0 0.0
    &END COORD
    &KIND He1
      ELEMENT He
      BASIS_SET DZVP-ALL-PADE
      POTENTIAL ALL
    &END KIND
    &KIND He2
      ELEMENT He
      BASIS_SET DZVP-GTH-PADE
      POTENTIAL GTH-PADE-q2
    &END KIND
  &END SUBSYS
&END FORCE_EVAL
&GLOBAL
  PROJECT gapw_all_pade
  RUN_TYPE ENERGY
  PRINT_LEVEL LOW
&END GLOBAL
