&FORCE_EVAL
  METHOD Quickstep
  &DFT
    &QS
      METHOD PM6
      &SE
      &END
    &END QS
    &SCF
      MAX_SCF 0
    &END SCF
  &END DFT
  &SUBSYS
    &CELL
#V_4 Zn_5 & I4/mmm-D_{4h}^{17} #139 (ahi) & tI18 & Pearson's Handbook IV, 5354
     A   8.91000000  0.00000000  0.00000000
     B   0.00000000  8.91000000  0.00000000
     C   4.45500000  4.45500000  1.61200000
    &END CELL
    &COORD
 SCALED
Zn  0.00000000  0.00000000  0.00000000     0.00000000  0.00000000  0.00000000
Zn  0.32800000  0.32800000  0.00000000     2.92248000  2.92248000  0.00000000
Zn -0.32800000 -0.32800000  0.00000000    -2.92248000 -2.92248000  0.00000000
Zn -0.32800000  0.32800000  0.00000000    -2.92248000  2.92248000  0.00000000
Zn  0.32800000 -0.32800000  0.00000000     2.92248000 -2.92248000  0.00000000
V   0.34800000  0.00000000  0.00000000     3.10068000  0.00000000  0.00000000
V  -0.34800000  0.00000000  0.00000000    -3.10068000  0.00000000  0.00000000
V   0.00000000  0.34800000  0.00000000     0.00000000  3.10068000  0.00000000
V   0.00000000 -0.34800000  0.00000000     0.00000000 -3.10068000  0.00000000
    &END COORD
    &PRINT
      &SYMMETRY
       CHECK_SYMMETRY 4/mmm
      &END
    &END
    &TOPOLOGY
      CONNECTIVITY OFF
    &END
  &END SUBSYS
&END FORCE_EVAL
&GLOBAL
  PROJECT c_17_V4Zn5
  RUN_TYPE ENERGY
&END GLOBAL
