&FORCE_EVAL
  METHOD Quickstep
  &DFT
    &QS
      METHOD PM6
      &SE
      &END
    &END QS
    &SCF
      MAX_SCF 0
    &END SCF
  &END DFT
  &SUBSYS
    &CELL
#P4_2/mmc-D_{4h}^9 #131 & tP4 & PtS & B17
      A  3.47010000  0.00000000  0.00000000
      B  0.00000000  3.47010000  0.00000000
      C  0.00000000  0.00000000  6.10920000
    &END CELL
    &COORD
 SCALED
Pt  0.00000000  0.50000000  0.00000000     0.00000000  1.73505000  0.00000000
Pt  0.50000000  0.00000000  0.50000000     1.73505000  0.00000000  3.05460000
S   0.00000000  0.00000000  0.25000000     0.00000000  0.00000000  1.52730000
S   0.00000000  0.00000000  0.75000000     0.00000000  0.00000000  4.58190000
    &END COORD
    &PRINT
      &SYMMETRY
       CHECK_SYMMETRY 4/mmm
      &END
    &END
    &TOPOLOGY
      CONNECTIVITY OFF
    &END
  &END SUBSYS
&END FORCE_EVAL
&GLOBAL
  PROJECT c_17_PtS
  RUN_TYPE ENERGY
&END GLOBAL
