&FORCE_EVAL
  METHOD Quickstep
  &DFT
    &QS
      METHOD PM6
      &SE
      &END
    &END QS
    &SCF
      MAX_SCF 0
    &END SCF
  &END DFT
  &SUBSYS
    &CELL
#Bainite (Fe_3C) & P6_322 & #182 D_6^6 & hP8
     A   2.38350000 -4.12834310  0.00000000
     B   2.38350000  4.12834310  0.00000000
     C   0.00000000  0.00000000  4.35400000
    &END CELL
    &COORD
 SCALED
C   0.33333330  0.66666670  0.75000000     2.38350000  1.37611464  3.26550000
C   0.66666670  0.33333330  0.25000000     2.38350000 -1.37611464  1.08850000
Fe  0.33300000  0.00000000  0.00000000     0.79370550 -1.37473825  0.00000000
Fe  0.00000000  0.33300000  0.00000000     0.79370550  1.37473825  0.00000000
Fe -0.33300000 -0.33300000  0.00000000    -1.58741100  0.00000000  0.00000000
Fe -0.33300000  0.00000000  0.50000000    -0.79370550  1.37473825  2.17700000
Fe  0.00000000 -0.33300000  0.50000000    -0.79370550 -1.37473825  2.17700000
Fe  0.33300000  0.33300000  0.50000000     1.58741100  0.00000000  2.17700000
    &END COORD
    &PRINT
      &SYMMETRY
       CHECK_SYMMETRY 622
      &END
    &END
    &TOPOLOGY
      CONNECTIVITY OFF
    &END
  &END SUBSYS
&END FORCE_EVAL
&GLOBAL
  PROJECT c_21_bainite
  RUN_TYPE ENERGY
&END GLOBAL
