&FORCE_EVAL
  METHOD Quickstep
  &DFT
    &QS
      METHOD PM6
      &SE
      &END
    &END QS
    &SCF
      MAX_SCF 0
    &END SCF
  &END DFT
  &SUBSYS
    &CELL
#BN (old structure) & P6_3mc & C_{6h}^4 & #186 & hP4 & B12 & Structure Reports 18, 125-6 (1941) & with exaggerated z
     A   1.25500000 -2.17372376  0.00000000
     B   1.25500000  2.17372376  0.00000000
     C   0.00000000  0.00000000  6.70000000
    &END CELL
    &COORD
 SCALED
N   0.00000000  0.00000000  0.00000000     0.00000000  0.00000000  0.00000000
N   0.00000000  0.00000000  0.50000000     0.00000000  0.00000000  3.35000000
B   0.33333333  0.66666667  0.10000000     1.25500000  0.72457459  0.67000000
B   0.66666667  0.33333333  0.60000000     1.25500000 -0.72457459  4.02000000
    &END COORD
    &PRINT
      &SYMMETRY
       CHECK_SYMMETRY 6mm
      &END
    &END
    &TOPOLOGY
      CONNECTIVITY OFF
    &END
  &END SUBSYS
&END FORCE_EVAL
&GLOBAL
  PROJECT c_22_BN
  RUN_TYPE ENERGY
&END GLOBAL
