&FORCE_EVAL
  METHOD Quickstep
  &DFT
    &QS
      METHOD PM6
      &SE
      &END
    &END QS
    &SCF
      MAX_SCF 0
    &END SCF
  &END DFT
  &SUBSYS
    &CELL
#Al_5 C_3 N & E9_4 & P6_3mc-C_{6v}^4 #186 & cP18 & Strukturbericht III pp. 73-4
     A   1.64000000 -2.84056332  0.00000000
     B   1.64000000  2.84056332  0.00000000
     C   0.00000000  0.00000000 21.55000000
    &END CELL
    &COORD
 SCALED
Al  0.00000000  0.00000000  0.15000000     0.00000000  0.00000000  3.23250000
Al  0.00000000  0.00000000  0.65000000     0.00000000  0.00000000 14.00750000
Al  0.33333333  0.66666667  0.04450000     1.64000000  0.94685444  0.95897500
Al  0.66666667  0.33333333  0.54450000     1.64000000 -0.94685444 11.73397500
Al  0.33333333  0.66666667  0.45600000     1.64000000  0.94685444  9.82680000
Al  0.66666667  0.33333333  0.95600000     1.64000000 -0.94685444 20.60180000
Al  0.00000000  0.00000000  0.34500000     0.00000000  0.00000000  7.43475000
Al  0.00000000  0.00000000  0.84500000     0.00000000  0.00000000 18.20975000
Al  0.33333333  0.66666667  0.24000000     1.64000000  0.94685444  5.17200000
Al  0.66666667  0.33333333  0.74000000     1.64000000 -0.94685444 15.94700000
C   0.33333333  0.66666667  0.13300000     1.64000000  0.94685444  2.86615000
C   0.66666667  0.33333333  0.63300000     1.64000000 -0.94685444 13.64115000
C   0.00000000  0.00000000  0.00140000     0.00000000  0.00000000  0.03017000
C   0.00000000  0.00000000  0.50140000     0.00000000  0.00000000 10.80517000
C   0.33333333  0.66666667  0.36900000     1.64000000  0.94685444  7.95195000
C   0.66666667  0.33333333  0.86900000     1.64000000 -0.94685444 18.72695000
N   0.00000000  0.00000000  0.25000000     0.00000000  0.00000000  5.38750000
N   0.00000000  0.00000000  0.75000000     0.00000000  0.00000000 16.16250000
    &END COORD
    &PRINT
      &SYMMETRY
       CHECK_SYMMETRY 6mm
      &END
    &END
    &TOPOLOGY
      CONNECTIVITY OFF
    &END
  &END SUBSYS
&END FORCE_EVAL
&GLOBAL
  PROJECT c_22_Al5C3N
  RUN_TYPE ENERGY
&END GLOBAL
