&FORCE_EVAL
  METHOD Quickstep
  &DFT
    &QS
      METHOD PM6
      &SE
      &END
    &END QS
    &SCF
      MAX_SCF 0
    &END SCF
  &END DFT
  &SUBSYS
    &CELL
#CaCO_3 & R(-3)c [D^6_{3d}] (#167) & hR10 & calcite & Rhombohedral Lattice
     A   2.87538675   .00000000  5.67289618
     B  -1.43769337  2.49015797  5.67289618
     C  -1.43769337 -2.49015797  5.67289618
    &END CELL
    &COORD
 SCALED
Ca   .00000000   .00000000   .00000000      .00000000   .00000000   .00000000
Ca   .50000000   .50000000   .50000000      .00000000   .00000000  8.50934427
C    .25000000   .25000000   .25000000      .00000000   .00000000  4.25467213
C    .75000000   .75000000   .75000000      .00000000  -.00000000 12.76401640
O    .00700000   .49300000   .25000000    -1.04807847   .60510839  4.25467213
O    .49300000   .25000000   .00700000     1.04807847   .60510839  4.25467213
O    .25000000   .00700000   .49300000      .00000000 -1.21021677  4.25467213
O   -.00700000   .50700000   .75000000    -1.82730828  -.60510839  7.09112022
O    .50700000   .75000000  -.00700000      .38961490  1.88504958  7.09112022
O    .75000000  -.00700000   .50700000     1.43769337 -1.27994119  7.09112022
    &END COORD
    &PRINT
      &SYMMETRY
       CHECK_SYMMETRY <6>m2
      &END
    &END
    &TOPOLOGY
      CONNECTIVITY OFF
    &END
  &END SUBSYS
&END FORCE_EVAL
&GLOBAL
  PROJECT c_23_calcite
  RUN_TYPE ENERGY
&END GLOBAL
