&FORCE_EVAL
  METHOD Quickstep
  &DFT
    &QS
      METHOD PM6
      &SE
      &END
    &END QS
    &SCF
      MAX_SCF 0
    &END SCF
  &END DFT
  &SUBSYS
    &CELL
#AsNi & P6_3/mmc-D_{6h}^4 #194 & hP4 & B8_2 & Pearson, Alloys, p. 452
     A   1.80950000 -3.13414594  0.00000000
     B   1.80950000  3.13414594  0.00000000
     C   0.00000000  0.00000000  5.03400000
    &END CELL
    &COORD
 SCALED
Ni  0.00000000  0.00000000  0.00000000     0.00000000  0.00000000  0.00000000
Ni  0.00000000  0.00000000  0.50000000     0.00000000  0.00000000  2.51700000
As  0.33333333  0.66666667  0.25000000     1.80950000  1.04471533  1.25850000
As  0.66666667  0.33333333  0.75000000     1.80950000 -1.04471533  3.77550000
    &END COORD
    &PRINT
      &SYMMETRY
       CHECK_SYMMETRY 6/mmm
      &END
    &END
    &TOPOLOGY
      CONNECTIVITY OFF
    &END
  &END SUBSYS
&END FORCE_EVAL
&GLOBAL
  PROJECT c_24_NiAs
  RUN_TYPE ENERGY
&END GLOBAL
