&FORCE_EVAL
  METHOD Quickstep
  &DFT
    &QS
      METHOD PM6
      &SE
      &END
    &END QS
    &SCF
      MAX_SCF 0
    &END SCF
  &END DFT
  &SUBSYS
    &CELL
#Mg & P6_3/mmc-D_{6h}^4 #194 & hP2 & A3 & Ashcroft and Mermin, 77
     A   1.60500000 -2.77994155  0.00000000
     B   1.60500000  2.77994155  0.00000000
     C   0.00000000  0.00000000  5.21000000
    &END CELL
    &COORD
 SCALED
Mg  0.33333333  0.66666667  0.25000000     1.60500000  0.92664718  1.30250000
Mg  0.66666667  0.33333333  0.75000000     1.60500000 -0.92664718  3.90750000
    &END COORD
    &PRINT
      &SYMMETRY
       CHECK_SYMMETRY 6/mmm
      &END
    &END
    &TOPOLOGY
      CONNECTIVITY OFF
    &END
  &END SUBSYS
&END FORCE_EVAL
&GLOBAL
  PROJECT c_24_hcpA3
  RUN_TYPE ENERGY
&END GLOBAL
