&FORCE_EVAL
  METHOD Quickstep
  &DFT
    &QS
      METHOD PM6
      &SE
      &END
    &END QS
    &SCF
      MAX_SCF 0
    &END SCF
  &END DFT
  &SUBSYS
    &CELL
#BN & P6_3/mmc & D_{6h}^4 & #194 & B_k & hP4
     A   1.25200000 -2.16852761  0.00000000
     B   1.25200000  2.16852761  0.00000000
     C   0.00000000  0.00000000  6.66120000
    &END CELL
    &COORD
 SCALED
B   0.33333333  0.66666667  0.25000000     1.25200000  0.72284254  1.66530000
B   0.66666667  0.33333333  0.75000000     1.25200000 -0.72284254  4.99590000
N   0.66666667  0.33333333  0.25000000     1.25200000 -0.72284254  1.66530000
N   0.33333333  0.66666667  0.75000000     1.25200000  0.72284254  4.99590000
    &END COORD
    &PRINT
      &SYMMETRY
       CHECK_SYMMETRY 6/mmm
      &END
    &END
    &TOPOLOGY
      CONNECTIVITY OFF
    &END
  &END SUBSYS
&END FORCE_EVAL
&GLOBAL
  PROJECT c_24_BNk
  RUN_TYPE ENERGY
&END GLOBAL
