&FORCE_EVAL
  METHOD Quickstep
  &DFT
    &QS
      METHOD PM6
      &SE
      &END
    &END QS
    &SCF
      MAX_SCF 0
    &END SCF
  &END DFT
  &SUBSYS
    &CELL
#W_2 B_5 & P6_3/mmc-D_{6h}^4 #194 & D8_h & hP14 & Wyckoff, Vol. II, pp. 188-9
     A   1.49100000 -2.58248775  0.00000000
     B   1.49100000  2.58248775  0.00000000
     C   0.00000000  0.00000000 13.87000000
    &END CELL
    &COORD
 SCALED
B   0.00000000  0.00000000  0.00000000     0.00000000  0.00000000  0.00000000
B   0.00000000  0.00000000  0.50000000     0.00000000  0.00000000  6.93500000
B   0.00000000  0.00000000  0.25000000     0.00000000  0.00000000  3.46750000
B   0.00000000  0.00000000  0.75000000     0.00000000  0.00000000 10.40250000
B   0.66666667  0.33333333  0.25000000     1.49100000 -0.86082925  3.46750000
B   0.33333333  0.66666667  0.75000000     1.49100000  0.86082925 10.40250000
B   0.33333333  0.66666667 -0.02800000     1.49100000  0.86082925 -0.38836000
B   0.66666667  0.33333333  0.02800000     1.49100000 -0.86082925  0.38836000
B   0.66666667  0.33333333  0.47200000     1.49100000 -0.86082925  6.54664000
B   0.33333333  0.66666667  0.52800000     1.49100000  0.86082925  7.32336000
W   0.33333333  0.66666667  0.13900000     1.49100000  0.86082925  1.92793000
W   0.66666667  0.33333333 -0.13900000     1.49100000 -0.86082925 -1.92793000
W   0.66666667  0.33333333  0.63900000     1.49100000 -0.86082925  8.86293000
W   0.33333333  0.66666667  0.36100000     1.49100000  0.86082925  5.00707000
    &END COORD
    &PRINT
      &SYMMETRY
       CHECK_SYMMETRY 6/mmm
      &END
    &END
    &TOPOLOGY
      CONNECTIVITY OFF
    &END
  &END SUBSYS
&END FORCE_EVAL
&GLOBAL
  PROJECT c_24_W2B5
  RUN_TYPE ENERGY
&END GLOBAL
