&FORCE_EVAL
  METHOD Quickstep
  &DFT
    LSD
    &QS
      METHOD PM6
      &SE
      &END
    &END QS
    &SCF
      MAX_SCF 0
    &END SCF
  &END DFT
  &SUBSYS
    &CELL
#Au for HgSn_{6-10} & P6/mmm (#191) D^1_{6h} & hP1 & A_f & Pearson Alloys p 478
     A   1.60500000 -2.77994155  0.00000000
     B   1.60500000  2.77994155  0.00000000
     C   0.00000000  0.00000000  2.99000000
    &END CELL
    &COORD
 SCALED
Au  0.00000000  0.00000000  0.00000000     0.00000000  0.00000000  0.00000000
    &END COORD
    &PRINT
      &SYMMETRY
       CHECK_SYMMETRY 6/mmm
      &END
    &END
    &TOPOLOGY
      CONNECTIVITY OFF
    &END
  &END SUBSYS
&END FORCE_EVAL
&GLOBAL
  PROJECT c_24_sHex
  RUN_TYPE ENERGY
&END GLOBAL
