&FORCE_EVAL
  METHOD Quickstep
  &DFT
    &QS
      METHOD PM6
      &SE
      &END
    &END QS
    &SCF
      MAX_SCF 0
    &END SCF
  &END DFT
  &SUBSYS
    &CELL
#AsTi & P6_3/mmc-D_{6h}^4 #194 & hP8 & B_i & Wyckoff Vol I, 148
     A   1.82100000 -3.15406452  0.00000000
     B   1.82100000  3.15406452  0.00000000
     C   0.00000000  0.00000000 12.06400000
    &END CELL
    &COORD
 SCALED
As  0.00000000  0.00000000  0.00000000     0.00000000  0.00000000  0.00000000
As  0.00000000  0.00000000  0.50000000     0.00000000  0.00000000  6.03200000
As  0.66666667  0.33333333  0.25000000     1.82100000 -1.05135484  3.01600000
As  0.33333333  0.66666667  0.75000000     1.82100000  1.05135484  9.04800000
Ti  0.33333333  0.66666667  0.12500000     1.82100000  1.05135484  1.50800000
Ti  0.33333333  0.66666667  0.37500000     1.82100000  1.05135484  4.52400000
Ti  0.66666667  0.33333333 -0.12500000     1.82100000 -1.05135484 -1.50800000
Ti  0.66666667  0.33333333  0.62500000     1.82100000 -1.05135484  7.54000000
    &END COORD
    &PRINT
      &SYMMETRY
       CHECK_SYMMETRY 6/mmm
      &END
    &END
    &TOPOLOGY
      CONNECTIVITY OFF
    &END
  &END SUBSYS
&END FORCE_EVAL
&GLOBAL
  PROJECT c_24_AsTi
  RUN_TYPE ENERGY
&END GLOBAL
