&FORCE_EVAL
  METHOD Quickstep
  &DFT
    &QS
      METHOD PM6
      &SE
      &END
    &END QS
    &SCF
      MAX_SCF 0
    &END SCF
  &END DFT
  &SUBSYS
    &CELL
#InNi_2 & P6_3/mmc-D_{6h}^4 #194 & hP6 & B8_2 & Pearson, Alloys, p. 530
     A   2.08950000 -3.61912016  0.00000000
     B   2.08950000  3.61912016  0.00000000
     C   0.00000000  0.00000000  5.13100000
    &END CELL
    &COORD
 SCALED
Ni  0.00000000  0.00000000  0.00000000     0.00000000  0.00000000  0.00000000
Ni  0.00000000  0.00000000  0.50000000     0.00000000  0.00000000  2.56550000
In  0.33333333  0.66666667  0.25000000     2.08950000  1.20637341  1.28275000
In  0.66666667  0.33333333  0.75000000     2.08950000 -1.20637341  3.84825000
Ni  0.66666667  0.33333333  0.25000000     2.08950000 -1.20637341  1.28275000
Ni  0.33333333  0.66666667  0.75000000     2.08950000  1.20637341  3.84825000
    &END COORD
    &PRINT
      &SYMMETRY
       CHECK_SYMMETRY 6/mmm
      &END
    &END
    &TOPOLOGY
      CONNECTIVITY OFF
    &END
  &END SUBSYS
&END FORCE_EVAL
&GLOBAL
  PROJECT c_24_InNi2
  RUN_TYPE ENERGY
&END GLOBAL
