&FORCE_EVAL
  METHOD Quickstep
  &DFT
    &QS
      METHOD PM6
      &SE
      &END
    &END QS
    &SCF
      MAX_SCF 0
    &END SCF
  &END DFT
  &SUBSYS
    &CELL
#Ni_3 Sn & P6_3/mmc     & #194 & hcp & hP8 & D0_19
     A   2.63750000 -4.56828400   .00000000
     B   2.63750000  4.56828400   .00000000
     C    .00000000   .00000000  4.23400000
    &END CELL
    &COORD
 SCALED
Sn   .33333333   .66666667   .25000000     2.63750000  1.52276136  1.05850000
Sn   .66666667   .33333333   .75000000     2.63750000 -1.52276136  3.17550000
Ni   .83300000   .66600000   .25000000     3.95361250  -.76290343  1.05850000
Ni  -.66600000  -.83300000   .25000000    -3.95361250  -.76290343  1.05850000
Ni   .83300000  -.83300000   .25000000      .00000000 -7.61076114  1.05850000
Ni  -.83300000  -.66600000   .75000000    -3.95361250   .76290343  3.17550000
Ni   .66600000   .83300000   .75000000     3.95361250   .76290343  3.17550000
Ni  -.83300000   .83300000   .75000000      .00000000  7.61076114  3.17550000
    &END COORD
    &PRINT
      &SYMMETRY
       CHECK_SYMMETRY 6/mmm
      &END
    &END
    &TOPOLOGY
      CONNECTIVITY OFF
    &END
  &END SUBSYS
&END FORCE_EVAL
&GLOBAL
  PROJECT c_24_Ni3Sn
  RUN_TYPE ENERGY
&END GLOBAL
