&FORCE_EVAL
  METHOD Quickstep
  &DFT
    &QS
      METHOD PM6
      &SE
      &END
    &END QS
    &SCF
      MAX_SCF 0
    &END SCF
  &END DFT
  &SUBSYS
    &CELL
#Hexagonal Diamond & C & P6_3/mmc #194 D_{6h}^4 & hP4
     A   1.26218560 -2.18616960  0.00000000
     B   1.26218560  2.18616960  0.00000000
     C   0.00000000  0.00000000  4.12228092
    &END CELL
    &COORD
 SCALED
C   0.33333333  0.66666667  0.06250000     1.26218560  0.72872321  0.25764256
C   0.66666667  0.33333333  0.56250000     1.26218560 -0.72872321  2.31878302
C   0.33333333  0.66666667  0.43750000     1.26218560  0.72872321  1.80349790
C   0.66666667  0.33333333 -0.06250000     1.26218560 -0.72872321 -0.25764256
    &END COORD
    &PRINT
      &SYMMETRY
       CHECK_SYMMETRY 6/mmm
      &END
    &END
    &TOPOLOGY
      CONNECTIVITY OFF
    &END
  &END SUBSYS
&END FORCE_EVAL
&GLOBAL
  PROJECT c_24_londsalite
  RUN_TYPE ENERGY
&END GLOBAL
