&FORCE_EVAL
  METHOD Quickstep
  &DFT
    &QS
      METHOD PM6
      &SE
      &END
    &END QS
    &SCF
      MAX_SCF 0
    &END SCF
  &END DFT
  &SUBSYS
    &CELL
#MoS_2 & C7 & hP6 & P6_3/mmc-D_{6h}^4 #194 & Pearson's Handbook
     A   1.58000000 -2.73664028  0.00000000
     B   1.58000000  2.73664028  0.00000000
     C   0.00000000  0.00000000 12.29000000
    &END CELL
    &COORD
 SCALED
Mo  0.33333333  0.66666667  0.25000000     1.58000000  0.91221343  3.07250000
Mo  0.66666667  0.33333333  0.75000000     1.58000000 -0.91221343  9.21750000
S   0.33333333  0.66666667  0.62000000     1.58000000  0.91221343  7.61980000
S   0.66666667  0.33333333  0.12000000     1.58000000 -0.91221343  1.47480000
S   0.66666667  0.33333333 -0.62000000     1.58000000 -0.91221343 -7.61980000
S   0.33333333  0.66666667 -0.12000000     1.58000000  0.91221343 -1.47480000
    &END COORD
    &PRINT
      &SYMMETRY
       CHECK_SYMMETRY 6/mmm
      &END
    &END
    &TOPOLOGY
      CONNECTIVITY OFF
    &END
  &END SUBSYS
&END FORCE_EVAL
&GLOBAL
  PROJECT c_24_MoS2
  RUN_TYPE ENERGY
&END GLOBAL
