&FORCE_EVAL
  METHOD Quickstep
  &DFT
    &QS
      METHOD PM6
      &SE
      &END
    &END QS
    &SCF
      MAX_SCF 0
    &END SCF
  &END DFT
  &SUBSYS
    &CELL
#Na_3 As & P6_3/mmc     & #194 & hcp & hP8 & D0_18
     A   2.54400000 -4.40633725   .00000000
     B   2.54400000  4.40633725   .00000000
     C    .00000000   .00000000  8.98200000
    &END CELL
    &COORD
 SCALED
As   .33333333   .66666667   .25000000     2.54400000  1.46877911  2.24550000
As   .66666667   .33333333   .75000000     2.54400000 -1.46877911  6.73650000
Na   .00000000   .00000000   .25000000      .00000000   .00000000  2.24550000
Na   .00000000   .00000000   .75000000      .00000000   .00000000  6.73650000
Na   .33333333   .66666667   .58300000     2.54400000  1.46877911  5.23650600
Na   .66666667   .33333333   .41700000     2.54400000 -1.46877911  3.74549400
Na   .66666667   .33333333   .08300000     2.54400000 -1.46877911   .74550600
Na   .33333333   .66666667  -.08300000     2.54400000  1.46877911  -.74550600
    &END COORD
    &PRINT
      &SYMMETRY
       CHECK_SYMMETRY 6/mmm
      &END
    &END
    &TOPOLOGY
      CONNECTIVITY OFF
    &END
  &END SUBSYS
&END FORCE_EVAL
&GLOBAL
  PROJECT c_24_Na3As
  RUN_TYPE ENERGY
&END GLOBAL
