&FORCE_EVAL
  METHOD Quickstep
  &DFT
    LSD
    &QS
      METHOD PM6
      &SE
      &END
    &END QS
    &SCF
      MAX_SCF 0
    &END SCF
  &END DFT
  &SUBSYS
    &CELL
#CaCu_5 & P6/mmm (#191) D_{6h}^1 & hR6 & D2_d
      A  2.54100000 -4.40114110  0.00000000
      B  2.54100000  4.40114110  0.00000000
      C  0.00000000  0.00000000  4.07800000
    &END CELL
    &COORD
 SCALED
Ca  0.00000000  0.00000000  0.00000000     0.00000000  0.00000000  0.00000000
Cu  0.33333333  0.66666667  0.00000000     2.54100000  1.46704703  0.00000000
Cu  0.66666667  0.33333333  0.00000000     2.54100000 -1.46704703  0.00000000
Cu  0.50000000  0.00000000  0.50000000     1.27050000 -2.20057055  2.03900000
Cu  0.00000000  0.50000000  0.50000000     1.27050000  2.20057055  2.03900000
Cu  0.50000000  0.50000000  0.50000000     2.54100000  0.00000000  2.03900000
    &END COORD
    &PRINT
      &SYMMETRY
       CHECK_SYMMETRY 6/mmm
      &END
    &END
    &TOPOLOGY
      CONNECTIVITY OFF
    &END
  &END SUBSYS
&END FORCE_EVAL
&GLOBAL
  PROJECT c_24_CaCu5
  RUN_TYPE ENERGY
&END GLOBAL
