&FORCE_EVAL
  METHOD Quickstep
  &DFT
    &QS
      METHOD PM6
      &SE
      &END
    &END QS
    &SCF
      MAX_SCF 0
    &END SCF
  &END DFT
  &SUBSYS
    &CELL
#beta Tridymite (SiO_2) & P6_3/mmc (#194, D^4_{6h}) & hP12
     A   2.52600000 -4.37516034   .00000000
     B   2.52600000  4.37516034   .00000000
     C    .00000000   .00000000  8.27000000
    &END CELL
    &COORD
 SCALED
O    .33333333   .66666667   .25000000     2.52600000  1.45838678  2.06750000
O    .66666667   .33333333   .75000000     2.52600000 -1.45838678  6.20250000
Si   .33333333   .66666667   .06200000     2.52600000  1.45838678   .51274000
Si   .66666667   .33333333  -.06200000     2.52600000 -1.45838678  -.51274000
Si   .66666667   .33333333   .56200000     2.52600000 -1.45838678  4.64774000
Si   .33333333   .66666667   .43800000     2.52600000  1.45838678  3.62226000
O    .50000000   .00000000   .00000000     1.26300000 -2.18758017   .00000000
O    .00000000   .50000000   .00000000     1.26300000  2.18758017   .00000000
O    .50000000   .50000000   .00000000     2.52600000   .00000000   .00000000
O    .50000000   .00000000   .50000000     1.26300000 -2.18758017  4.13500000
O    .00000000   .50000000   .50000000     1.26300000  2.18758017  4.13500000
O    .50000000   .50000000   .50000000     2.52600000   .00000000  4.13500000
    &END COORD
    &PRINT
      &SYMMETRY
       CHECK_SYMMETRY 6/mmm
      &END
    &END
    &TOPOLOGY
      CONNECTIVITY OFF
    &END
  &END SUBSYS
&END FORCE_EVAL
&GLOBAL
  PROJECT c_24_tridymite
  RUN_TYPE ENERGY
&END GLOBAL
