&FORCE_EVAL
  METHOD Quickstep
  &DFT
    &QS
      METHOD PM6
      &SE
      &END
    &END QS
    &SCF
      MAX_SCF 0
    &END SCF
  &END DFT
  &SUBSYS
    &CELL
#Mg Ni_2 & P6_3/mmc-D_{6h}^4 #194 & hP24 & C36 & Laves & Pearson, Alloys, p 660
     A   2.40750000 -4.16991232  0.00000000
     B   2.40750000  4.16991232  0.00000000
     C   0.00000000  0.00000000 15.80000000
    &END CELL
    &COORD
 SCALED
Mg  0.00000000  0.00000000  0.09335443     0.00000000  0.00000000  1.47499999
Mg  0.00000000  0.00000000 -0.09335443     0.00000000  0.00000000 -1.47499999
Mg  0.00000000  0.00000000  0.59335443     0.00000000  0.00000000  9.37499999
Mg  0.00000000  0.00000000  0.40664557     0.00000000  0.00000000  6.42500001
Mg  0.33333333  0.66666667 -0.15951789     2.40750000  1.38997078 -2.52038271
Mg  0.66666667  0.33333333  0.15951789     2.40750000 -1.38997078  2.52038271
Mg  0.66666667  0.33333333  0.34048211     2.40750000 -1.38997078  5.37961729
Mg  0.33333333  0.66666667  0.65951789     2.40750000  1.38997078 10.42038271
Ni  0.33333333  0.66666667  0.12333099     2.40750000  1.38997078  1.94862961
Ni  0.66666667  0.33333333 -0.12333099     2.40750000 -1.38997078 -1.94862961
Ni  0.66666667  0.33333333  0.62333099     2.40750000 -1.38997078  9.84862961
Ni  0.33333333  0.66666667  0.37666901     2.40750000  1.38997078  5.95137041
Ni  0.50000000  0.00000000  0.00000000     1.20375000 -2.08495616  0.00000000
Ni  0.00000000  0.50000000  0.00000000     1.20375000  2.08495616  0.00000000
Ni  0.50000000  0.50000000  0.00000000     2.40750000  0.00000000  0.00000000
Ni  0.50000000  0.00000000  0.50000000     1.20375000 -2.08495616  7.90000000
Ni  0.00000000  0.50000000  0.50000000     1.20375000  2.08495616  7.90000000
Ni  0.50000000  0.50000000  0.50000000     2.40750000  0.00000000  7.90000000
Ni  0.16455078  0.32910156  0.25000000     1.18846803  0.68616233  3.95000000
Ni -0.32910156 -0.16455078  0.25000000    -1.18846803  0.68616233  3.95000000
Ni  0.16455078 -0.16455078  0.25000000     0.00000000 -1.37232467  3.95000000
Ni -0.16455078 -0.32910156  0.75000000    -1.18846803 -0.68616233 11.85000000
Ni  0.32910156  0.16455078  0.75000000     1.18846803 -0.68616233 11.85000000
Ni -0.16455078  0.16455078  0.75000000     0.00000000  1.37232467 11.85000000
    &END COORD
    &PRINT
      &SYMMETRY
       CHECK_SYMMETRY 6/mmm
      &END
    &END
    &TOPOLOGY
      CONNECTIVITY OFF
    &END
  &END SUBSYS
&END FORCE_EVAL
&GLOBAL
  PROJECT c_24_lavesC36
  RUN_TYPE ENERGY
&END GLOBAL
