&FORCE_EVAL
  METHOD Quickstep
  &DFT
    &QS
      METHOD PM6
      &SE
      &END
    &END QS
    &SCF
      MAX_SCF 0
    &END SCF
  &END DFT
  &SUBSYS
    &CELL
#Al P S_4 & P222 & D_2^1 & #16 & oP12 & Pearson's Handbook
     A   5.61000000  0.00000000  0.00000000
     B   0.00000000  5.67000000  0.00000000
     C   0.00000000  0.00000000  9.05000000
    &END CELL
    &COORD
 SCALED
Al  0.00000000  0.00000000  0.00000000     0.00000000  0.00000000  0.00000000
P   0.00000000  0.50000000  0.00000000     0.00000000  2.83500000  0.00000000
P   0.00000000  0.00000000  0.50000000     0.00000000  0.00000000  4.52500000
Al  0.50000000  0.00000000  0.50000000     2.80500000  0.00000000  4.52500000
S   0.20000000  0.26000000  0.12500000     1.12200000  1.47420000  1.13125000
S  -0.20000000 -0.26000000  0.12500000    -1.12200000 -1.47420000  1.13125000
S  -0.20000000  0.26000000 -0.12500000    -1.12200000  1.47420000 -1.13125000
S   0.20000000 -0.26000000 -0.12500000     1.12200000 -1.47420000 -1.13125000
S   0.74000000  0.80000000  0.63000000     4.15140000  4.53600000  5.70150000
S  -0.74000000 -0.80000000  0.63000000    -4.15140000 -4.53600000  5.70150000
S  -0.74000000  0.80000000 -0.63000000    -4.15140000  4.53600000 -5.70150000
S   0.74000000 -0.80000000 -0.63000000     4.15140000 -4.53600000 -5.70150000
    &END COORD
    &PRINT
      &SYMMETRY
       CHECK_SYMMETRY 222
      &END
    &END
    &TOPOLOGY
      CONNECTIVITY OFF
    &END
  &END SUBSYS
&END FORCE_EVAL
&GLOBAL
  PROJECT c_25_AlPS4
  RUN_TYPE ENERGY
&END GLOBAL
