&FORCE_EVAL
  METHOD Quickstep
  &DFT
    &QS
      METHOD PM6
      &SE
      &END
    &END QS
    &SCF
      MAX_SCF 0
    &END SCF
  &END DFT
  &SUBSYS
    &CELL
#C_3 Cr_7 & Pnma (#62) & oP40 & D10_1
     A   4.52600000   .00000000   .00000000
     B    .00000000  7.01000000   .00000000
     C    .00000000   .00000000 12.14200000
    &END CELL
    &COORD
 SCALED
C    .45940000   .25000000   .56290000     2.07924440  1.75250000  6.83473180
C   -.45940000   .75000000  -.56290000    -2.07924440  5.25750000 -6.83473180
C    .04060000   .75000000   .06290000      .18375560  5.25750000   .76373180
C    .95940000   .25000000  -.06290000     4.34224440  1.75250000  -.76373180
C    .02880000   .02910000   .34280000      .13034880   .20399100  4.16227760
C   -.02880000  -.02910000  -.34280000     -.13034880  -.20399100 -4.16227760
C    .52880000   .47090000   .15720000     2.39334880  3.30100900  1.90872240
C    .47120000   .52910000   .84280000     2.13265120  3.70899100 10.23327760
C   -.02880000   .52910000  -.34280000     -.13034880  3.70899100 -4.16227760
C    .02880000   .47090000   .34280000      .13034880  3.30100900  4.16227760
C    .47120000  -.02910000   .84280000     2.13265120  -.20399100 10.23327760
C    .52880000   .02910000   .15720000     2.39334880   .20399100  1.90872240
Cr   .05790000   .25000000   .62610000      .26205540  1.75250000  7.60210620
Cr  -.05790000   .75000000  -.62610000     -.26205540  5.25750000 -7.60210620
Cr   .44210000   .75000000   .12610000     2.00094460  5.25750000  1.53110620
Cr   .55790000   .25000000  -.12610000     2.52505540  1.75250000 -1.53110620
Cr   .25010000   .25000000   .20630000     1.13195260  1.75250000  2.50489460
Cr  -.25010000   .75000000  -.20630000    -1.13195260  5.25750000 -2.50489460
Cr   .24990000   .75000000  -.29370000     1.13104740  5.25750000 -3.56610540
Cr   .75010000   .25000000   .29370000     3.39495260  1.75250000  3.56610540
Cr   .26190000   .25000000   .41650000     1.18535940  1.75250000  5.05714300
Cr  -.26190000   .75000000  -.41650000    -1.18535940  5.25750000 -5.05714300
Cr   .23810000   .75000000  -.08350000     1.07764060  5.25750000 -1.01385700
Cr   .76190000   .25000000   .08350000     3.44835940  1.75250000  1.01385700
Cr   .05650000   .06420000   .81190000      .25571900   .45004200  9.85808980
Cr  -.05650000  -.06420000  -.81190000     -.25571900  -.45004200 -9.85808980
Cr   .55650000   .43580000  -.31190000     2.51871900  3.05495800 -3.78708980
Cr   .44350000   .56420000  1.31190000     2.00728100  3.95504200 15.92908980
Cr  -.05650000   .56420000  -.81190000     -.25571900  3.95504200 -9.85808980
Cr   .05650000   .43580000   .81190000      .25571900  3.05495800  9.85808980
Cr   .44350000  -.06420000  1.31190000     2.00728100  -.45004200 15.92908980
Cr   .55650000   .06420000  -.31190000     2.51871900   .45004200 -3.78708980
Cr   .25090000   .06570000   .02180000     1.13557340   .46055700   .26469560
Cr  -.25090000  -.06570000  -.02180000    -1.13557340  -.46055700  -.26469560
Cr   .75090000   .43430000   .47820000     3.39857340  3.04444300  5.80630440
Cr   .24910000   .56570000   .52180000     1.12742660  3.96555700  6.33569560
Cr  -.25090000   .56570000  -.02180000    -1.13557340  3.96555700  -.26469560
Cr   .25090000   .43430000   .02180000     1.13557340  3.04444300   .26469560
Cr   .24910000  -.06570000   .52180000     1.12742660  -.46055700  6.33569560
Cr   .75090000   .06570000   .47820000     3.39857340   .46055700  5.80630440
    &END COORD
    &PRINT
      &SYMMETRY
       CHECK_SYMMETRY mmm
      &END
    &END
    &TOPOLOGY
      CONNECTIVITY OFF
    &END
  &END SUBSYS
&END FORCE_EVAL
&GLOBAL
  PROJECT c_27_C3Cr7
  RUN_TYPE ENERGY
&END GLOBAL
