&FORCE_EVAL
  METHOD Quickstep
  &DFT
    &QS
      METHOD PM6
      &SE
      &END
    &END QS
    &SCF
      MAX_SCF 0
    &END SCF
  &END DFT
  &SUBSYS
    &CELL
#alpha IrV & Cmmm-D_{2h}^{19} #65 (jg) & oC8 & Pearson Handbook IV 4139, Alloys
     A   2.89550000 -3.37800000  0.00000000
     B   2.89550000  3.37800000  0.00000000
     C   0.00000000  0.00000000  2.79600000
    &END CELL
    &COORD
 SCALED
Ir -0.22000000  0.22000000  0.50000000     0.00000000  1.48632000  1.39800000
Ir  0.22000000 -0.22000000  0.50000000     0.00000000 -1.48632000  1.39800000
V   0.28000000  0.28000000  0.00000000     1.62148000  0.00000000  0.00000000
V  -0.28000000 -0.28000000  0.00000000    -1.62148000  0.00000000  0.00000000
    &END COORD
    &PRINT
      &SYMMETRY
       CHECK_SYMMETRY mmm
      &END
    &END
    &TOPOLOGY
      CONNECTIVITY OFF
    &END
  &END SUBSYS
&END FORCE_EVAL
&GLOBAL
  PROJECT c_27_aIrV
  RUN_TYPE ENERGY
&END GLOBAL
