&FORCE_EVAL
  METHOD Quickstep
  &DFT
    &QS
      METHOD PM6
      &SE
      &END
    &END QS
    &SCF
      MAX_SCF 0
    &END SCF
  &END DFT
  &SUBSYS
    &CELL
#P (black) & Cmca-D_{2h}^{18} #64 & oC8 & A17 & Pearson, Alloys, p 779
     A   1.65700000 -5.24000000  0.00000000
     B   1.65700000  5.24000000  0.00000000
     C   0.00000000  0.00000000  4.37600000
    &END CELL
    &COORD
 SCALED
P  -0.10135060  0.10135060  0.08119100     0.00000000  1.06215429  0.35529182
P   0.10135060 -0.10135060 -0.08119100     0.00000000 -1.06215429 -0.35529182
P   0.39864940  0.60135060  0.41880900     1.65700000  1.06215429  1.83270818
P   0.60135060  0.39864940  0.58119100     1.65700000 -1.06215429  2.54329182
    &END COORD
    &PRINT
      &SYMMETRY
       CHECK_SYMMETRY mmm
      &END
    &END
    &TOPOLOGY
      CONNECTIVITY OFF
    &END
  &END SUBSYS
&END FORCE_EVAL
&GLOBAL
  PROJECT c_27_bP
  RUN_TYPE ENERGY
&END GLOBAL
