&FORCE_EVAL
  METHOD Quickstep
  &DFT
    &QS
      METHOD PM6
      &SE
      &END
    &END QS
    &SCF
      MAX_SCF 0
    &END SCF
  &END DFT
  &SUBSYS
    &CELL
#CaCl_2 & C35 & oP6 & Pnnm-D_{2h}^{12} #58 & Strukturbereicht III, p. 30
     A   6.24000000  0.00000000  0.00000000
     B   0.00000000  6.43000000  0.00000000
     C   0.00000000  0.00000000  4.20000000
    &END CELL
    &COORD
 SCALED
Ca  0.00000000  0.00000000  0.00000000     0.00000000  0.00000000  0.00000000
Ca  0.50000000  0.50000000  0.50000000     3.12000000  3.21500000  2.10000000
Cl  0.27500000  0.32500000  0.00000000     1.71600000  2.08975000  0.00000000
Cl  0.77500000  0.17500000  0.50000000     4.83600000  1.12525000  2.10000000
Cl -0.27500000 -0.32500000  0.00000000    -1.71600000 -2.08975000  0.00000000
Cl -0.77500000 -0.17500000 -0.50000000    -4.83600000 -1.12525000 -2.10000000
    &END COORD
    &PRINT
      &SYMMETRY
       CHECK_SYMMETRY mmm
      &END
    &END
    &TOPOLOGY
      CONNECTIVITY OFF
    &END
  &END SUBSYS
&END FORCE_EVAL
&GLOBAL
  PROJECT c_27_CaCl2
  RUN_TYPE ENERGY
&END GLOBAL
