&FORCE_EVAL
  &DFT
    &QS
      METHOD xTB
    &END QS
    &SCF
      SCF_GUESS MOPAC
      MAX_SCF  100
      EPS_SCF 1.e-8
    &END SCF
    &PRINT
     &MOMENTS
       MAGNETIC    T
       MAX_MOMENT  3
       PERIODIC    F
       REFERENCE   COM
     &END MOMENTS  
     &MULLIKEN
     &END MULLIKEN
     &LOWDIN
     &END LOWDIN
     &MO
        &EACH
          QS_SCF 0
        &END
        CARTESIAN T
        EIGENVALUES T
        EIGENVECTORS T
        OCCUPATION_NUMBERS T
     &END MO
     &OVERLAP_CONDITION
        1-NORM T
        ARNOLDI T
        DIAGONALIZATION   T
     &END OVERLAP_CONDITION
     &ENERGY_WINDOWS
        RESTRICT_RANGE
        RANGE 0.4
        N_WINDOWS 10
        PRINT_CUBES
     &END
     &MO_MOLDEN
     &END
    &END PRINT
  &END DFT
  &SUBSYS
    &CELL
      ABC 20.0 20.0 20.0
      PERIODIC NONE
    &END CELL
    &COORD
     O     0.051368    0.000000    0.000000     
     C     1.278612    0.000000    0.000000    
     H     1.870460    0.939607    0.000000   
     H     1.870460   -0.939607    0.000000  
    &END COORD
  &END SUBSYS
&END FORCE_EVAL
&GLOBAL
  PROJECT CH2O
  RUN_TYPE ENERGY
  PRINT_LEVEL LOW
&END GLOBAL
