&FORCE_EVAL
  &DFT
    LSD
    &QS
      METHOD xTB
    &END QS
    &MGRID
       CUTOFF  100
    &END MGRID
    &SCF
      MAX_SCF  100
      EPS_SCF 1.e-8
      ADDED_MOS  10 10
    &END SCF
    &PRINT
       &MO_CUBES
          HOMO_LIST 1..6
          NLUMO  2
       &END
    &END
  &END DFT
  &SUBSYS
    &CELL
      ABC 6.0 6.0 6.0
      PERIODIC NONE
    &END CELL
    &COORD
     O     0.051368    0.000000    0.000000
     C     1.278612    0.000000    0.000000
     H     1.870460    0.939607    0.000000
     H     1.870460   -0.939607    0.000000
    &END COORD
  &END SUBSYS
&END FORCE_EVAL
&GLOBAL
  PROJECT CH2O
  RUN_TYPE ENERGY
  PRINT_LEVEL LOW
&END GLOBAL
