&GLOBAL
  PRINT_LEVEL LOW
  PROJECT CH2O
  RUN_TYPE ENERGY
&END GLOBAL

&FORCE_EVAL
  &DFT
    LSD
    &MGRID
      CUTOFF 100
    &END MGRID
    &PRINT
      &ELF_CUBE
      &END ELF_CUBE
      &E_DENSITY_CUBE
      &END E_DENSITY_CUBE
      &TOT_DENSITY_CUBE
      &END TOT_DENSITY_CUBE
    &END PRINT
    &QS
      METHOD xTB
    &END QS
    &SCF
      EPS_SCF 1.e-8
      MAX_SCF 100
    &END SCF
  &END DFT
  &SUBSYS
    &CELL
      ABC 6.0 6.0 6.0
      PERIODIC NONE
    &END CELL
    &COORD
      O     0.051368    0.000000    0.000000
      C     1.278612    0.000000    0.000000
      H     1.870460    0.939607    0.000000
      H     1.870460   -0.939607    0.000000
    &END COORD
  &END SUBSYS
&END FORCE_EVAL
