&FORCE_EVAL
  METHOD Quickstep
  &DFT
    &QS
      METHOD xTB
      &xTB
        DO_EWALD T
      &END
      EPS_DEFAULT 1.e-8
    &END QS
    &MGRID
       CUTOFF  100
       NGRIDS    4
    &END
    &SCF
      SCF_GUESS ATOMIC
      EPS_SCF 1.E-6
      MAX_SCF 30
      &OT
        MINIMIZER DIIS
        PRECONDITIONER FULL_ALL
        ENERGY_GAP 0.01
      &END
      &OUTER_SCF
         EPS_SCF 1.0E-6
         MAX_SCF 30
      &END
    &END SCF
    &PRINT
      &STM
         NLUMO 32
         BIAS  -6 -1 1 6
         TH_TORB S
         TH_TORB PZ
      &END
    &END
  &END DFT
  &SUBSYS
    &CELL
      A 1.22800000 -2.12695839  0.00000000
      B 1.22800000  2.12695839  0.00000000
      C 0.00000000  0.00000000  6.69600000
    &END CELL
    &COORD
C    0.00000000  0.00000000  1.67400000
C    0.00000000  0.00000000  5.02200000
C    1.22800000  0.70898613  1.67400000
C    1.22800000 -0.70898613  5.02200000
    &END COORD
  &END SUBSYS
&END FORCE_EVAL
&GLOBAL
  PROJECT graphite-stm
  RUN_TYPE ENERGY
  PRINT_LEVEL LOW
&END GLOBAL
