&GLOBAL
  PRINT_LEVEL MEDIUM
  PROJECT h2o_emd
  RUN_TYPE EHRENFEST_DYN
&END GLOBAL

&MOTION
  &MD
    ENSEMBLE NVE
    STEPS 10
    TEMPERATURE 330.0
    TIMESTEP [au_t] 0.5
  &END MD
&END MOTION

&FORCE_EVAL
  &DFT
    &PRINT
      &MOMENTS
      &END MOMENTS
      &MULLIKEN
      &END MULLIKEN
    &END PRINT
    &QS
      METHOD xTB
      &XTB
        DO_EWALD T
      &END XTB
    &END QS
    &REAL_TIME_PROPAGATION
      EPS_ITER 1.0E-9
      EXP_ACCURACY 1.0E-10
      INITIAL_WFN SCF_WFN
      MAT_EXP PADE
      MAX_ITER 50
      PROPAGATOR ETRS
    &END REAL_TIME_PROPAGATION
    &SCF
      MAX_SCF 20
      SCF_GUESS MOPAC
      &OT
        MINIMIZER DIIS
        PRECONDITIONER FULL_SINGLE_INVERSE
      &END OT
    &END SCF
  &END DFT
  &SUBSYS
    &CELL
      ABC 6.000 6.000 6.000
    &END CELL
    &COORD
      O                  -4.583   5.333   1.560   H2O
      H                  -3.777   5.331   0.943   H2O
      H                  -5.081   4.589   1.176   H2O
    &END COORD
  &END SUBSYS
&END FORCE_EVAL
