&FORCE_EVAL
  &DFT
    &QS
      METHOD xTB
      &xTB
        DO_EWALD           T
      &END xTB
    &END QS
    &SCF
      SCF_GUESS MOPAC
      &OT
         MINIMIZER DIIS
         PRECONDITIONER FULL_SINGLE_INVERSE
      &END
      MAX_SCF  20
    &END SCF
    &PRINT
       &MULLIKEN
       &END MULLIKEN
       &MOMENTS
       &END MOMENTS
    &END PRINT
    &REAL_TIME_PROPAGATION
       MAX_ITER 50
       MAT_EXP PADE
       EXP_ACCURACY 1.0E-10
       EPS_ITER 1.0E-9
       PROPAGATOR ETRS
       INITIAL_WFN SCF_WFN
    &END
  &END DFT
  &SUBSYS
    &CELL
      ABC 6.000 6.000 6.000
    &END CELL
    &COORD
    O                  -4.583   5.333   1.560   H2O
    H                  -3.777   5.331   0.943   H2O
    H                  -5.081   4.589   1.176   H2O
   &END COORD
  &END SUBSYS
&END FORCE_EVAL
&GLOBAL
  PROJECT h2o_emd
  RUN_TYPE EHRENFEST_DYN
  PRINT_LEVEL MEDIUM
&END GLOBAL
&MOTION
  &MD
    ENSEMBLE NVE
    STEPS 10
    TIMESTEP [au_t] 0.5
    TEMPERATURE 330.0
  &END MD
&END MOTION

