&FORCE_EVAL
  METHOD Quickstep
  &DFT
    BASIS_SET_FILE_NAME BASIS_SET
    POTENTIAL_FILE_NAME GTH_POTENTIALS
    &MGRID
      CUTOFF 200
    &END MGRID
    &QS
      EPS_DEFAULT 1.E-10
      EPS_KG_ORB 1.0E-5
      LS_SCF
      KG_METHOD
    &END QS
    &LS_SCF
      MAX_SCF     40
      EPS_FILTER  1.0E-6
      EPS_SCF     1.0E-7
      MU         -0.1
      PURIFICATION_METHOD TRS4
    &END
    &KG_METHOD
       &ENERGY_CORRECTION
         HARRIS_BASIS HARRIS
         MAO
         &XC
           &XC_FUNCTIONAL 
              &PBE
              &END
           &END
         &END XC
       &END ENERGY_CORRECTION
    &END KG_METHOD
    &SCF
      EPS_SCF 1.0E-5
      SCF_GUESS ATOMIC 
    &END
    &XC
      &XC_FUNCTIONAL
        &PADE
        &END
        &TF
        &END
      &END
    &END XC
  &END DFT
  &SUBSYS
    &CELL
      ABC 10.0 10.0 10.0
    &END CELL
    &COORD
    O     0.000000     0.000000     0.000000    H2O1
    H     0.000000     0.000000     1.000000    H2O1
    H     0.942809     0.000000    -0.333333    H2O1
    O    -1.617979    -0.948062    -2.341650    H2O2
    H    -2.529195    -1.296822    -2.122437    H2O2
    H    -1.534288    -0.833088    -3.331486    H2O2
    &END COORD
    &KIND H
      BASIS_SET ORB DZVP-GTH-BLYP
      BASIS_SET HARRIS TZVDD3DF3PD-GTH-BLYP
      POTENTIAL GTH-PADE-q1
      MAO 1
    &END KIND
    &KIND O
      BASIS_SET ORB DZVP-GTH-BLYP
      BASIS_SET HARRIS TZVDD3DF3PD-GTH-BLYP
      POTENTIAL GTH-PADE-q6
      MAO 4 
    &END KIND
  &END SUBSYS
&END FORCE_EVAL
&GLOBAL
  PROJECT 2H2O
  RUN_TYPE ENERGY
  PRINT_LEVEL LOW
&END GLOBAL
