&FORCE_EVAL
  METHOD Quickstep
  &DFT
    BASIS_SET_FILE_NAME ../../../data/BASIS_MOLOPT
    POTENTIAL_FILE_NAME ../../../data/GTH_POTENTIALS
    &MGRID
      CUTOFF 100
      &RS_GRID
         MAX_DISTRIBUTED_LEVEL 5
      &END
      SKIP_LOAD_BALANCE_DISTRIBUTED
    &END MGRID
    &QS
      EPS_DEFAULT 1.0E-06
    ! LS_SCF
      KG_METHOD
    &END QS
    &LS_SCF
      MAX_SCF     1
      EPS_FILTER  1.0E-5
      EPS_SCF     1.0E-6
      MU         -0.1
      PURIFICATION_METHOD TRS4
    &END
    &XC
      &XC_FUNCTIONAL
        &PADE
        &END
        &KE_LIBXC
          FUNCTIONAL XC_GGA_K_LLP
        &END
      &END
      &XC_GRID
        XC_DERIV SPLINE2
      &END
    &END XC
  &END DFT
  &SUBSYS
    &CELL
      ABC 4.0 4.0 12.0
    &END CELL
    &COORD
      H 0.0 0.0 8.0 H2_1
      H 0.8 0.0 8.0 H2_1
      H 0.0 0.0 4.0 H2_2
      H 0.8 0.0 4.0 H2_2
      H 0.0 0.0 0.0 H2_3
      H 0.8 0.0 0.0 H2_3
    &END COORD
    &KIND H
      BASIS_SET SZV-MOLOPT-GTH
      POTENTIAL GTH-PADE-q1
    &END KIND
  &END SUBSYS
&END FORCE_EVAL
&GLOBAL
  PROJECT H2-LIBXC
  RUN_TYPE ENERGY 
  PRINT_LEVEL MEDIUM
  EXTENDED_FFT_LENGTHS
&END GLOBAL
