&FORCE_EVAL
  METHOD Quickstep
  &PRINT
     &FORCES
     &END
  &END
  &DFT
    BASIS_SET_FILE_NAME BASIS_MOLOPT
    POTENTIAL_FILE_NAME GTH_POTENTIALS
    &MGRID
      CUTOFF 400
    &END MGRID
    &QS
      METHOD GPW
      EPS_DEFAULT 5.0E-14
      EPS_KG_ORB 1.0E-6
      LS_SCF
      KG_METHOD
    &END QS
    &LS_SCF
      MAX_SCF     40
      EPS_FILTER  1.0E-6
      EPS_SCF     1.0E-7
      MU         -0.1
      PURIFICATION_METHOD TRS4
    &END
    &SCF
      EPS_SCF 1.0E-5
      MAX_SCF 50
    &END
    &KG_METHOD
      &XC
        &XC_FUNCTIONAL
          &KE_GGA
            FUNCTIONAL T92
          &END
        &END
      &END XC
      TNADD_METHOD RI_EMBEDDING
       INTEGRATION_GRID SMALL
      &LRIGPW
         RI_STATISTIC  T
         EPS_O3_INT   1.e-14
      &END LRIGPW
    &END KG_METHOD
    &XC
      &XC_FUNCTIONAL
        &PADE
        &END
      &END
    &END XC
  &END DFT
  &SUBSYS
    &CELL
      ABC 4.0 6.0 3.0
    &END CELL
    &COORD
    O   0.000000    0.000000   -0.065587 H2O
    H   0.000000   -0.757136    0.520545 H2O
    H   0.000000    0.757136    0.520545 H2O
    H   2.000000    2.500000    0.000000 H2
    H   2.000000   -2.500000    0.000000 H2
    &END COORD
    &KIND H
      BASIS_SET DZVP-MOLOPT-GTH
      POTENTIAL GTH-PADE-q1
    &END KIND
    &KIND O
      BASIS_SET DZVP-MOLOPT-GTH
      POTENTIAL GTH-PADE-q6
    &END KIND
  &END SUBSYS
&END FORCE_EVAL
&GLOBAL
  PROJECT H2
  RUN_TYPE ENERGY_FORCE
  PRINT_LEVEL MEDIUM
&END GLOBAL
