#
# Set of atomic local potentials to be used with the KG method
# These potentials are based on a density from PBE and a confinement
# of X^4 with a range given by the vdW radius
#
# Attention: these potentials have not been tested
#
 H   TNADD-PBE 
           2           1
               0.3167            0.4717
               0.7540            0.7444
 He   TNADD-PBE
           3           1
               0.2225            1.5982
               0.4623            1.3115
               0.8783            0.5580
 Li   TNADD-PBE
           3           1
               0.2207            3.1102
               0.3877            2.9196
               1.4691            0.2515
 Be   TNADD-PBE
           3           2
               0.1831            6.6469      0.0048
               0.3057            4.2132      0.1663
               1.1170            0.2591      0.1607
 B    TNADD-PBE
           1           2
               0.9803            0.3922      0.2693
 C    TNADD-PBE
           3           2
               0.9886            0.2149      0.2158
               0.3652            0.0000      0.4184
               0.6238            0.0000      0.4817
 N    TNADD-PBE
           3           2
               0.3061            0.0000      0.7200
               0.5358            0.0000      0.7116
               0.9080            0.4393      0.2517
 O    TNADD-PBE
           3           2
               0.4703            0.0000      0.9708
               0.2646            0.0000      1.1115
               0.8690            0.7697      0.2317
 F    TNADD-PBE
           3           2
               0.4173            0.0000      1.2215
               0.2343            0.0000      1.5869
               0.8689            1.2712      0.0951
 Ne   TNADD-PBE
           3           2
               0.2045            0.0000      2.3574
               0.3729            0.1077      1.7477
               0.8700            1.5604      0.0001
 Na   TNADD-PBE
           3           2
               0.2370            0.0000      2.6803
               0.4624            2.7277      1.2795
               1.4843            0.3339      0.0000
 Mg   TNADD-PBE
           3           2
               0.1931            0.0000      3.9715
               0.3698            3.1750      2.3536
               1.1878            0.5307      0.0840
 Al   TNADD-PBE
           2           2
               0.9220            0.0001      0.1377
               1.1695            0.0126      0.2167
 Si   TNADD-PBE
           1           2
               1.0589            0.0869      0.4100
 P    TNADD-PBE
           1           2
               0.9470            0.1216      0.5966
 S    TNADD-PBE
           1           2
               0.8934            0.2214      0.7274
 Cl   TNADD-PBE
           2           3
               0.5538            0.0000      0.5353      0.0906
               0.9319            0.0000      0.4750      0.0000
 Ar   TNADD-PBE
           3           2
               1.1595            0.0000      0.0946
               0.5822            0.0000      1.0103
               0.8724            0.0000      0.5036
 K    TNADD-PBE
           3           2
               0.8015            0.0000      0.5215
               0.5460            0.0000      1.2949
               1.4666            0.0000      0.1212
 Ca   TNADD-PBE
           3           2
               0.5239            0.0000      1.8872
               0.7775            0.0000      0.2544
               1.2413            0.0000      0.2487
 Sc   TNADD-PBE
           3           2
               0.6592            0.0000      0.6410
               0.4653            0.0000      2.0619
               1.2088            0.0000      0.2809
 Ti   TNADD-PBE
           3           2
               0.6252            0.0000      0.9085
               0.4269            0.0000      2.4177
               1.1882            0.0000      0.2945
 V    TNADD-PBE
           3           2
               0.5973            0.0000      1.1483
               0.3965            0.0000      2.8831
               1.1634            0.0000      0.3116
 Cr   TNADD-PBE
           3           2
               0.5702            0.0000      1.6371
               0.3617            0.0000      3.2747
               1.1062            0.0000      0.3120
 Mn   TNADD-PBE
           3           2
               0.3421            0.0000      3.8634
               0.5343            0.0000      1.8071
               1.1089            0.0531      0.3460
 Fe   TNADD-PBE
           3           2
               0.5109            0.0000      1.9739
               0.3246            0.0000      4.4467
               1.1040            0.2250      0.3087
 Co   TNADD-PBE
           3           2
               0.3079            0.0000      4.8687
               0.4807            0.0000      2.1926
               1.1214            0.5117      0.2207
 Ni   TNADD-PBE
           3           2
               0.4759            0.0000      2.5617
               0.2971            0.0000      6.3055
               0.9573            0.0000      0.5146
 Cu   TNADD-PBE
           3           2
               0.3307            0.0000      4.0823
               0.5409            0.0000      1.1020
               0.9039            0.0000      0.4543
 Zn   TNADD-PBE
           3           2
               0.3134            0.0000      4.7661
               0.8954            0.0000      0.5493
               0.5081            0.0000      1.2146
 Ga   TNADD-PBE
           1           2
               1.0332            0.0072      0.3834
 Ge   TNADD-PBE
           1           2
               1.0313            0.0035      0.4660
 As   TNADD-PBE
           1           2
               0.9816            0.0318      0.5873
 Se   TNADD-PBE
           1           2
               0.9507            0.0437      0.7022
 Br   TNADD-PBE
           1           2
               0.9073            0.0663      0.8474
 Kr   TNADD-PBE
           1           2
               0.8845            0.1378      0.9457
 Rb   TNADD-PBE
           1           2
               0.8856            0.4054      0.8975
 Sr   TNADD-PBE
           2           2
               0.6588            0.0000      1.2935
               1.2593            0.0000      0.2917
 Y    TNADD-PBE
           2           2
               0.6342            0.0000      1.4753
               1.2230            0.0000      0.3339
 Zr   TNADD-PBE
           2           2
               0.6149            0.0000      1.6932
               1.1988            0.0000      0.3622
 Nb   TNADD-PBE
           3           2
               0.5985            0.0000      1.8772
               1.0713            0.0000      0.3972
               1.3914            0.0000      0.0448
 Mo   TNADD-PBE
           2           2
               0.5834            0.0000      2.1749
               1.1040            0.0000      0.4383
 Tc   TNADD-PBE
           3           2
               1.0479            0.0000      0.4366
               0.5520            0.0000      2.4631
               1.3418            0.0000      0.0707
 Ru   TNADD-PBE
           1           2
               0.8696            0.4322      0.8414
 Rh   TNADD-PBE
           2           2
               0.6306            0.0000      1.2873
               1.1276            0.0000      0.3372
 Pd   TNADD-PBE
           3           2
               0.9020            0.0000      0.5898
               0.5538            0.0000      1.5405
               1.2571            0.0000      0.0280
 Ag   TNADD-PBE
           3           2
               0.8335            0.0000      0.5391
               0.5136            0.0000      1.7705
               1.1093            0.0000      0.1980
 Cd   TNADD-PBE
           3           2
               0.4978            0.0000      2.0701
               0.8470            0.0000      0.5612
               1.0838            0.0000      0.2033
 In   TNADD-PBE
           1           2
               1.1385            0.0000      0.3214
 Sn   TNADD-PBE
           1           2
               1.1690            0.0000      0.3680
 Sb   TNADD-PBE
           1           2
               1.1184            0.0000      0.4668
 Te   TNADD-PBE
           1           2
               1.0960            0.0000      0.5473
 I    TNADD-PBE
           1           2
               1.0530            0.0000      0.6567
 Xe   TNADD-PBE
           1           2
               1.0338            0.0000      0.7405
