&GLOBAL
  PRINT_LEVEL MEDIUM
  PROJECT H_atom
  RUN_TYPE ENERGY
&END GLOBAL

&FORCE_EVAL
  METHOD Quickstep
  &DFT
    BASIS_SET_FILE_NAME HFX_BASIS
    MULTIPLICITY 2
    POTENTIAL_FILE_NAME GTH_POTENTIALS
    UKS
    &MGRID
      CUTOFF 300
      REL_CUTOFF 50
    &END MGRID
    &QS
      EPS_DEFAULT 1.0E-15
      EPS_PGF_ORB 1.0E-30
      METHOD GPW
    &END QS
    &SCF
      EPS_SCF 1.0E-6
      MAX_SCF 100
      SCF_GUESS RESTART
      &PRINT
        &RESTART OFF
        &END RESTART
      &END PRINT
    &END SCF
    &XC
      &WF_CORRELATION
        MEMORY 1000.0
        NUMBER_PROC 1
        &INTEGRALS
          &WFC_GPW
            CUTOFF 200
            REL_CUTOFF 30
          &END WFC_GPW
        &END INTEGRALS
        &RI_RPA
          QUADRATURE_RULE MINIMAX
          RPA_NUM_QUAD_POINTS 4
        &END RI_RPA
      &END WF_CORRELATION
      &XC_FUNCTIONAL PBE
      &END XC_FUNCTIONAL
    &END XC
  &END DFT
  &SUBSYS
    &CELL
      ABC [angstrom] 5.0000000 5.0000000 5.0000000
    &END CELL
    &COORD
      H    0.0000000   0.0000000   0.0000000
    &END COORD
    &KIND H
      BASIS_SET DZVP-GTH
      BASIS_SET RI_AUX RI_DZVP-GTH
      POTENTIAL GTH-PBE-q1
    &END KIND
    &TOPOLOGY
      &CENTER_COORDINATES
      &END CENTER_COORDINATES
    &END TOPOLOGY
  &END SUBSYS
&END FORCE_EVAL
