&GLOBAL
  PRINT_LEVEL LOW
  RUN_TYPE ENERGY
&END GLOBAL

&FORCE_EVAL
  METHOD Quickstep
  &DFT
    &ACTIVE_SPACE
      ACTIVE_ELECTRONS 4
      ACTIVE_ORBITALS 3
      ORBITAL_SELECTION CANONICAL
      &ERI
        METHOD FULL_GPW
        OPERATOR <1/R>
      &END ERI
      &ERI_GPW
        PRINT_LEVEL LOW
      &END ERI_GPW
      &FCIDUMP
      &END FCIDUMP
    &END ACTIVE_SPACE
    &MGRID
      CUTOFF 300
    &END MGRID
    &POISSON
      PERIODIC NONE
      POISSON_SOLVER ANALYTIC
    &END POISSON
    &QS
      EPS_DEFAULT 1.0E-10
    &END QS
    &SCF
      ADDED_MOS 2
      EPS_SCF 1.0E-5
      SCF_GUESS ATOMIC
      &OT OFF
        MINIMIZER DIIS
        PRECONDITIONER FULL_ALL
      &END OT
    &END SCF
    &XC
      &HF
        &MEMORY
          MAX_MEMORY 10
        &END MEMORY
        &SCREENING
          EPS_SCHWARZ 1.0E-10
        &END SCREENING
      &END HF
      &XC_FUNCTIONAL NONE
      &END XC_FUNCTIONAL
    &END XC
  &END DFT
  &SUBSYS
    &CELL
      ABC 10.0 10.0 10.0
      PERIODIC NONE
    &END CELL
    &COORD
      Be   0.000000   0.000000    0.000000
    &END COORD
    &KIND Be
      BASIS_SET ORB DZV-GTH-PADE
      POTENTIAL GTH-PBE
    &END KIND
  &END SUBSYS
&END FORCE_EVAL
