&GLOBAL
  PROJECT HG
  RUN_TYPE ENERGY_FORCE
  PRINT_LEVEL LOW
&END GLOBAL

&FORCE_EVAL
  METHOD Quickstep
  &DFT
    &QS
      METHOD PM6
      &SE
      &END
    &END QS
    &SCF
      MAX_SCF 50
      EPS_SCF 1.0E-6
      SCF_GUESS mopac
      MIXING 0.1
      &OUTER_SCF
        EPS_SCF 1.0E-6
        MAX_SCF 5
      &END
    &END SCF
    &PRINT
      &AO_MATRICES
          DENSITY
          CORE_HAMILTONIAN
          OVERLAP
          KOHN_SHAM_MATRIX
      &END
    &END
  &END DFT
  &SUBSYS
    &CELL
      ABC 10.0 10.0 10.0
      UNIT ANGSTROM
      PERIODIC NONE
    &END CELL
    &COORD
 Fe    0.000000     0.000000     0.000000
 C     1.300000     0.000000     0.000000
    &END COORD
    &PRINT
      &KINDS
        SE_PARAMETERS
        BASIS_SET
        POTENTIAL
      &END KINDS
    &END PRINT
  &END SUBSYS
&END FORCE_EVAL
