&FORCE_EVAL
  METHOD Quickstep
  &DFT
    &QS
      METHOD MNDO
      &SE
       
      &END
    &END QS
    &SCF
      EPS_SCF 1.0E-5
      SCF_GUESS ATOMIC
    &END SCF
  &END DFT
  &SUBSYS
    &CELL
      ABC 10.0 10.0 10.0
      PERIODIC NONE
    &END CELL
    &COORD
    O   0.000000    0.000000   -0.065587
    H   0.000000   -0.757136    0.520545
    H   0.000000    0.757136    0.520545
    &END COORD
  &END SUBSYS
&END FORCE_EVAL
&GLOBAL
  PROJECT H2O-MNDO
&END GLOBAL
