&FORCE_EVAL
  METHOD Quickstep
  &DFT
    &QS
      METHOD PM6
      &SE
        PERIODIC EWALD
        INTEGRAL_SCREENING KDSO-D
        &COULOMB
           CUTOFF   6.0
        &END
      &END
    &END QS
    &SCF
      EPS_SCF 1.0E-5
      MAX_SCF 100
      &DIAGONALIZATION T
          ALGORITHM STANDARD
          EPS_JACOBI   1.E-1
          JACOBI_THRESHOLD   1.E-7
      &END DIAGONALIZATION
      SCF_GUESS ATOMIC
      &PRINT
        &RESTART OFF
        &END
      &END
    &END SCF
    &POISSON
      &EWALD
        EWALD_TYPE EWALD
        ALPHA  0.5
        GMAX 21 21 21
        &MULTIPOLES
           MAX_MULTIPOLE_EXPANSION QUADRUPOLE
        &END
      &END EWALD
    &END POISSON
  &END DFT
  &SUBSYS
    &CELL
      ABC 9.8528 9.8528 9.8528
    &END CELL
    &COORD
O    2.2376945344510992E+00    9.2373163949315646E+00    5.1479030869384408E+00
O    1.2942880203006364E+00    2.0964056354442548E+00    7.6847293333382316E+00
O    1.6830429296496494E+00    6.6187913061331241E+00    6.5588809476758103E-01
O    2.5207658544991993E+00    4.2175138171338329E+00    1.6053232666660862E+00
O   -4.1661929581176524E-02    5.8017233690472469E+00    6.5662923823803485E+00
O    8.9500988267324910E+00    5.7571641625859682E+00    3.7544755795784168E-01
O    7.5511564358125769E+00    8.5809189026207306E+00    5.6644538879646644E+00
O    4.7435974167552883E+00    9.4111428363084677E+00    8.4635980914194053E-01
O    6.4775356167198614E+00    7.0335483780545074E+00    3.5128021047847691E+00
O    7.7272739601924618E+00    8.2094067291247015E+00    9.2144941932577868E+00
O    8.4125607030009668E+00    3.6851483507164731E+00    5.6542660456992202E+00
O    8.9175829468059593E+00    1.8849501097540187E+00    1.4658159097982759E+00
O    9.1640912173795037E+00    1.3203786398138589E-01    6.8019410229795172E+00
O    4.9772978764556681E+00    4.2889687185236429E+00    1.7612585871083578E-01
O    2.6237399097001344E+00    8.9981733856992143E+00    2.4915488866323656E+00
O    8.9215387234196228E+00    3.3643094693807365E+00    8.8466611507596387E+00
O    1.5150087419116998E+00    1.5172551991024734E+00    2.2960316306327324E+00
O    6.2896267329641029E+00    1.0491858724493879E+00    7.3798251334522664E+00
O    2.6731516458801883E+00    8.1990890573446340E-01    9.8528213138506260E+00
O    8.5122145439426866E-01    2.1791826208321639E+00    5.3552429412454199E+00
O    6.3237708954114327E+00    1.7794766518613299E+00    1.5009318430627497E-01
O    2.6264614680809095E+00    4.4580114024238986E+00    5.7708004990307948E+00
O    4.7060006710021716E+00    9.0962173134218158E+00    6.6352628240889313E+00
O    3.6296274384933969E+00    6.2761911614971551E+00    3.0612359508081237E+00
O    3.2394182709858805E+00    6.8899640360457042E+00    7.4459388663937407E+00
O    5.1807746713466907E+00    3.5456991000275204E+00    6.3211035443398416E+00
O    5.2784226332150226E+00    6.7985784794943802E+00    9.4207139396992190E+00
O    9.5507850140389372E-01    5.7880214563538672E+00    4.1331230019363705E+00
O    9.5658576410957394E+00    8.3418017694008384E+00    3.6998077283514426E+00
O    8.7569545761836682E+00    4.4243151498678914E+00    2.8735689523256394E+00
O    1.4036653528410197E+00    8.7350057874348082E+00    8.3699585160809509E+00
O    7.7555922895663327E+00    9.2504546526473685E+00    1.8592010691316245E+00
H    1.6407877412510596E+00    1.0068548590280274E+01    5.4349411424114384E+00
H    3.0925910322299801E+00    9.4724915113630210E+00    5.7382604892917222E+00
H    5.5177326327946152E-01    2.7481408425737577E+00    8.1136013982384902E+00
H    1.7542355211388583E+00    2.8044123871917108E+00    7.0367808786129853E+00
H    2.0588014442128459E+00    5.6531001781361949E+00    1.0476322303079948E+00
H    1.9296433207513162E+00    7.1909826329006092E+00    1.5007804630361874E+00
H    3.4633228978264436E+00    4.2313802339847566E+00    1.0634155685229199E+00
H    2.9065178822840547E+00    4.5110301264132833E+00    2.5496362122138696E+00
H    8.8842342744405445E-01    5.3074375297724794E+00    6.6616420469954871E+00
H    1.8473955038335865E-01    6.2979493929305992E+00    5.6373342798499966E+00
H    9.9419569498741218E+00    6.1571810442276016E+00    5.9096312029400544E-01
H    8.6215659699225569E+00    6.5516311444244355E+00   -2.4532509202443073E-01
H    8.0452464261236809E+00    8.0269586483196811E+00    6.4018891053078155E+00
H    8.4267445669407568E+00    9.0676321230259838E+00    5.2631615777347731E+00
H    4.3136898842925833E+00    1.0159529570064540E+01    1.8725188116973102E-01
H    5.5768693491207575E+00    9.9827042770480858E+00    1.1733569106347508E+00
H    6.5854803750356883E+00    7.8995339520470687E+00    2.9194954064298013E+00
H    6.8646877016765186E+00    7.4564524134700880E+00    4.4225561734657655E+00
H    7.7636294849453895E+00    8.7607546297506858E+00    1.0168042482264600E+01
H    7.8694158206765703E+00    9.0207523357622961E+00    8.5665158370647987E+00
H    8.2594426273976183E+00    3.3166380625589418E+00    6.6274406565619577E+00
H    8.9772862680885606E+00    4.5899764769138471E+00    5.9347519939011626E+00
H    1.0000772771904709E+01    1.6529382058172173E+00    1.6295995100067877E+00
H    8.7992042880487382E+00    2.5831764979109790E+00    2.2601514296758789E+00
H    9.7736480889361133E+00    1.0030215122970800E+00    6.6152924314139803E+00
H    9.8843233246820876E+00   -3.8795572305513260E-01    7.4006879264895060E+00
H    4.7349194895923929E+00    4.5285741347182249E+00   -8.2491504717316888E-01
H    5.5198980668014910E+00    5.1982069798766188E+00    3.9266956048630230E-01
H    3.5708913302900478E+00    9.2994169466894103E+00    2.0567601100606940E+00
H    2.7633644772616854E+00    9.3767818546497441E+00    3.4925278503017605E+00
H    9.0673263094555914E+00    4.3922767789268526E+00    9.1621440119545099E+00
H    8.9634812561838313E+00    2.9190070287718783E+00    9.8164031722096734E+00
H    2.0775898200236527E+00    2.2483212556399312E+00    1.7567100273988132E+00
H    1.9160599915855885E+00    6.2235201157886266E-01    1.7972290988176933E+00
H    7.2739875523616346E+00    7.2853035507603703E-01    7.1183505016941657E+00
H    6.4949887355568405E+00    1.3703756683807722E+00    8.3952916217349749E+00
H    2.3989647176164599E+00    1.5138240309146993E+00    9.0806849872195947E+00
H    2.2407011216033270E+00   -6.1240032844237562E-02    9.3795857717672906E+00
H    9.8299412940551201E-01    2.0255468167340629E+00    4.3242464150137039E+00
H   -9.1300789419481151E-02    2.7096057976568138E+00    5.3065788080790712E+00
H    5.9226870637781639E+00    2.7781982932768265E+00    8.0151639458286308E-02
H    7.3267168619179648E+00    2.0648791788307488E+00    3.6652833433788534E-01
H    3.1722930750448324E+00    5.1845247857162295E+00    6.3210831499962055E+00
H    3.4377404576690855E+00    3.7933066301359220E+00    5.5693371319054812E+00
H    5.6521955931196368E+00    9.1392215616350096E+00    6.1542032005069904E+00
H    4.9773998331473006E+00    9.6781332549680332E+00    7.4908856950427918E+00
H    4.5830443051286389E+00    6.5554372816067898E+00    3.4635586406438454E+00
H    3.2189766664936212E+00    7.2623751516936705E+00    2.9581580884562899E+00
H    3.9008893691760855E+00    7.4925038998162075E+00    6.8619254186165879E+00
H    3.8494074856076694E+00    6.8789471945506513E+00    8.3327859363449441E+00
H    5.9935857635783520E+00    3.7279295054070198E+00    5.6813827642295065E+00
H    5.4478281934946180E+00    2.5454647927190650E+00    6.5853289921313758E+00
H    5.0031028626372249E+00    7.5308128014107929E+00    1.0148633829239456E+01
H    6.1506087325901007E+00    7.3280771562726539E+00    9.0592910473987462E+00
H    1.9532780876127656E+00    5.4151856324727525E+00    4.3216969670039580E+00
H    5.1870720157619277E-01    4.9228904950952819E+00    3.6793939566512952E+00
H    9.7975942199144104E+00    7.3069171306390794E+00    3.6264652513726618E+00
H    1.0561987392397146E+01    8.6909800866866043E+00    3.6136302495113584E+00
H    8.4271004148237640E+00    5.1469522009693076E+00    2.1588780453426613E+00
H    8.0268295550480246E+00    4.6203152015651368E+00    3.6125215232036645E+00
H    2.0973255520734502E+00    8.0620447984544068E+00    7.8486057687243447E+00
H    1.0136656971219933E+00    8.0233776741699216E+00    9.0400133196715835E+00
H    8.1557435444913722E+00    1.0266890381205883E+01    1.8502113241012814E+00
H    8.6154918577010786E+00    8.7756656997671385E+00    2.3036770892210439E+00
    &END COORD
  &END
&END FORCE_EVAL
&GLOBAL
  PROJECT H2O-32
  RUN_TYPE ENERGY_FORCE
  PRINT_LEVEL LOW
  FLUSH_SHOULD_FLUSH
&END GLOBAL
