&FORCE_EVAL
  METHOD QS
  &DFT
    &MGRID
      CUTOFF 100
    &END
    &QS
      METHOD PM3
      &SE
        &COULOMB
          CUTOFF   [bohr] 24.0
          RC_RANGE [bohr] 1.0
        &END
        &EXCHANGE
          CUTOFF   [bohr] 24.0
          RC_TAPER [bohr] 24.0
          RC_RANGE [bohr]  1.0
        &END
      &END SE
    &END QS
    &SCF
      EPS_SCF 1.0E-5
      SCF_GUESS ATOMIC
    &END SCF
  &END DFT
  &SUBSYS
    &CELL
      ABC 25. 25. 25.
    &END CELL
    &COORD
N   -9.3078882111847094E-01    1.1919076628311382E+00    4.3063937319341292E+00
C    4.2961480685459691E-01    1.2125010194870527E+00    4.7948437969669735E+00
C    1.3011567276738383E+00    1.8600802223899851E-01    4.2376392134211178E+00
N    3.6706980253255317E+00   -1.1583374171239325E+00    1.1298881234316138E+00
C    1.6214213723082991E+00   -9.3919961848884370E-01    5.1786210318342052E+00
C    1.6234861962862113E+00   -2.0951807408761445E+00    4.1467796008916658E+00
C    2.8651832549159870E+00   -2.4797001690106115E+00    3.4324506512844173E+00
C    3.5932397733881003E+00   -1.0754387818549385E+00    2.5299841575151816E+00
C   -1.1668333549709236E+00    1.6764287562635076E+00    2.9767956848289461E+00
C   -2.4522724473374882E+00    4.4689123340690456E-01    2.5260554574739738E+00
N   -2.7230271761184492E+00   -3.0735457494243096E-01    3.7666661060168720E+00
C   -1.5575537916983857E+00   -1.2998296241015694E-01    4.6598023657956134E+00
O   -8.1317155533567098E-01    2.6543111801426140E+00    2.4805537621763443E+00
O   -1.4027152496088164E+00   -5.8688421703567595E-01    5.7733804833375579E+00
C   -3.5743934142166531E+00    1.3410500554956679E+00    1.8690393166864492E+00
C    4.0119468322653313E+00   -2.5994274425001724E+00    4.5361744751573446E-01
N    4.8034626888310559E+00   -2.2833744298213912E+00   -7.2409389024474768E-01
C    4.7522331788179946E+00   -6.9442097588583152E-01   -9.3724223125319017E-01
C    3.9530896787018599E+00   -2.1816258650028991E-02    3.1188433002779642E-01
O    3.9237359812272343E+00    1.1067864413776811E+00    6.4141748013942468E-01
O    3.2302746852309405E+00   -3.4803478104725336E+00    6.5967790981918373E-01
C    4.2115261987176531E+00   -2.6370862916622284E-01   -2.2694665163254446E+00
C   -4.5344239518672333E+00    4.9648587453116416E-01    1.2124331705827245E+00
C   -4.6489342812546752E+00    6.9380596219986523E-01   -6.0989333828364845E-01
O   -5.6945196546878396E+00    6.7395279312535750E-01   -1.2884185863613515E+00
O   -3.4718596544789846E+00    1.1829783670672731E+00   -1.3568447071232324E+00
C    2.6017294317165121E+00    3.3105637660005731E-02   -2.4340581456108539E+00
C    2.0190206182438888E+00    1.9450878154232296E-01   -3.9659894465763941E+00
O    6.4302112110594112E-01    3.4638593245785559E-01   -3.8308694900855449E+00
O    2.4814177944656777E+00   -2.7052203116307932E-01   -4.9986916064949440E+00
C   -3.3771185158568104E+00    1.2934760890232395E+00   -2.8294308477547925E+00
C   -2.2602311520949474E+00    6.0088337794610402E-01   -3.3677134880607755E+00
C   -1.4138421783505783E+00    1.1332739974735999E+00   -4.1849351983035916E+00
C   -2.7375815242924334E-01    6.5141414402211817E-01   -4.7658821800899869E+00
C   -3.6961684047017664E+00   -1.3305881164390674E+00    4.0796677690527972E+00
C    5.4274249505965608E+00   -3.4656737254390726E+00   -1.4040416654878640E+00
H    8.1970870497998738E-01    1.2432973414772253E+00    5.7963552433334398E+00
H    9.4991805684445851E-01    2.0716445192730215E+00    4.4143170120036581E+00
H    2.2773406888682683E+00    6.6390093290190932E-01    3.9622158336323885E+00
H    7.2326296189832784E-01   -6.7571050661597784E-02    3.3434428733282395E+00
H    8.4437864769008408E-01   -8.3770780011010038E-01    6.0393436243829726E+00
H    2.7521538520522677E+00   -6.5380455047205976E-01    5.4452693508729144E+00
H    7.9040434928356618E-01   -2.0413153831759665E+00    3.5151695551408562E+00
H    1.1322466451044484E+00   -2.8446469185821948E+00    4.7248385827017412E+00
H    2.5345628692252804E+00   -3.3002592595185507E+00    2.8404726958966640E+00
H    3.6985160240096371E+00   -2.8976958540963822E+00    3.8514874381494235E+00
H    3.2011401826676211E+00   -4.3652260146607447E-02    2.6711669149187349E+00
H    4.6473241465328528E+00   -1.0851212733710411E+00    2.8399262588253307E+00
H   -1.8200223121611394E+00   -2.5384888798289917E-01    1.7117352706765214E+00
H   -3.3193112553481905E+00    2.3035194080541084E+00    1.3045688850205504E+00
H   -3.8049715465984333E+00    2.0364648795031521E+00    2.8252411504766446E+00
H    5.7930479835538193E+00   -3.2727950013919149E-01   -6.7205376068341560E-01
H    4.6737453724218962E+00   -1.0506932111951468E+00   -3.2053497905487878E+00
H    4.8027997574440233E+00    7.6314628377582050E-01   -2.3008646462858371E+00
H   -5.6842699691853378E+00    8.1306701167515727E-01    1.4886331335032770E+00
H   -4.3723787642114322E+00   -3.8089770538886875E-01    1.7223123488209182E+00
H    1.8831399704223608E+00    7.9382922263087430E-01   -1.9476492128832892E+00
H    2.0687769760427259E+00   -1.0249087393606018E+00   -2.2683531393098146E+00
H   -2.9983166906436933E+00    2.4012728596102955E+00   -3.1822187834869164E+00
H   -4.4110970068297917E+00    1.0058375266564825E+00   -3.2051297436473152E+00
H   -2.2927105331597692E+00   -3.8226151465959407E-01   -3.3295029877825275E+00
H   -1.2246521847955241E+00    2.1766275584868366E+00   -4.2595484981973577E+00
H   -4.9847722992582021E-02   -1.6335492059943610E-01   -5.4762891210551183E+00
H    2.6684364741647054E-01    1.4326843661080511E+00   -5.3916781357500296E+00
H   -3.1994963326328021E+00   -2.1908377090860931E+00    4.2174314716036516E+00
H   -4.7174553674480544E+00   -1.2738558225944081E+00    3.5902082181865689E+00
H   -4.1601782179950559E+00   -8.9518179638134387E-01    5.1665706247756784E+00
H    6.3463038626903039E+00   -2.8580484361216905E+00   -1.6679675711550652E+00
H    4.5400946276004772E+00   -4.0329547153037675E+00   -2.0059959857838749E+00
H    5.8988634375965994E+00   -3.9398603886655943E+00   -5.2633325476544823E-01
    &END
    &TOPOLOGY
      CONNECTIVITY GENERATE
      &GENERATE
        CREATE_MOLECULES
      &END GENERATE
    &END TOPOLOGY
  &END SUBSYS
&END FORCE_EVAL
&GLOBAL
  PROJECT md
  PRINT_LEVEL DEBUG
  RUN_TYPE ENERGY_FORCE
&END GLOBAL
