&FORCE_EVAL
  METHOD Quickstep
  &DFT
    &QS
      METHOD PM6 
      &SE
      &END
    &END QS
    &SCF
      SCF_GUESS ATOMIC
      MAX_SCF 2
      &OUTER_SCF
        MAX_SCF 2
      &END
      &OT
         MINIMIZER DIIS
         PRECONDITIONER FULL_SINGLE
      &END
    &END SCF
  &END DFT
  &SUBSYS
    &CELL
      ABC 30.0 30.0 30.0
      PERIODIC NONE
    &END CELL
    &COORD
          C                   .00000000     .00000000     .00000000
          N                  1.37642000     .00000000     .00000000
          N                  1.98737272    1.13162901     .00000000
          C                  1.23348027    2.28696635     .00006707
          N                  -.14276973    2.28704585     .00009163
          N                  -.75370186    1.15523527     .00004764
          O                  -.51471948   -1.25226324    -.00009551
          O                  1.74818974    3.53921208     .00007025
          C                 -1.92304628   -1.38167327    -.00006141
          H                 -2.37921736    -.94831519    -.89666631
          H                 -2.37897217    -.94903653     .89700422
          H                 -2.04217722   -2.46893609    -.00049319
          C                  3.15650139    3.66867773     .00019783
          H                  3.61260692    3.23581116    -.89667781
          H                  3.61245200    3.23561092     .89705557
          H                  3.27563851    4.75595001     .00035950
    &END COORD
  &END SUBSYS
&END FORCE_EVAL
&GLOBAL
  PROJECT stp4
  RUN_TYPE ENERGY
&END GLOBAL
