&FORCE_EVAL
  METHOD QS
  &DFT
    CHARGE 2
    MULTIPLICITY 1
    &QS
      &SE
        &COULOMB
          RC_RANGE [bohr] 10.0
        &END
        &EXCHANGE
          RC_TAPER [bohr] 24.0
          RC_RANGE        10.0
        &END
      &END
      METHOD PM6
      EXTRAPOLATION ASPC
      EXTRAPOLATION_ORDER 3
      EPS_DEFAULT 1.0E-12
    &END QS
    &SCF
      EPS_SCF 1.0E-6
      MAX_SCF 50
      &MIXING
          METHOD DIRECT_P_MIXING
          ALPHA   0.1
      &END
      SCF_GUESS mopac
      &OUTER_SCF
	EPS_SCF 1.0E-6
	MAX_SCF 10
      &END OUTER_SCF
      &OT ON
	MINIMIZER CG
	PRECONDITIONER FULL_ALL
      &END OT
      &PRINT
         &RESTART OFF
         &END
         &RESTART_HISTORY OFF
         &END
      &END
    &END SCF
  &END DFT
  
  &SUBSYS
    &TOPOLOGY
      CONNECTIVITY OFF
      COORDINATE XYZ
      COORD_FILE_NAME ../sample_xyz/ref_geos.xyz
    &END TOPOLOGY
    &CELL
      ABC  15.0 15.0 15.0
    &END CELL
    
    &KIND H
      BASIS_SET TZV2P-GTH-q1
      POTENTIAL GTH-PBE-q1
    &END KIND
    &KIND O
      BASIS_SET TZV2P-GTH-q6
      POTENTIAL GTH-PBE-q6
    &END KIND
    &KIND Zn
      BASIS_SET TZV-GTH-q12-confined
      POTENTIAL GTH-PBE-q12
    &END KIND
    
  &END SUBSYS
&END FORCE_EVAL
&GLOBAL
  PROJECT zn_1w_debug
  RUN_TYPE DEBUG
  PRINT_LEVEL LOW
&END GLOBAL
&DEBUG
 DX 0.001
&END
