&GLOBAL
  PROJECT md_gal21
  RUN_TYPE energy
&END GLOBAL

&MOTION
  &PRINT
   &TRAJECTORY
     &EACH
       MD 1
     &END EACH
   &END TRAJECTORY
  &END PRINT
  &CONSTRAINT
    &FIXED_ATOMS
      LIST 1..192 !Pt atoms
    &END FIXED_ATOMS
    &G3X3
      DISTANCES 1.808845716 1.808845716 2.860856174
      MOLNAME WAT !To be specified in the coord.inc file
      ATOMS 1 2 3
    &END G3X3
  &END CONSTRAINT
  &MD
    ENSEMBLE NVT
    STEPS 10
    TIMESTEP 2
    &THERMOSTAT
    &END THERMOSTAT
    TEMPERATURE 298
  &END MD
&END MOTION

&MULTIPLE_FORCE_EVALS
  FORCE_EVAL_ORDER  1 2 3
&END MULTIPLE_FORCE_EVALS

&FORCE_EVAL
  METHOD MIXED
  &MIXED
    GROUP_PARTITION 1 1
  # MIXING_TYPE LINEAR_COMBINATION
   MIXING_TYPE GENMIX
   &GENERIC
     # X: Energy force_eval 2
     # Y: Energy force_eval 3
     MIXING_FUNCTION X+Y
     VARIABLES X Y
   &END
  &END
  &SUBSYS
    &CELL
      ABC  16.8721334845359721 19.4822616182002832 75
      ALPHA_BETA_GAMMA 90 90 90
      PERIODIC  XYZ
    &END CELL
    &COORD
      @INCLUDE "coord.inc"
    &END COORD
    &TOPOLOGY
     &GENERATE
       BONDPARM_FACTOR 0.95
     &END GENERATE
    &END TOPOLOGY
  &END SUBSYS
&END FORCE_EVAL

&FORCE_EVAL
   METHOD FIST
   &MM
    &FORCEFIELD
     MULTIPLE_POTENTIAL .TRUE.
     IGNORE_MISSING_CRITICAL_PARAMS T
     &SPLINE
       EMAX_SPLINE 10
     &END SPLINE
     &CHARGE
       ATOM O
       CHARGE -0.830
     &END CHARGE
     &CHARGE
       ATOM Pt
       CHARGE 0.0
     &END CHARGE
     &CHARGE
       ATOM H
       CHARGE 0.415
     &END CHARGE
     &NONBONDED
        &LENNARD-JONES
          atoms O O
          EPSILON [kcalmol] 0.102
          SIGMA [angstrom] 3.188
          RCUT 10
        &END LENNARD-JONES
     &END NONBONDED
    &END FORCEFIELD
    &POISSON
      &EWALD
        EWALD_TYPE spme
        GMAX 17 20 75 !About box dimensions
      &END EWALD
    &END POISSON
  &END MM
&END FORCE_EVAL


&FORCE_EVAL
   METHOD FIST
   &MM
    &FORCEFIELD
     &SPLINE
       EMAX_SPLINE 10
     &END SPLINE
     IGNORE_MISSING_CRITICAL_PARAMS T
     &NONBONDED
      &GAL21
         ATOMS  O Pt
         METALS Pt Cu
         RCUT 10
         epsilon -0.9358113879523 9.09851523151946 -5.424038077984534
         bxy .6451191 .0010102
         bz .1214708 .0003720
         r 1.9000000 4.0
         a1 -45.03531580496108 2.2912089535351723 0.9952972316569941
         a2 35.580119531527174 -9.91621141032723 0.7804880180017064
         a3 -106.48217251468913 29.06440141041192 -1.8553892798403497
         a4 -14.13835574840837 -1.9537083062459715e-10 0.19129810724417187
         A -48399.51277185474 18486.892036112804
         B 3.4989779 .0988938
         C 917.455856665695
         AH 35728.40150389513 -3751.73899676257
         BH 4.5412501 -.1265630
         Fit_express FALSE 
         &GCN
          @INCLUDE "gcn.inc"
         &END GCN
      &END GAL21
     &END NONBONDED
    &END FORCEFIELD
    &POISSON
      &EWALD
        EWALD_TYPE spme
        GMAX 17 20 75 !About box size
      &END EWALD
    &END POISSON
  &END MM
&END FORCE_EVAL
