&GLOBAL
  EXTENDED_FFT_LENGTHS
  PRINT_LEVEL MEDIUM
  PROJECT PERFORMANCE_GRAPHENEN_NANORIBBON
  RUN_TYPE ENERGY
&END GLOBAL

&FORCE_EVAL
  METHOD Quickstep
  &DFT
    BASIS_SET_FILE_NAME EMSL_BASIS_SETS
    BASIS_SET_FILE_NAME BASIS_RI_cc-TZ
    POTENTIAL_FILE_NAME ALL_POTENTIALS
    SORT_BASIS EXP
    &MGRID
      CUTOFF 400
      REL_CUTOFF 50
    &END MGRID
    &POISSON
      PERIODIC NONE
      PSOLVER MT
    &END POISSON
    &QS
      METHOD GAPW
    &END QS
    &SCF
      CHOLESKY OFF
      EPS_SCF 1.0E-6
      MAX_SCF 200
      SCF_GUESS RESTART
    &END SCF
    &XC
      &WF_CORRELATION
        &LOW_SCALING
          EPS_FILTER 1.0E-8
          MEMORY_CUT 5
        &END LOW_SCALING
        &RI_RPA
          RPA_NUM_QUAD_POINTS 8
          &GW
            CORR_MOS_OCC 25
            CORR_MOS_VIRT 25
          &END GW
          &HF
            &SCREENING
              EPS_SCHWARZ 1.0E-12
            &END SCREENING
          &END HF
        &END RI_RPA
      &END WF_CORRELATION
      &XC_FUNCTIONAL PBE
      &END XC_FUNCTIONAL
    &END XC
  &END DFT
  &SUBSYS
    &CELL
      ABC 50.0 15.0 10.0
      PERIODIC NONE
    &END CELL
    &KIND H
      BASIS_SET ORB aug-cc-pVDZ
      BASIS_SET RI_AUX RI_TZ
      POTENTIAL ALL
    &END KIND
    &KIND C
      BASIS_SET ORB aug-cc-pVDZ
      BASIS_SET RI_AUX RI_TZ
      POTENTIAL ALL
    &END KIND
    &TOPOLOGY
      COORD_FILE_FORMAT xyz
      COORD_FILE_NAME nanoribbon.xyz
      &CENTER_COORDINATES
      &END CENTER_COORDINATES
    &END TOPOLOGY
  &END SUBSYS
&END FORCE_EVAL
