&FORCE_EVAL
  METHOD Quickstep
  &DFT
    BASIS_SET_FILE_NAME  EMSL_BASIS_SETS
    BASIS_SET_FILE_NAME  BASIS_RI_cc-TZ
    POTENTIAL_FILE_NAME  ALL_POTENTIALS
    SORT_BASIS           EXP
    &MGRID
      CUTOFF 400
      REL_CUTOFF 50
    &END MGRID
    &QS
      METHOD GAPW
    &END QS
    &POISSON
      PERIODIC NONE
      PSOLVER MT
    &END
    &SCF
      EPS_SCF 1.0E-6
      SCF_GUESS RESTART
      MAX_SCF 200
      CHOLESKY OFF
    &END SCF
    &XC
      &XC_FUNCTIONAL PBE
      &END XC_FUNCTIONAL
      &WF_CORRELATION
        &LOW_SCALING
          EPS_FILTER 1.0E-8
          MEMORY_CUT 5
        &END
        &RI_RPA
          RPA_NUM_QUAD_POINTS  8
          &GW
            CORR_MOS_OCC   25
            CORR_MOS_VIRT  25
          &END GW
          &HF
            &SCREENING
              EPS_SCHWARZ 1.0E-12
            &END SCREENING
          &END HF
        &END RI_RPA
      &END
    &END XC
  &END DFT
  &SUBSYS
    &CELL
      ABC 50.0 15.0 10.0
      PERIODIC NONE
    &END CELL
    &TOPOLOGY
      COORD_FILE_NAME  nanoribbon.xyz
      COORD_FILE_FORMAT xyz
      &CENTER_COORDINATES
      &END
    &END TOPOLOGY
    &KIND H
      BASIS_SET    aug-cc-pVDZ
      RI_AUX_BASIS RI_TZ
      POTENTIAL ALL
    &END KIND
    &KIND C
      BASIS_SET    aug-cc-pVDZ
      RI_AUX_BASIS RI_TZ
      POTENTIAL ALL
    &END KIND
  &END SUBSYS
&END FORCE_EVAL
&GLOBAL
  RUN_TYPE     ENERGY
  PROJECT      PERFORMANCE_GRAPHENEN_NANORIBBON
  PRINT_LEVEL  MEDIUM
  EXTENDED_FFT_LENGTHS
&END GLOBAL
