&GLOBAL
  PRINT_LEVEL MEDIUM
  PROJECT RPA_H2O_kpoints
  RUN_TYPE ENERGY
  &TIMINGS
    THRESHOLD 0.01
  &END TIMINGS
&END GLOBAL

&FORCE_EVAL
  METHOD Quickstep
  &DFT
    BASIS_SET_FILE_NAME HFX_BASIS
    POTENTIAL_FILE_NAME GTH_POTENTIALS
    SORT_BASIS EXP
    &KPOINTS
      EPS_GEO 1.e-8
      FULL_GRID ON
      PARALLEL_GROUP_SIZE 0
      SCHEME MONKHORST-PACK 1 1 4
      SYMMETRY ON
      VERBOSE F
    &END KPOINTS
    &MGRID
      CUTOFF 100
      REL_CUTOFF 20
    &END MGRID
    &QS
      EPS_DEFAULT 1.0E-15
      EPS_PGF_ORB 1.0E-15
      METHOD GPW
    &END QS
    &SCF
      ADDED_MOS 10000000
      EPS_SCF 1.0E-5
      MAX_SCF 100
      SCF_GUESS ATOMIC
      &PRINT
        &RESTART OFF
        &END RESTART
      &END PRINT
    &END SCF
    &XC
      &WF_CORRELATION
        MEMORY 200.
        NUMBER_PROC 1
        &INTEGRALS
          SIZE_LATTICE_SUM 3
        &END INTEGRALS
        &LOW_SCALING
          DO_EXTRAPOLATE_KPOINTS FALSE
          !MEMORY_INFO
          DO_KPOINTS
          MEMORY_CUT 2
        &END LOW_SCALING
        &RI_RPA
          RPA_NUM_QUAD_POINTS 6
        &END RI_RPA
      &END WF_CORRELATION
      &XC_FUNCTIONAL PBE
      &END XC_FUNCTIONAL
    &END XC
  &END DFT
  &SUBSYS
    &CELL
      ! cell very small in x and y direction
      ABC [angstrom] 5.000 5.000 10.000
      MULTIPLE_UNIT_CELL 1 1 1
      PERIODIC Z
    &END CELL
    &COORD
      H  0.0 -0.5 -5.5
      O  0.5  0.0  5.5
      H  0.0  0.5 -5.5
    &END COORD
    &KIND H
      BASIS_SET ORB DZVP-GTH
      BASIS_SET RI_AUX RI_DZVP-GTH
      POTENTIAL GTH-PBE-q1
    &END KIND
    &KIND O
      BASIS_SET ORB DZVP-GTH
      BASIS_SET RI_AUX RI_DZVP-GTH
      POTENTIAL GTH-PBE-q6
    &END KIND
    &TOPOLOGY
      MULTIPLE_UNIT_CELL 1 1 1
    &END TOPOLOGY
  &END SUBSYS
&END FORCE_EVAL
