&GLOBAL
  PRINT_LEVEL LOW
  PROJECT hex-ice
  RUN_TYPE ENERGY
&END GLOBAL

&FORCE_EVAL
  METHOD QS
  &DFT
    BASIS_SET_FILE_NAME GTH_BASIS_SETS
    POTENTIAL_FILE_NAME GTH_POTENTIALS
    &ALMO_SCF
      ALMO_ALGORITHM DIAG
      ALMO_SCF_GUESS MOLECULAR
      DELOCALIZE_METHOD XALMO_X
      EPS_FILTER 1.0E-8
      XALMO_R_CUTOFF_FACTOR 1.4
      &ALMO_OPTIMIZER_DIIS
        EPS_ERROR 5.0E-4
        MAX_ITER 10
        N_DIIS 5
      &END ALMO_OPTIMIZER_DIIS
      &ANALYSIS T
        FROZEN_MO_ENERGY_TERM SUBLATTICE
        &PRINT
          &ALMO_CTA
            FILENAME charge_terms
          &END ALMO_CTA
          &ALMO_EDA_CT
            FILENAME ct_energy_terms
          &END ALMO_EDA_CT
        &END PRINT
      &END ANALYSIS
      &XALMO_OPTIMIZER_PCG
        CONJUGATOR DAI_YUAN
        EPS_ERROR 5.0E-4
        LIN_SEARCH_EPS_ERROR 0.1
        LIN_SEARCH_STEP_SIZE_GUESS 0.5
        MAX_ITER 100
        MAX_ITER_OUTER_LOOP 0
      &END XALMO_OPTIMIZER_PCG
    &END ALMO_SCF
    &MGRID
      CUTOFF 200  ! 320
      NGRIDS 4
    &END MGRID
    &QS
      ALMO_SCF T
      EPS_DEFAULT 1.0E-8  ! 1.0E-12
    &END QS
    ! The SCF section controls calculations
    ! on single molecules.
    ! IMPORTANT: converge simgle-molecule calculations
    ! tightly to get correct energy decomposition terms
    &SCF
      EPS_SCF 1.0E-2
      SCF_GUESS ATOMIC
      &OT
        PRECONDITIONER FULL_ALL
      &END OT
    &END SCF
    &XC
      &XC_FUNCTIONAL BLYP
      &END XC_FUNCTIONAL
    &END XC
  &END DFT
  &SUBSYS
    &CELL
      @INCLUDE '../regtest-almo-1/ice.cell'
      MULTIPLE_UNIT_CELL 1 1 1
    &END CELL
    &COORD
      @INCLUDE '../regtest-almo-1/ice-cut.xyz'
    &END COORD
    &KIND H
      BASIS_SET DZVP-GTH
      POTENTIAL GTH-BLYP-q1
    &END KIND
    &KIND O
      BASIS_SET DZVP-GTH
      POTENTIAL GTH-BLYP-q6
    &END KIND
    &TOPOLOGY
      MULTIPLE_UNIT_CELL 1 1 1
    &END TOPOLOGY
  &END SUBSYS
&END FORCE_EVAL
