&GLOBAL
  IOLEVEL MEDIUM
  PROJECT co_lsd
  RUN_TYPE ENERGY
&END GLOBAL

&FORCE_EVAL
  METHOD Quickstep
  &DFT
    BASIS_SET_FILE_NAME ALL_BASIS_SETS
    LSD
    POTENTIAL_FILE_NAME POTENTIAL
    &MGRID
      CUTOFF 80
      NGRIDS 4
    &END MGRID
    &POISSON
      PERIODIC NONE
      POISSON_SOLVER MT
      &MT
        ALPHA 7.0
        REL_CUTOFF 1.5
      &END MT
    &END POISSON
    &QS
      ALPHA0_H 10
      EPSFIT 1.E-4
      EPSISO 1.0E-12
      EPSRHO0 1.E-8
      EPS_GVG 1.0E-8
      EPS_PGF_ORB 1.0E-8
      LMAXN0 2
      LMAXN1 6
      METHOD GAPW
      QUADRATURE GC_LOG
    &END QS
    &SCF
      ADDED_MOS 1 1
      EPS_DIIS 0.4
      EPS_SCF 5.E-7
      IGNORE_CONVERGENCE_FAILURE
      MAX_SCF 5
      SCF_GUESS ATOMIC
      &PRINT
        &RESTART
          FILENAME =CO-RESTART
        &END RESTART
        &TOTAL_DENSITIES MEDIUM
        &END TOTAL_DENSITIES
      &END PRINT
    &END SCF
    &XC
      &XC_FUNCTIONAL PADE
      &END XC_FUNCTIONAL
    &END XC
  &END DFT
  &SUBSYS
    &CELL
      ABC 6.0 6.0 6.0
      PERIODIC NONE
    &END CELL
    &COORD
      C         0.000000    0.000000   -0.004108
      O        0.000000    0.000000    1.132332
    &END COORD
    &KIND O
      BASIS_SET 6-31G*
      LEBEDEV_GRID 50
      POTENTIAL ALL
      RADIAL_GRID 100
    &END KIND
    &KIND C
      BASIS_SET 6-31G*
      LEBEDEV_GRID 50
      POTENTIAL ALL
      RADIAL_GRID 100
    &END KIND
  &END SUBSYS
&END FORCE_EVAL
