&GLOBAL
  PRINT_LEVEL LOW
  PROJECT H_hf_gapw_nopaw
  RUN_TYPE ENERGY
&END GLOBAL

&FORCE_EVAL
  METHOD Quickstep
  &DFT
    BASIS_SET_FILE_NAME BASIS_SET
    LSD
    POTENTIAL_FILE_NAME POTENTIAL
    &MGRID
      CUTOFF 200
      REL_CUTOFF 50
    &END MGRID
    &QS
      ALPHA0_HARD 10.0
      METHOD GAPW
    &END QS
    &SCF
      MAX_SCF 100
      SCF_GUESS ATOMIC
    &END SCF
    &XC
      &HF
        &MEMORY
          MAX_MEMORY 1000
        &END MEMORY
        &SCREENING
          EPS_SCHWARZ 1.0E-10
          SCREEN_P_FORCES FALSE
        &END SCREENING
      &END HF
      &XC_FUNCTIONAL NONE
      &END XC_FUNCTIONAL
    &END XC
  &END DFT
  &SUBSYS
    &CELL
      ABC 10.0 10.0 10.0
      PERIODIC NONE
    &END CELL
    &COORD
      H   0.000000    0.000000    0.0000
    &END COORD
    &KIND H
      POTENTIAL ALL
      &BASIS
        1
        1 0 0 1 1
        0.27311686438733073778 1.0
      &END BASIS
    &END KIND
  &END SUBSYS
&END FORCE_EVAL
