&GLOBAL
  PROJECT 7782-44-7
  RUN_TYPE energy
  WALLTIME 10700
&END GLOBAL

&FORCE_EVAL
  METHOD Quickstep
  &DFT
    BASIS_SET_FILE_NAME BASIS_def2_QZVP_RI_ALL
    CHARGE 0
    LSD
    MULTIPLICITY 3
    POTENTIAL_FILE_NAME POTENTIAL
    &MGRID
      CUTOFF 150
    &END MGRID
    &POISSON
      PERIODIC NONE
      POISSON_SOLVER MT
    &END POISSON
    &PRINT
      &MO
        EIGENVALUES
        MO_RANGE 1 50
        OCCUPATION_NUMBERS
      &END MO
    &END PRINT
    &QS
      METHOD GAPW
    &END QS
    &SCF
      EPS_SCF 1.0E-6
      IGNORE_CONVERGENCE_FAILURE
      MAX_SCF 2
      SCF_GUESS ATOMIC
      &DIAGONALIZATION
      &END DIAGONALIZATION
    &END SCF
    &XAS
      ADDED_MOS 10
      ATOMS_LIST 1
      DIPOLE_FORM VELOCITY
      METHOD TP_FH
      SPIN_CHANNEL 2
      STATE_SEARCH 2
      STATE_TYPE 1s
      &LOCALIZE
      &END LOCALIZE
      &PRINT
        &PROGRAM_RUN_INFO
        &END PROGRAM_RUN_INFO
        &RESTART
        &END RESTART
        &XAS_SPECTRUM
        &END XAS_SPECTRUM
        &XES_SPECTRUM
        &END XES_SPECTRUM
      &END PRINT
      &SCF
        EPS_SCF 8.5E-2
        MAX_SCF 30
      &END SCF
    &END XAS
    &XC
      &XC_FUNCTIONAL PBE
      &END XC_FUNCTIONAL
    &END XC
  &END DFT
  &SUBSYS
    &CELL
      ABC [angstrom] 6.0 6.0 6.0
      PERIODIC NONE
    &END CELL
    &COORD
      O  0.00000000  0.00000000  -0.00423076
      O  0.00000000  -0.00000000  1.21423076
    &END COORD
    &KIND H
      BASIS_SET def2-QZVP
      POTENTIAL ALL
    &END KIND
    &KIND O
      BASIS_SET def2-QZVP
      POTENTIAL ALL
    &END KIND
    &KIND N
      BASIS_SET def2-QZVP
      POTENTIAL ALL
    &END KIND
    &KIND C
      BASIS_SET def2-QZVP
      POTENTIAL ALL
    &END KIND
    &KIND F
      BASIS_SET def2-QZVP
      POTENTIAL ALL
    &END KIND
  &END SUBSYS
&END FORCE_EVAL
