@SET RESTART_WFN          TRUE
@SET WFN_FILE_1           HeH-cdft-newton-fd1-1_0.wfn
@SET WFN_FILE_2           HeH-cdft-newton-fd1-1_0.wfn
@SET PROJECT_NAME         HeH-mixed-cdft-md-newton-5-1
@SET NAME                 ${PROJECT_NAME}

@SET WRITE_WFN            0
@SET CHARGE               1
@SET WRITE_CUBE           FALSE
@SET XYZFILE              HeH.xyz

@SET BECKE_ACTIVE         TRUE
@SET BECKE_FRAGMENT       FALSE
@SET MAX_SCF              5
! He+ H
@SET BECKE_TARGET_1       0.0
@SET BECKE_STR_1          0.731791194315
! He H+
@SET BECKE_TARGET_2       2.0
@SET BECKE_STR_2          0.0

@SET BECKE_GLOBAL_CUTOFF  TRUE
@SET BECKE_CUTOFF_ELEMENT FALSE

@SET BECKE_ADJUST_SIZE    TRUE

@SET BECKE_ATOMIC_CHARGES FALSE

@SET BECKE_CAVITY_CONFINE TRUE
@SET BECKE_CAVITY_SHAPE   VDW
@SET BECKE_CAVITY_PRINT   FALSE

@SET BECKE_SHOULD_SKIP    TRUE

@SET BECKE_IN_MEMORY      TRUE

@SET NGROUPS              1

@SET OPTIMIZER            NEWTON
@SET JACOBIAN_TYPE        FD1
@SET JACOBIAN_FREQ_1      1
@SET JACOBIAN_FREQ_2      1
@SET BROYDEN_TYPE         BT1

&GLOBAL
  PROJECT ${PROJECT_NAME}
  RUN_TYPE MD
  PRINT_LEVEL MEDIUM
&END GLOBAL

&MOTION
  &MD
    ENSEMBLE NVT
    STEPS 1
    TIMESTEP 0.5
    TEMPERATURE 300
    &THERMOSTAT 
      TYPE CSVR
    &END THERMOSTAT
  &END MD
&END MOTION

&MULTIPLE_FORCE_EVALS
  FORCE_EVAL_ORDER 2 3
  MULTIPLE_SUBSYS F
&END

&FORCE_EVAL
  METHOD MIXED
  &MIXED
    MIXING_TYPE LINEAR_COMBINATION
    NGROUPS  ${NGROUPS}
    &LINEAR
      LAMBDA 1.0
      MIXED_CDFT TRUE
      MIXED_CDFT_COUPLING 1
    &END LINEAR
    &PRINT
      &PROGRAM_RUN_INFO
      &END
    &END PRINT
  &END MIXED
  @include subsys.inc
&END FORCE_EVAL

&FORCE_EVAL
  METHOD QS  
  @SET BECKE_STR    ${BECKE_STR_1}
  @SET BECKE_TARGET ${BECKE_TARGET_1}
  @SET PROJECT_NAME ${NAME}-state-1
  @SET WFN_FILE     ${WFN_FILE_1}
  @include dft-common-params.inc
&END FORCE_EVAL

&FORCE_EVAL
  METHOD QS  
  @SET BECKE_STR    ${BECKE_STR_1}
  @SET BECKE_TARGET ${BECKE_TARGET_1}
  @SET PROJECT_NAME ${NAME}-state-2
  @SET WFN_FILE     ${WFN_FILE_1}
  @include dft-common-params.inc
&END FORCE_EVAL