
&FORCE_EVAL
  &MM
    &FORCEFIELD
      &NONBONDED
        &LENNARD-JONES
          atoms Ar Ar
          EPSILON 119.8
          SIGMA 3.405
          RCUT 11.66
        &END LENNARD-JONES
      &END NONBONDED
    &END FORCEFIELD
    &POISSON_MM
      &EWALD
        EWALD_TYPE none
      &END EWALD
    &END POISSON_MM
  &END MM
  &SUBSYS
    &CELL
      ABC 98.48311453318852998229 98.55603800256927661227\
        92.85077081194255865597
      UNIT ANGSTROM
    &END CELL
    &COORD
   Ar 0 0 0
   Ar 6.56554 0 0
   Ar 13.131 0 0
   Ar 19.6966 0 0
   Ar 26.2622 0 0
   Ar 32.8277 0 0
   Ar 39.3932 0 0
   Ar 45.9588 0 0
   Ar 52.5243 0 0
   Ar 59.0899 0 0
   Ar 65.6554 0 0
   Ar 72.2209 0 0
   Ar 78.7865 0 0
   Ar 85.3521 0 0
   Ar 91.9175 0 0
   Ar 0 3.79061 0
   Ar 6.56554 3.79061 0
   Ar 13.131 3.79061 0
   Ar 19.6966 3.79061 0
   Ar 26.2622 3.79061 0
   Ar 32.8277 3.79061 0
   Ar 39.3932 3.79061 0
   Ar 45.9588 3.79061 0
   Ar 52.5243 3.79061 0
   Ar 59.0899 3.79061 0
   Ar 65.6554 3.79061 0
   Ar 72.2209 3.79061 0
   Ar 78.7865 3.79061 0
   Ar 85.3521 3.79061 0
   Ar 91.9175 3.79061 0
   Ar 0 7.58124 0
   Ar 6.56554 7.58124 0
   Ar 13.131 7.58124 0
   Ar 19.6966 7.58124 0
   Ar 26.2622 7.58124 0
   Ar 32.8277 7.58124 0
   Ar 39.3932 7.58124 0
   Ar 45.9588 7.58124 0
   Ar 52.5243 7.58124 0
   Ar 59.0899 7.58124 0
   Ar 65.6554 7.58124 0
   Ar 72.2209 7.58124 0
   Ar 78.7865 7.58124 0
   Ar 85.3521 7.58124 0
   Ar 91.9175 7.58124 0
   Ar 0 11.3719 0
   Ar 6.56554 11.3719 0
   Ar 13.131 11.3719 0
   Ar 19.6966 11.3719 0
   Ar 26.2622 11.3719 0
   Ar 32.8277 11.3719 0
   Ar 39.3932 11.3719 0
   Ar 45.9588 11.3719 0
   Ar 52.5243 11.3719 0
   Ar 59.0899 11.3719 0
   Ar 65.6554 11.3719 0
   Ar 72.2209 11.3719 0
   Ar 78.7865 11.3719 0
   Ar 85.3521 11.3719 0
   Ar 91.9175 11.3719 0
   Ar 0 15.1625 0
   Ar 6.56554 15.1625 0
   Ar 13.131 15.1625 0
   Ar 19.6966 15.1625 0
   Ar 26.2622 15.1625 0
   Ar 32.8277 15.1625 0
   Ar 39.3932 15.1625 0
   Ar 45.9588 15.1625 0
   Ar 52.5243 15.1625 0
   Ar 59.0899 15.1625 0
   Ar 65.6554 15.1625 0
   Ar 72.2209 15.1625 0
   Ar 78.7865 15.1625 0
   Ar 85.3521 15.1625 0
   Ar 91.9175 15.1625 0
   Ar 0 18.9531 0
   Ar 6.56554 18.9531 0
   Ar 13.131 18.9531 0
   Ar 19.6966 18.9531 0
   Ar 26.2622 18.9531 0
   Ar 32.8277 18.9531 0
   Ar 39.3932 18.9531 0
   Ar 45.9588 18.9531 0
   Ar 52.5243 18.9531 0
   Ar 59.0899 18.9531 0
   Ar 65.6554 18.9531 0
   Ar 72.2209 18.9531 0
   Ar 78.7865 18.9531 0
   Ar 85.3521 18.9531 0
   Ar 91.9175 18.9531 0
   Ar 0 22.7437 0
   Ar 6.56554 22.7437 0
   Ar 13.131 22.7437 0
   Ar 19.6966 22.7437 0
   Ar 26.2622 22.7437 0
   Ar 32.8277 22.7437 0
   Ar 39.3932 22.7437 0
   Ar 45.9588 22.7437 0
   Ar 52.5243 22.7437 0
   Ar 59.0899 22.7437 0
   Ar 65.6554 22.7437 0
   Ar 72.2209 22.7437 0
   Ar 78.7865 22.7437 0
   Ar 85.3521 22.7437 0
   Ar 91.9175 22.7437 0
   Ar 0 26.5343 0
   Ar 6.56554 26.5343 0
   Ar 13.131 26.5343 0
   Ar 19.6966 26.5343 0
   Ar 26.2622 26.5343 0
   Ar 32.8277 26.5343 0
   Ar 39.3932 26.5343 0
   Ar 45.9588 26.5343 0
   Ar 52.5243 26.5343 0
   Ar 59.0899 26.5343 0
   Ar 65.6554 26.5343 0
   Ar 72.2209 26.5343 0
   Ar 78.7865 26.5343 0
   Ar 85.3521 26.5343 0
   Ar 91.9175 26.5343 0
   Ar 0 30.3249 0
   Ar 6.56554 30.3249 0
   Ar 13.131 30.3249 0
   Ar 19.6966 30.3249 0
   Ar 26.2622 30.3249 0
   Ar 32.8277 30.3249 0
   Ar 39.3932 30.3249 0
   Ar 45.9588 30.3249 0
   Ar 52.5243 30.3249 0
   Ar 59.0899 30.3249 0
   Ar 65.6554 30.3249 0
   Ar 72.2209 30.3249 0
   Ar 78.7865 30.3249 0
   Ar 85.3521 30.3249 0
   Ar 91.9175 30.3249 0
   Ar 0 34.1156 0
   Ar 6.56554 34.1156 0
   Ar 13.131 34.1156 0
   Ar 19.6966 34.1156 0
   Ar 26.2622 34.1156 0
   Ar 32.8277 34.1156 0
   Ar 39.3932 34.1156 0
   Ar 45.9588 34.1156 0
   Ar 52.5243 34.1156 0
   Ar 59.0899 34.1156 0
   Ar 65.6554 34.1156 0
   Ar 72.2209 34.1156 0
   Ar 78.7865 34.1156 0
   Ar 85.3521 34.1156 0
   Ar 91.9175 34.1156 0
   Ar 0 37.9061 0
   Ar 6.56554 37.9061 0
   Ar 13.131 37.9061 0
   Ar 19.6966 37.9061 0
   Ar 26.2622 37.9061 0
   Ar 32.8277 37.9061 0
   Ar 39.3932 37.9061 0
   Ar 45.9588 37.9061 0
   Ar 52.5243 37.9061 0
   Ar 59.0899 37.9061 0
   Ar 65.6554 37.9061 0
   Ar 72.2209 37.9061 0
   Ar 78.7865 37.9061 0
   Ar 85.3521 37.9061 0
   Ar 91.9175 37.9061 0
   Ar 0 41.6968 0
   Ar 6.56554 41.6968 0
   Ar 13.131 41.6968 0
   Ar 19.6966 41.6968 0
   Ar 26.2622 41.6968 0
   Ar 32.8277 41.6968 0
   Ar 39.3932 41.6968 0
   Ar 45.9588 41.6968 0
   Ar 52.5243 41.6968 0
   Ar 59.0899 41.6968 0
   Ar 65.6554 41.6968 0
   Ar 72.2209 41.6968 0
   Ar 78.7865 41.6968 0
   Ar 85.3521 41.6968 0
   Ar 91.9175 41.6968 0
   Ar 0 45.4874 0
   Ar 6.56554 45.4874 0
   Ar 13.131 45.4874 0
   Ar 19.6966 45.4874 0
   Ar 26.2622 45.4874 0
   Ar 32.8277 45.4874 0
   Ar 39.3932 45.4874 0
   Ar 45.9588 45.4874 0
   Ar 52.5243 45.4874 0
   Ar 59.0899 45.4874 0
   Ar 65.6554 45.4874 0
   Ar 72.2209 45.4874 0
   Ar 78.7865 45.4874 0
   Ar 85.3521 45.4874 0
   Ar 91.9175 45.4874 0
   Ar 0 49.278 0
   Ar 6.56554 49.278 0
   Ar 13.131 49.278 0
   Ar 19.6966 49.278 0
   Ar 26.2622 49.278 0
   Ar 32.8277 49.278 0
   Ar 39.3932 49.278 0
   Ar 45.9588 49.278 0
   Ar 52.5243 49.278 0
   Ar 59.0899 49.278 0
   Ar 65.6554 49.278 0
   Ar 72.2209 49.278 0
   Ar 78.7865 49.278 0
   Ar 85.3521 49.278 0
   Ar 91.9175 49.278 0
   Ar 0 53.0687 0
   Ar 6.56554 53.0687 0
   Ar 13.131 53.0687 0
   Ar 19.6966 53.0687 0
   Ar 26.2622 53.0687 0
   Ar 32.8277 53.0687 0
   Ar 39.3932 53.0687 0
   Ar 45.9588 53.0687 0
   Ar 52.5243 53.0687 0
   Ar 59.0899 53.0687 0
   Ar 65.6554 53.0687 0
   Ar 72.2209 53.0687 0
   Ar 78.7865 53.0687 0
   Ar 85.3521 53.0687 0
   Ar 91.9175 53.0687 0
   Ar 0 56.8592 0
   Ar 6.56554 56.8592 0
   Ar 13.131 56.8592 0
   Ar 19.6966 56.8592 0
   Ar 26.2622 56.8592 0
   Ar 32.8277 56.8592 0
   Ar 39.3932 56.8592 0
   Ar 45.9588 56.8592 0
   Ar 52.5243 56.8592 0
   Ar 59.0899 56.8592 0
   Ar 65.6554 56.8592 0
   Ar 72.2209 56.8592 0
   Ar 78.7865 56.8592 0
   Ar 85.3521 56.8592 0
   Ar 91.9175 56.8592 0
   Ar 0 60.6499 0
   Ar 6.56554 60.6499 0
   Ar 13.131 60.6499 0
   Ar 19.6966 60.6499 0
   Ar 26.2622 60.6499 0
   Ar 32.8277 60.6499 0
   Ar 39.3932 60.6499 0
   Ar 45.9588 60.6499 0
   Ar 52.5243 60.6499 0
   Ar 59.0899 60.6499 0
   Ar 65.6554 60.6499 0
   Ar 72.2209 60.6499 0
   Ar 78.7865 60.6499 0
   Ar 85.3521 60.6499 0
   Ar 91.9175 60.6499 0
   Ar 0 64.4405 0
   Ar 6.56554 64.4405 0
   Ar 13.131 64.4405 0
   Ar 19.6966 64.4405 0
   Ar 26.2622 64.4405 0
   Ar 32.8277 64.4405 0
   Ar 39.3932 64.4405 0
   Ar 45.9588 64.4405 0
   Ar 52.5243 64.4405 0
   Ar 59.0899 64.4405 0
   Ar 65.6554 64.4405 0
   Ar 72.2209 64.4405 0
   Ar 78.7865 64.4405 0
   Ar 85.3521 64.4405 0
   Ar 91.9175 64.4405 0
   Ar 0 68.2311 0
   Ar 6.56554 68.2311 0
   Ar 13.131 68.2311 0
   Ar 19.6966 68.2311 0
   Ar 26.2622 68.2311 0
   Ar 32.8277 68.2311 0
   Ar 39.3932 68.2311 0
   Ar 45.9588 68.2311 0
   Ar 52.5243 68.2311 0
   Ar 59.0899 68.2311 0
   Ar 65.6554 68.2311 0
   Ar 72.2209 68.2311 0
   Ar 78.7865 68.2311 0
   Ar 85.3521 68.2311 0
   Ar 91.9175 68.2311 0
   Ar 0 72.0217 0
   Ar 6.56554 72.0217 0
   Ar 13.131 72.0217 0
   Ar 19.6966 72.0217 0
   Ar 26.2622 72.0217 0
   Ar 32.8277 72.0217 0
   Ar 39.3932 72.0217 0
   Ar 45.9588 72.0217 0
   Ar 52.5243 72.0217 0
   Ar 59.0899 72.0217 0
   Ar 65.6554 72.0217 0
   Ar 72.2209 72.0217 0
   Ar 78.7865 72.0217 0
   Ar 85.3521 72.0217 0
   Ar 91.9175 72.0217 0
   Ar 0 75.8124 0
   Ar 6.56554 75.8124 0
   Ar 13.131 75.8124 0
   Ar 19.6966 75.8124 0
   Ar 26.2622 75.8124 0
   Ar 32.8277 75.8124 0
   Ar 39.3932 75.8124 0
   Ar 45.9588 75.8124 0
   Ar 52.5243 75.8124 0
   Ar 59.0899 75.8124 0
   Ar 65.6554 75.8124 0
   Ar 72.2209 75.8124 0
   Ar 78.7865 75.8124 0
   Ar 85.3521 75.8124 0
   Ar 91.9175 75.8124 0
   Ar 0 79.6029 0
   Ar 6.56554 79.6029 0
   Ar 13.131 79.6029 0
   Ar 19.6966 79.6029 0
   Ar 26.2622 79.6029 0
   Ar 32.8277 79.6029 0
   Ar 39.3932 79.6029 0
   Ar 45.9588 79.6029 0
   Ar 52.5243 79.6029 0
   Ar 59.0899 79.6029 0
   Ar 65.6554 79.6029 0
   Ar 72.2209 79.6029 0
   Ar 78.7865 79.6029 0
   Ar 85.3521 79.6029 0
   Ar 91.9175 79.6029 0
   Ar 0 83.3936 0
   Ar 6.56554 83.3936 0
   Ar 13.131 83.3936 0
   Ar 19.6966 83.3936 0
   Ar 26.2622 83.3936 0
   Ar 32.8277 83.3936 0
   Ar 39.3932 83.3936 0
   Ar 45.9588 83.3936 0
   Ar 52.5243 83.3936 0
   Ar 59.0899 83.3936 0
   Ar 65.6554 83.3936 0
   Ar 72.2209 83.3936 0
   Ar 78.7865 83.3936 0
   Ar 85.3521 83.3936 0
   Ar 91.9175 83.3936 0
   Ar 0 87.1841 0
   Ar 6.56554 87.1841 0
   Ar 13.131 87.1841 0
   Ar 19.6966 87.1841 0
   Ar 26.2622 87.1841 0
   Ar 32.8277 87.1841 0
   Ar 39.3932 87.1841 0
   Ar 45.9588 87.1841 0
   Ar 52.5243 87.1841 0
   Ar 59.0899 87.1841 0
   Ar 65.6554 87.1841 0
   Ar 72.2209 87.1841 0
   Ar 78.7865 87.1841 0
   Ar 85.3521 87.1841 0
   Ar 91.9175 87.1841 0
   Ar 0 90.9748 0
   Ar 6.56554 90.9748 0
   Ar 13.131 90.9748 0
   Ar 19.6966 90.9748 0
   Ar 26.2622 90.9748 0
   Ar 32.8277 90.9748 0
   Ar 39.3932 90.9748 0
   Ar 45.9588 90.9748 0
   Ar 52.5243 90.9748 0
   Ar 59.0899 90.9748 0
   Ar 65.6554 90.9748 0
   Ar 72.2209 90.9748 0
   Ar 78.7865 90.9748 0
   Ar 85.3521 90.9748 0
   Ar 91.9175 90.9748 0
   Ar 0 94.7654 0
   Ar 6.56554 94.7654 0
   Ar 13.131 94.7654 0
   Ar 19.6966 94.7654 0
   Ar 26.2622 94.7654 0
   Ar 32.8277 94.7654 0
   Ar 39.3932 94.7654 0
   Ar 45.9588 94.7654 0
   Ar 52.5243 94.7654 0
   Ar 59.0899 94.7654 0
   Ar 65.6554 94.7654 0
   Ar 72.2209 94.7654 0
   Ar 78.7865 94.7654 0
   Ar 85.3521 94.7654 0
   Ar 91.9175 94.7654 0
   Ar 0 0 9.28508
   Ar 6.56554 0 9.28508
   Ar 13.131 0 9.28508
   Ar 19.6966 0 9.28508
   Ar 26.2622 0 9.28508
   Ar 32.8277 0 9.28508
   Ar 39.3932 0 9.28508
   Ar 45.9588 0 9.28508
   Ar 52.5243 0 9.28508
   Ar 59.0899 0 9.28508
   Ar 65.6554 0 9.28508
   Ar 72.2209 0 9.28508
   Ar 78.7865 0 9.28508
   Ar 85.3521 0 9.28508
   Ar 91.9175 0 9.28508
   Ar 0 3.79061 9.28508
   Ar 6.56554 3.79061 9.28508
   Ar 13.131 3.79061 9.28508
   Ar 19.6966 3.79061 9.28508
   Ar 26.2622 3.79061 9.28508
   Ar 32.8277 3.79061 9.28508
   Ar 39.3932 3.79061 9.28508
   Ar 45.9588 3.79061 9.28508
   Ar 52.5243 3.79061 9.28508
   Ar 59.0899 3.79061 9.28508
   Ar 65.6554 3.79061 9.28508
   Ar 72.2209 3.79061 9.28508
   Ar 78.7865 3.79061 9.28508
   Ar 85.3521 3.79061 9.28508
   Ar 91.9175 3.79061 9.28508
   Ar 0 7.58124 9.28508
   Ar 6.56554 7.58124 9.28508
   Ar 13.131 7.58124 9.28508
   Ar 19.6966 7.58124 9.28508
   Ar 26.2622 7.58124 9.28508
   Ar 32.8277 7.58124 9.28508
   Ar 39.3932 7.58124 9.28508
   Ar 45.9588 7.58124 9.28508
   Ar 52.5243 7.58124 9.28508
   Ar 59.0899 7.58124 9.28508
   Ar 65.6554 7.58124 9.28508
   Ar 72.2209 7.58124 9.28508
   Ar 78.7865 7.58124 9.28508
   Ar 85.3521 7.58124 9.28508
   Ar 91.9175 7.58124 9.28508
   Ar 0 11.3719 9.28508
   Ar 6.56554 11.3719 9.28508
   Ar 13.131 11.3719 9.28508
   Ar 19.6966 11.3719 9.28508
   Ar 26.2622 11.3719 9.28508
   Ar 32.8277 11.3719 9.28508
   Ar 39.3932 11.3719 9.28508
   Ar 45.9588 11.3719 9.28508
   Ar 52.5243 11.3719 9.28508
   Ar 59.0899 11.3719 9.28508
   Ar 65.6554 11.3719 9.28508
   Ar 72.2209 11.3719 9.28508
   Ar 78.7865 11.3719 9.28508
   Ar 85.3521 11.3719 9.28508
   Ar 91.9175 11.3719 9.28508
   Ar 0 15.1625 9.28508
   Ar 6.56554 15.1625 9.28508
   Ar 13.131 15.1625 9.28508
   Ar 19.6966 15.1625 9.28508
   Ar 26.2622 15.1625 9.28508
   Ar 32.8277 15.1625 9.28508
   Ar 39.3932 15.1625 9.28508
   Ar 45.9588 15.1625 9.28508
   Ar 52.5243 15.1625 9.28508
   Ar 59.0899 15.1625 9.28508
   Ar 65.6554 15.1625 9.28508
   Ar 72.2209 15.1625 9.28508
   Ar 78.7865 15.1625 9.28508
   Ar 85.3521 15.1625 9.28508
   Ar 91.9175 15.1625 9.28508
   Ar 0 18.9531 9.28508
   Ar 6.56554 18.9531 9.28508
   Ar 13.131 18.9531 9.28508
   Ar 19.6966 18.9531 9.28508
   Ar 26.2622 18.9531 9.28508
   Ar 32.8277 18.9531 9.28508
   Ar 39.3932 18.9531 9.28508
   Ar 45.9588 18.9531 9.28508
   Ar 52.5243 18.9531 9.28508
   Ar 59.0899 18.9531 9.28508
   Ar 65.6554 18.9531 9.28508
   Ar 72.2209 18.9531 9.28508
   Ar 78.7865 18.9531 9.28508
   Ar 85.3521 18.9531 9.28508
   Ar 91.9175 18.9531 9.28508
   Ar 0 22.7437 9.28508
   Ar 6.56554 22.7437 9.28508
   Ar 13.131 22.7437 9.28508
   Ar 19.6966 22.7437 9.28508
   Ar 26.2622 22.7437 9.28508
   Ar 32.8277 22.7437 9.28508
   Ar 39.3932 22.7437 9.28508
   Ar 45.9588 22.7437 9.28508
   Ar 52.5243 22.7437 9.28508
   Ar 59.0899 22.7437 9.28508
   Ar 65.6554 22.7437 9.28508
   Ar 72.2209 22.7437 9.28508
   Ar 78.7865 22.7437 9.28508
   Ar 85.3521 22.7437 9.28508
   Ar 91.9175 22.7437 9.28508
   Ar 0 26.5343 9.28508
   Ar 6.56554 26.5343 9.28508
   Ar 13.131 26.5343 9.28508
   Ar 19.6966 26.5343 9.28508
   Ar 26.2622 26.5343 9.28508
   Ar 32.8277 26.5343 9.28508
   Ar 39.3932 26.5343 9.28508
   Ar 45.9588 26.5343 9.28508
   Ar 52.5243 26.5343 9.28508
   Ar 59.0899 26.5343 9.28508
   Ar 65.6554 26.5343 9.28508
   Ar 72.2209 26.5343 9.28508
   Ar 78.7865 26.5343 9.28508
   Ar 85.3521 26.5343 9.28508
   Ar 91.9175 26.5343 9.28508
   Ar 0 30.3249 9.28508
   Ar 6.56554 30.3249 9.28508
   Ar 13.131 30.3249 9.28508
   Ar 19.6966 30.3249 9.28508
   Ar 26.2622 30.3249 9.28508
   Ar 32.8277 30.3249 9.28508
   Ar 39.3932 30.3249 9.28508
   Ar 45.9588 30.3249 9.28508
   Ar 52.5243 30.3249 9.28508
   Ar 59.0899 30.3249 9.28508
   Ar 65.6554 30.3249 9.28508
   Ar 72.2209 30.3249 9.28508
   Ar 78.7865 30.3249 9.28508
   Ar 85.3521 30.3249 9.28508
   Ar 91.9175 30.3249 9.28508
   Ar 0 34.1156 9.28508
   Ar 6.56554 34.1156 9.28508
   Ar 13.131 34.1156 9.28508
   Ar 19.6966 34.1156 9.28508
   Ar 26.2622 34.1156 9.28508
   Ar 32.8277 34.1156 9.28508
   Ar 39.3932 34.1156 9.28508
   Ar 45.9588 34.1156 9.28508
   Ar 52.5243 34.1156 9.28508
   Ar 59.0899 34.1156 9.28508
   Ar 65.6554 34.1156 9.28508
   Ar 72.2209 34.1156 9.28508
   Ar 78.7865 34.1156 9.28508
   Ar 85.3521 34.1156 9.28508
   Ar 91.9175 34.1156 9.28508
   Ar 0 37.9061 9.28508
   Ar 6.56554 37.9061 9.28508
   Ar 13.131 37.9061 9.28508
   Ar 19.6966 37.9061 9.28508
   Ar 26.2622 37.9061 9.28508
   Ar 32.8277 37.9061 9.28508
   Ar 39.3932 37.9061 9.28508
   Ar 45.9588 37.9061 9.28508
   Ar 52.5243 37.9061 9.28508
   Ar 59.0899 37.9061 9.28508
   Ar 65.6554 37.9061 9.28508
   Ar 72.2209 37.9061 9.28508
   Ar 78.7865 37.9061 9.28508
   Ar 85.3521 37.9061 9.28508
   Ar 91.9175 37.9061 9.28508
   Ar 0 41.6968 9.28508
   Ar 6.56554 41.6968 9.28508
   Ar 13.131 41.6968 9.28508
   Ar 19.6966 41.6968 9.28508
   Ar 26.2622 41.6968 9.28508
   Ar 32.8277 41.6968 9.28508
   Ar 39.3932 41.6968 9.28508
   Ar 45.9588 41.6968 9.28508
   Ar 52.5243 41.6968 9.28508
   Ar 59.0899 41.6968 9.28508
   Ar 65.6554 41.6968 9.28508
   Ar 72.2209 41.6968 9.28508
   Ar 78.7865 41.6968 9.28508
   Ar 85.3521 41.6968 9.28508
   Ar 91.9175 41.6968 9.28508
   Ar 0 45.4874 9.28508
   Ar 6.56554 45.4874 9.28508
   Ar 13.131 45.4874 9.28508
   Ar 19.6966 45.4874 9.28508
   Ar 26.2622 45.4874 9.28508
   Ar 32.8277 45.4874 9.28508
   Ar 39.3932 45.4874 9.28508
   Ar 45.9588 45.4874 9.28508
   Ar 52.5243 45.4874 9.28508
   Ar 59.0899 45.4874 9.28508
   Ar 65.6554 45.4874 9.28508
   Ar 72.2209 45.4874 9.28508
   Ar 78.7865 45.4874 9.28508
   Ar 85.3521 45.4874 9.28508
   Ar 91.9175 45.4874 9.28508
   Ar 0 49.278 9.28508
   Ar 6.56554 49.278 9.28508
   Ar 13.131 49.278 9.28508
   Ar 19.6966 49.278 9.28508
   Ar 26.2622 49.278 9.28508
   Ar 32.8277 49.278 9.28508
   Ar 39.3932 49.278 9.28508
   Ar 45.9588 49.278 9.28508
   Ar 52.5243 49.278 9.28508
   Ar 59.0899 49.278 9.28508
   Ar 65.6554 49.278 9.28508
   Ar 72.2209 49.278 9.28508
   Ar 78.7865 49.278 9.28508
   Ar 85.3521 49.278 9.28508
   Ar 91.9175 49.278 9.28508
   Ar 0 53.0687 9.28508
   Ar 6.56554 53.0687 9.28508
   Ar 13.131 53.0687 9.28508
   Ar 19.6966 53.0687 9.28508
   Ar 26.2622 53.0687 9.28508
   Ar 32.8277 53.0687 9.28508
   Ar 39.3932 53.0687 9.28508
   Ar 45.9588 53.0687 9.28508
   Ar 52.5243 53.0687 9.28508
   Ar 59.0899 53.0687 9.28508
   Ar 65.6554 53.0687 9.28508
   Ar 72.2209 53.0687 9.28508
   Ar 78.7865 53.0687 9.28508
   Ar 85.3521 53.0687 9.28508
   Ar 91.9175 53.0687 9.28508
   Ar 0 56.8592 9.28508
   Ar 6.56554 56.8592 9.28508
   Ar 13.131 56.8592 9.28508
   Ar 19.6966 56.8592 9.28508
   Ar 26.2622 56.8592 9.28508
   Ar 32.8277 56.8592 9.28508
   Ar 39.3932 56.8592 9.28508
   Ar 45.9588 56.8592 9.28508
   Ar 52.5243 56.8592 9.28508
   Ar 59.0899 56.8592 9.28508
   Ar 65.6554 56.8592 9.28508
   Ar 72.2209 56.8592 9.28508
   Ar 78.7865 56.8592 9.28508
   Ar 85.3521 56.8592 9.28508
   Ar 91.9175 56.8592 9.28508
   Ar 0 60.6499 9.28508
   Ar 6.56554 60.6499 9.28508
   Ar 13.131 60.6499 9.28508
   Ar 19.6966 60.6499 9.28508
   Ar 26.2622 60.6499 9.28508
   Ar 32.8277 60.6499 9.28508
   Ar 39.3932 60.6499 9.28508
   Ar 45.9588 60.6499 9.28508
   Ar 52.5243 60.6499 9.28508
   Ar 59.0899 60.6499 9.28508
   Ar 65.6554 60.6499 9.28508
   Ar 72.2209 60.6499 9.28508
   Ar 78.7865 60.6499 9.28508
   Ar 85.3521 60.6499 9.28508
   Ar 91.9175 60.6499 9.28508
   Ar 0 64.4405 9.28508
   Ar 6.56554 64.4405 9.28508
   Ar 13.131 64.4405 9.28508
   Ar 19.6966 64.4405 9.28508
   Ar 26.2622 64.4405 9.28508
   Ar 32.8277 64.4405 9.28508
   Ar 39.3932 64.4405 9.28508
   Ar 45.9588 64.4405 9.28508
   Ar 52.5243 64.4405 9.28508
   Ar 59.0899 64.4405 9.28508
   Ar 65.6554 64.4405 9.28508
   Ar 72.2209 64.4405 9.28508
   Ar 78.7865 64.4405 9.28508
   Ar 85.3521 64.4405 9.28508
   Ar 91.9175 64.4405 9.28508
   Ar 0 68.2311 9.28508
   Ar 6.56554 68.2311 9.28508
   Ar 13.131 68.2311 9.28508
   Ar 19.6966 68.2311 9.28508
   Ar 26.2622 68.2311 9.28508
   Ar 32.8277 68.2311 9.28508
   Ar 39.3932 68.2311 9.28508
   Ar 45.9588 68.2311 9.28508
   Ar 52.5243 68.2311 9.28508
   Ar 59.0899 68.2311 9.28508
   Ar 65.6554 68.2311 9.28508
   Ar 72.2209 68.2311 9.28508
   Ar 78.7865 68.2311 9.28508
   Ar 85.3521 68.2311 9.28508
   Ar 91.9175 68.2311 9.28508
   Ar 0 72.0217 9.28508
   Ar 6.56554 72.0217 9.28508
   Ar 13.131 72.0217 9.28508
   Ar 19.6966 72.0217 9.28508
   Ar 26.2622 72.0217 9.28508
   Ar 32.8277 72.0217 9.28508
   Ar 39.3932 72.0217 9.28508
   Ar 45.9588 72.0217 9.28508
   Ar 52.5243 72.0217 9.28508
   Ar 59.0899 72.0217 9.28508
   Ar 65.6554 72.0217 9.28508
   Ar 72.2209 72.0217 9.28508
   Ar 78.7865 72.0217 9.28508
   Ar 85.3521 72.0217 9.28508
   Ar 91.9175 72.0217 9.28508
   Ar 0 75.8124 9.28508
   Ar 6.56554 75.8124 9.28508
   Ar 13.131 75.8124 9.28508
   Ar 19.6966 75.8124 9.28508
   Ar 26.2622 75.8124 9.28508
   Ar 32.8277 75.8124 9.28508
   Ar 39.3932 75.8124 9.28508
   Ar 45.9588 75.8124 9.28508
   Ar 52.5243 75.8124 9.28508
   Ar 59.0899 75.8124 9.28508
   Ar 65.6554 75.8124 9.28508
   Ar 72.2209 75.8124 9.28508
   Ar 78.7865 75.8124 9.28508
   Ar 85.3521 75.8124 9.28508
   Ar 91.9175 75.8124 9.28508
   Ar 0 79.6029 9.28508
   Ar 6.56554 79.6029 9.28508
   Ar 13.131 79.6029 9.28508
   Ar 19.6966 79.6029 9.28508
   Ar 26.2622 79.6029 9.28508
   Ar 32.8277 79.6029 9.28508
   Ar 39.3932 79.6029 9.28508
   Ar 45.9588 79.6029 9.28508
   Ar 52.5243 79.6029 9.28508
   Ar 59.0899 79.6029 9.28508
   Ar 65.6554 79.6029 9.28508
   Ar 72.2209 79.6029 9.28508
   Ar 78.7865 79.6029 9.28508
   Ar 85.3521 79.6029 9.28508
   Ar 91.9175 79.6029 9.28508
   Ar 0 83.3936 9.28508
   Ar 6.56554 83.3936 9.28508
   Ar 13.131 83.3936 9.28508
   Ar 19.6966 83.3936 9.28508
   Ar 26.2622 83.3936 9.28508
   Ar 32.8277 83.3936 9.28508
   Ar 39.3932 83.3936 9.28508
   Ar 45.9588 83.3936 9.28508
   Ar 52.5243 83.3936 9.28508
   Ar 59.0899 83.3936 9.28508
   Ar 65.6554 83.3936 9.28508
   Ar 72.2209 83.3936 9.28508
   Ar 78.7865 83.3936 9.28508
   Ar 85.3521 83.3936 9.28508
   Ar 91.9175 83.3936 9.28508
   Ar 0 87.1841 9.28508
   Ar 6.56554 87.1841 9.28508
   Ar 13.131 87.1841 9.28508
   Ar 19.6966 87.1841 9.28508
   Ar 26.2622 87.1841 9.28508
   Ar 32.8277 87.1841 9.28508
   Ar 39.3932 87.1841 9.28508
   Ar 45.9588 87.1841 9.28508
   Ar 52.5243 87.1841 9.28508
   Ar 59.0899 87.1841 9.28508
   Ar 65.6554 87.1841 9.28508
   Ar 72.2209 87.1841 9.28508
   Ar 78.7865 87.1841 9.28508
   Ar 85.3521 87.1841 9.28508
   Ar 91.9175 87.1841 9.28508
   Ar 0 90.9748 9.28508
   Ar 6.56554 90.9748 9.28508
   Ar 13.131 90.9748 9.28508
   Ar 19.6966 90.9748 9.28508
   Ar 26.2622 90.9748 9.28508
   Ar 32.8277 90.9748 9.28508
   Ar 39.3932 90.9748 9.28508
   Ar 45.9588 90.9748 9.28508
   Ar 52.5243 90.9748 9.28508
   Ar 59.0899 90.9748 9.28508
   Ar 65.6554 90.9748 9.28508
   Ar 72.2209 90.9748 9.28508
   Ar 78.7865 90.9748 9.28508
   Ar 85.3521 90.9748 9.28508
   Ar 91.9175 90.9748 9.28508
   Ar 0 94.7654 9.28508
   Ar 6.56554 94.7654 9.28508
   Ar 13.131 94.7654 9.28508
   Ar 19.6966 94.7654 9.28508
   Ar 26.2622 94.7654 9.28508
   Ar 32.8277 94.7654 9.28508
   Ar 39.3932 94.7654 9.28508
   Ar 45.9588 94.7654 9.28508
   Ar 52.5243 94.7654 9.28508
   Ar 59.0899 94.7654 9.28508
   Ar 65.6554 94.7654 9.28508
   Ar 72.2209 94.7654 9.28508
   Ar 78.7865 94.7654 9.28508
   Ar 85.3521 94.7654 9.28508
   Ar 91.9175 94.7654 9.28508
   Ar 0 0 18.5702
   Ar 6.56554 0 18.5702
   Ar 13.131 0 18.5702
   Ar 19.6966 0 18.5702
   Ar 26.2622 0 18.5702
   Ar 32.8277 0 18.5702
   Ar 39.3932 0 18.5702
   Ar 45.9588 0 18.5702
   Ar 52.5243 0 18.5702
   Ar 59.0899 0 18.5702
   Ar 65.6554 0 18.5702
   Ar 72.2209 0 18.5702
   Ar 78.7865 0 18.5702
   Ar 85.3521 0 18.5702
   Ar 91.9175 0 18.5702
   Ar 0 3.79061 18.5702
   Ar 6.56554 3.79061 18.5702
   Ar 13.131 3.79061 18.5702
   Ar 19.6966 3.79061 18.5702
   Ar 26.2622 3.79061 18.5702
   Ar 32.8277 3.79061 18.5702
   Ar 39.3932 3.79061 18.5702
   Ar 45.9588 3.79061 18.5702
   Ar 52.5243 3.79061 18.5702
   Ar 59.0899 3.79061 18.5702
   Ar 65.6554 3.79061 18.5702
   Ar 72.2209 3.79061 18.5702
   Ar 78.7865 3.79061 18.5702
   Ar 85.3521 3.79061 18.5702
   Ar 91.9175 3.79061 18.5702
   Ar 0 7.58124 18.5702
   Ar 6.56554 7.58124 18.5702
   Ar 13.131 7.58124 18.5702
   Ar 19.6966 7.58124 18.5702
   Ar 26.2622 7.58124 18.5702
   Ar 32.8277 7.58124 18.5702
   Ar 39.3932 7.58124 18.5702
   Ar 45.9588 7.58124 18.5702
   Ar 52.5243 7.58124 18.5702
   Ar 59.0899 7.58124 18.5702
   Ar 65.6554 7.58124 18.5702
   Ar 72.2209 7.58124 18.5702
   Ar 78.7865 7.58124 18.5702
   Ar 85.3521 7.58124 18.5702
   Ar 91.9175 7.58124 18.5702
   Ar 0 11.3719 18.5702
   Ar 6.56554 11.3719 18.5702
   Ar 13.131 11.3719 18.5702
   Ar 19.6966 11.3719 18.5702
   Ar 26.2622 11.3719 18.5702
   Ar 32.8277 11.3719 18.5702
   Ar 39.3932 11.3719 18.5702
   Ar 45.9588 11.3719 18.5702
   Ar 52.5243 11.3719 18.5702
   Ar 59.0899 11.3719 18.5702
   Ar 65.6554 11.3719 18.5702
   Ar 72.2209 11.3719 18.5702
   Ar 78.7865 11.3719 18.5702
   Ar 85.3521 11.3719 18.5702
   Ar 91.9175 11.3719 18.5702
   Ar 0 15.1625 18.5702
   Ar 6.56554 15.1625 18.5702
   Ar 13.131 15.1625 18.5702
   Ar 19.6966 15.1625 18.5702
   Ar 26.2622 15.1625 18.5702
   Ar 32.8277 15.1625 18.5702
   Ar 39.3932 15.1625 18.5702
   Ar 45.9588 15.1625 18.5702
   Ar 52.5243 15.1625 18.5702
   Ar 59.0899 15.1625 18.5702
   Ar 65.6554 15.1625 18.5702
   Ar 72.2209 15.1625 18.5702
   Ar 78.7865 15.1625 18.5702
   Ar 85.3521 15.1625 18.5702
   Ar 91.9175 15.1625 18.5702
   Ar 0 18.9531 18.5702
   Ar 6.56554 18.9531 18.5702
   Ar 13.131 18.9531 18.5702
   Ar 19.6966 18.9531 18.5702
   Ar 26.2622 18.9531 18.5702
   Ar 32.8277 18.9531 18.5702
   Ar 39.3932 18.9531 18.5702
   Ar 45.9588 18.9531 18.5702
   Ar 52.5243 18.9531 18.5702
   Ar 59.0899 18.9531 18.5702
   Ar 65.6554 18.9531 18.5702
   Ar 72.2209 18.9531 18.5702
   Ar 78.7865 18.9531 18.5702
   Ar 85.3521 18.9531 18.5702
   Ar 91.9175 18.9531 18.5702
   Ar 0 22.7437 18.5702
   Ar 6.56554 22.7437 18.5702
   Ar 13.131 22.7437 18.5702
   Ar 19.6966 22.7437 18.5702
   Ar 26.2622 22.7437 18.5702
   Ar 32.8277 22.7437 18.5702
   Ar 39.3932 22.7437 18.5702
   Ar 45.9588 22.7437 18.5702
   Ar 52.5243 22.7437 18.5702
   Ar 59.0899 22.7437 18.5702
   Ar 65.6554 22.7437 18.5702
   Ar 72.2209 22.7437 18.5702
   Ar 78.7865 22.7437 18.5702
   Ar 85.3521 22.7437 18.5702
   Ar 91.9175 22.7437 18.5702
   Ar 0 26.5343 18.5702
   Ar 6.56554 26.5343 18.5702
   Ar 13.131 26.5343 18.5702
   Ar 19.6966 26.5343 18.5702
   Ar 26.2622 26.5343 18.5702
   Ar 32.8277 26.5343 18.5702
   Ar 39.3932 26.5343 18.5702
   Ar 45.9588 26.5343 18.5702
   Ar 52.5243 26.5343 18.5702
   Ar 59.0899 26.5343 18.5702
   Ar 65.6554 26.5343 18.5702
   Ar 72.2209 26.5343 18.5702
   Ar 78.7865 26.5343 18.5702
   Ar 85.3521 26.5343 18.5702
   Ar 91.9175 26.5343 18.5702
   Ar 0 30.3249 18.5702
   Ar 6.56554 30.3249 18.5702
   Ar 13.131 30.3249 18.5702
   Ar 19.6966 30.3249 18.5702
   Ar 26.2622 30.3249 18.5702
   Ar 32.8277 30.3249 18.5702
   Ar 39.3932 30.3249 18.5702
   Ar 45.9588 30.3249 18.5702
   Ar 52.5243 30.3249 18.5702
   Ar 59.0899 30.3249 18.5702
   Ar 65.6554 30.3249 18.5702
   Ar 72.2209 30.3249 18.5702
   Ar 78.7865 30.3249 18.5702
   Ar 85.3521 30.3249 18.5702
   Ar 91.9175 30.3249 18.5702
   Ar 0 34.1156 18.5702
   Ar 6.56554 34.1156 18.5702
   Ar 13.131 34.1156 18.5702
   Ar 19.6966 34.1156 18.5702
   Ar 26.2622 34.1156 18.5702
   Ar 32.8277 34.1156 18.5702
   Ar 39.3932 34.1156 18.5702
   Ar 45.9588 34.1156 18.5702
   Ar 52.5243 34.1156 18.5702
   Ar 59.0899 34.1156 18.5702
   Ar 65.6554 34.1156 18.5702
   Ar 72.2209 34.1156 18.5702
   Ar 78.7865 34.1156 18.5702
   Ar 85.3521 34.1156 18.5702
   Ar 91.9175 34.1156 18.5702
   Ar 0 37.9061 18.5702
   Ar 6.56554 37.9061 18.5702
   Ar 13.131 37.9061 18.5702
   Ar 19.6966 37.9061 18.5702
   Ar 26.2622 37.9061 18.5702
   Ar 32.8277 37.9061 18.5702
   Ar 39.3932 37.9061 18.5702
   Ar 45.9588 37.9061 18.5702
   Ar 52.5243 37.9061 18.5702
   Ar 59.0899 37.9061 18.5702
   Ar 65.6554 37.9061 18.5702
   Ar 72.2209 37.9061 18.5702
   Ar 78.7865 37.9061 18.5702
   Ar 85.3521 37.9061 18.5702
   Ar 91.9175 37.9061 18.5702
   Ar 0 41.6968 18.5702
   Ar 6.56554 41.6968 18.5702
   Ar 13.131 41.6968 18.5702
   Ar 19.6966 41.6968 18.5702
   Ar 26.2622 41.6968 18.5702
   Ar 32.8277 41.6968 18.5702
   Ar 39.3932 41.6968 18.5702
   Ar 45.9588 41.6968 18.5702
   Ar 52.5243 41.6968 18.5702
   Ar 59.0899 41.6968 18.5702
   Ar 65.6554 41.6968 18.5702
   Ar 72.2209 41.6968 18.5702
   Ar 78.7865 41.6968 18.5702
   Ar 85.3521 41.6968 18.5702
   Ar 91.9175 41.6968 18.5702
   Ar 0 45.4874 18.5702
   Ar 6.56554 45.4874 18.5702
   Ar 13.131 45.4874 18.5702
   Ar 19.6966 45.4874 18.5702
   Ar 26.2622 45.4874 18.5702
   Ar 32.8277 45.4874 18.5702
   Ar 39.3932 45.4874 18.5702
   Ar 45.9588 45.4874 18.5702
   Ar 52.5243 45.4874 18.5702
   Ar 59.0899 45.4874 18.5702
   Ar 65.6554 45.4874 18.5702
   Ar 72.2209 45.4874 18.5702
   Ar 78.7865 45.4874 18.5702
   Ar 85.3521 45.4874 18.5702
   Ar 91.9175 45.4874 18.5702
   Ar 0 49.278 18.5702
   Ar 6.56554 49.278 18.5702
   Ar 13.131 49.278 18.5702
   Ar 19.6966 49.278 18.5702
   Ar 26.2622 49.278 18.5702
   Ar 32.8277 49.278 18.5702
   Ar 39.3932 49.278 18.5702
   Ar 45.9588 49.278 18.5702
   Ar 52.5243 49.278 18.5702
   Ar 59.0899 49.278 18.5702
   Ar 65.6554 49.278 18.5702
   Ar 72.2209 49.278 18.5702
   Ar 78.7865 49.278 18.5702
   Ar 85.3521 49.278 18.5702
   Ar 91.9175 49.278 18.5702
   Ar 0 53.0687 18.5702
   Ar 6.56554 53.0687 18.5702
   Ar 13.131 53.0687 18.5702
   Ar 19.6966 53.0687 18.5702
   Ar 26.2622 53.0687 18.5702
   Ar 32.8277 53.0687 18.5702
   Ar 39.3932 53.0687 18.5702
   Ar 45.9588 53.0687 18.5702
   Ar 52.5243 53.0687 18.5702
   Ar 59.0899 53.0687 18.5702
   Ar 65.6554 53.0687 18.5702
   Ar 72.2209 53.0687 18.5702
   Ar 78.7865 53.0687 18.5702
   Ar 85.3521 53.0687 18.5702
   Ar 91.9175 53.0687 18.5702
   Ar 0 56.8592 18.5702
   Ar 6.56554 56.8592 18.5702
   Ar 13.131 56.8592 18.5702
   Ar 19.6966 56.8592 18.5702
   Ar 26.2622 56.8592 18.5702
   Ar 32.8277 56.8592 18.5702
   Ar 39.3932 56.8592 18.5702
   Ar 45.9588 56.8592 18.5702
   Ar 52.5243 56.8592 18.5702
   Ar 59.0899 56.8592 18.5702
   Ar 65.6554 56.8592 18.5702
   Ar 72.2209 56.8592 18.5702
   Ar 78.7865 56.8592 18.5702
   Ar 85.3521 56.8592 18.5702
   Ar 91.9175 56.8592 18.5702
   Ar 0 60.6499 18.5702
   Ar 6.56554 60.6499 18.5702
   Ar 13.131 60.6499 18.5702
   Ar 19.6966 60.6499 18.5702
   Ar 26.2622 60.6499 18.5702
   Ar 32.8277 60.6499 18.5702
   Ar 39.3932 60.6499 18.5702
   Ar 45.9588 60.6499 18.5702
   Ar 52.5243 60.6499 18.5702
   Ar 59.0899 60.6499 18.5702
   Ar 65.6554 60.6499 18.5702
   Ar 72.2209 60.6499 18.5702
   Ar 78.7865 60.6499 18.5702
   Ar 85.3521 60.6499 18.5702
   Ar 91.9175 60.6499 18.5702
   Ar 0 64.4405 18.5702
   Ar 6.56554 64.4405 18.5702
   Ar 13.131 64.4405 18.5702
   Ar 19.6966 64.4405 18.5702
   Ar 26.2622 64.4405 18.5702
   Ar 32.8277 64.4405 18.5702
   Ar 39.3932 64.4405 18.5702
   Ar 45.9588 64.4405 18.5702
   Ar 52.5243 64.4405 18.5702
   Ar 59.0899 64.4405 18.5702
   Ar 65.6554 64.4405 18.5702
   Ar 72.2209 64.4405 18.5702
   Ar 78.7865 64.4405 18.5702
   Ar 85.3521 64.4405 18.5702
   Ar 91.9175 64.4405 18.5702
   Ar 0 68.2311 18.5702
   Ar 6.56554 68.2311 18.5702
   Ar 13.131 68.2311 18.5702
   Ar 19.6966 68.2311 18.5702
   Ar 26.2622 68.2311 18.5702
   Ar 32.8277 68.2311 18.5702
   Ar 39.3932 68.2311 18.5702
   Ar 45.9588 68.2311 18.5702
   Ar 52.5243 68.2311 18.5702
   Ar 59.0899 68.2311 18.5702
   Ar 65.6554 68.2311 18.5702
   Ar 72.2209 68.2311 18.5702
   Ar 78.7865 68.2311 18.5702
   Ar 85.3521 68.2311 18.5702
   Ar 91.9175 68.2311 18.5702
   Ar 0 72.0217 18.5702
   Ar 6.56554 72.0217 18.5702
   Ar 13.131 72.0217 18.5702
   Ar 19.6966 72.0217 18.5702
   Ar 26.2622 72.0217 18.5702
   Ar 32.8277 72.0217 18.5702
   Ar 39.3932 72.0217 18.5702
   Ar 45.9588 72.0217 18.5702
   Ar 52.5243 72.0217 18.5702
   Ar 59.0899 72.0217 18.5702
   Ar 65.6554 72.0217 18.5702
   Ar 72.2209 72.0217 18.5702
   Ar 78.7865 72.0217 18.5702
   Ar 85.3521 72.0217 18.5702
   Ar 91.9175 72.0217 18.5702
   Ar 0 75.8124 18.5702
   Ar 6.56554 75.8124 18.5702
   Ar 13.131 75.8124 18.5702
   Ar 19.6966 75.8124 18.5702
   Ar 26.2622 75.8124 18.5702
   Ar 32.8277 75.8124 18.5702
   Ar 39.3932 75.8124 18.5702
   Ar 45.9588 75.8124 18.5702
   Ar 52.5243 75.8124 18.5702