
&FORCE_EVAL
  &MM
    &FORCEFIELD
      &NONBONDED
        &LENNARD-JONES
          atoms Ar Ar
          EPSILON 119.8
          SIGMA 3.405
          RCUT 5.83
        &END LENNARD-JONES
      &END NONBONDED
    &END FORCEFIELD
    &POISSON_MM
      &EWALD
        EWALD_TYPE none
      &END EWALD
    &END POISSON_MM
  &END MM
  &SUBSYS
    &CELL
      ABC 19.9579 19.2045 18.8165
      UNIT ANGSTROM
    &END CELL
    &COORD
   Ar 0 0 0
   Ar 6.65262 0 0
   Ar 13.3053 0 0
   Ar 0 3.84089 0
   Ar 6.65262 3.84089 0
   Ar 13.3053 3.84089 0
   Ar 0 7.68179 0
   Ar 6.65262 7.68179 0
   Ar 13.3053 7.68179 0
   Ar 0 11.5227 0
   Ar 6.65262 11.5227 0
   Ar 13.3053 11.5227 0
   Ar 0 15.3636 0
   Ar 6.65262 15.3636 0
   Ar 13.3053 15.3636 0
   Ar 0 0 9.40823
   Ar 6.65262 0 9.40823
   Ar 13.3053 0 9.40823
   Ar 0 3.84089 9.40823
   Ar 6.65262 3.84089 9.40823
   Ar 13.3053 3.84089 9.40823
   Ar 0 7.68179 9.40823
   Ar 6.65262 7.68179 9.40823
   Ar 13.3053 7.68179 9.40823
   Ar 0 11.5227 9.40823
   Ar 6.65262 11.5227 9.40823
   Ar 13.3053 11.5227 9.40823
   Ar 0 15.3636 9.40823
   Ar 6.65262 15.3636 9.40823
   Ar 13.3053 15.3636 9.40823
   Ar 3.32632 1.92045 0
   Ar 9.97893 1.92045 0
   Ar 16.6315 1.92045 0
   Ar 3.32632 5.76134 0
   Ar 9.97893 5.76134 0
   Ar 16.6315 5.76134 0
   Ar 3.32632 9.60223 0
   Ar 9.97893 9.60223 0
   Ar 16.6315 9.60223 0
   Ar 3.32632 13.4431 0
   Ar 9.97893 13.4431 0
   Ar 16.6315 13.4431 0
   Ar 3.32632 17.284 0
   Ar 9.97893 17.284 0
   Ar 16.6315 17.284 0
   Ar 3.32632 1.92045 9.40823
   Ar 9.97893 1.92045 9.40823
   Ar 16.6315 1.92045 9.40823
   Ar 3.32632 5.76134 9.40823
   Ar 9.97893 5.76134 9.40823
   Ar 16.6315 5.76134 9.40823
   Ar 3.32632 9.60223 9.40823
   Ar 9.97893 9.60223 9.40823
   Ar 16.6315 9.60223 9.40823
   Ar 3.32632 13.4431 9.40823
   Ar 9.97893 13.4431 9.40823
   Ar 16.6315 13.4431 9.40823
   Ar 3.32632 17.284 9.40823
   Ar 9.97893 17.284 9.40823
   Ar 16.6315 17.284 9.40823
   Ar 2.21754 0 3.13606
   Ar 8.87013 0 3.13606
   Ar 15.5228 0 3.13606
   Ar 2.21754 3.84089 3.13606
   Ar 8.87013 3.84089 3.13606
   Ar 15.5228 3.84089 3.13606
   Ar 2.21754 7.68179 3.13606
   Ar 8.87013 7.68179 3.13606
   Ar 15.5228 7.68179 3.13606
   Ar 2.21754 11.5227 3.13606
   Ar 8.87013 11.5227 3.13606
   Ar 15.5228 11.5227 3.13606
   Ar 2.21754 15.3636 3.13606
   Ar 8.87013 15.3636 3.13606
   Ar 15.5228 15.3636 3.13606
   Ar 2.21754 0 12.5443
   Ar 8.87013 0 12.5443
   Ar 15.5228 0 12.5443
   Ar 2.21754 3.84089 12.5443
   Ar 8.87013 3.84089 12.5443
   Ar 15.5228 3.84089 12.5443
   Ar 2.21754 7.68179 12.5443
   Ar 8.87013 7.68179 12.5443
   Ar 15.5228 7.68179 12.5443
   Ar 2.21754 11.5227 12.5443
   Ar 8.87013 11.5227 12.5443
   Ar 15.5228 11.5227 12.5443
   Ar 2.21754 15.3636 12.5443
   Ar 8.87013 15.3636 12.5443
   Ar 15.5228 15.3636 12.5443
   Ar 5.54386 1.92045 3.13606
   Ar 12.1965 1.92045 3.13606
   Ar 18.8491 1.92045 3.13606
   Ar 5.54386 5.76134 3.13606
   Ar 12.1965 5.76134 3.13606
   Ar 18.8491 5.76134 3.13606
   Ar 5.54386 9.60223 3.13606
   Ar 12.1965 9.60223 3.13606
   Ar 18.8491 9.60223 3.13606
   Ar 5.54386 13.4431 3.13606
   Ar 12.1965 13.4431 3.13606
   Ar 18.8491 13.4431 3.13606
   Ar 5.54386 17.284 3.13606
   Ar 12.1965 17.284 3.13606
   Ar 18.8491 17.284 3.13606
   Ar 5.54386 1.92045 12.5443
   Ar 12.1965 1.92045 12.5443
   Ar 18.8491 1.92045 12.5443
   Ar 5.54386 5.76134 12.5443
   Ar 12.1965 5.76134 12.5443
   Ar 18.8491 5.76134 12.5443
   Ar 5.54386 9.60223 12.5443
   Ar 12.1965 9.60223 12.5443
   Ar 18.8491 9.60223 12.5443
   Ar 5.54386 13.4431 12.5443
   Ar 12.1965 13.4431 12.5443
   Ar 18.8491 13.4431 12.5443
   Ar 5.54386 17.284 12.5443
   Ar 12.1965 17.284 12.5443
   Ar 18.8491 17.284 12.5443
   Ar 1.10877 1.92045 6.27216
   Ar 7.76141 1.92045 6.27216
   Ar 14.414 1.92045 6.27216
   Ar 1.10877 5.76134 6.27216
   Ar 7.76141 5.76134 6.27216
   Ar 14.414 5.76134 6.27216
   Ar 1.10877 9.60223 6.27216
   Ar 7.76141 9.60223 6.27216
   Ar 14.414 9.60223 6.27216
   Ar 1.10877 13.4431 6.27216
   Ar 7.76141 13.4431 6.27216
   Ar 14.414 13.4431 6.27216
   Ar 1.10877 17.284 6.27216
   Ar 7.76141 17.284 6.27216
   Ar 14.414 17.284 6.27216
   Ar 1.10877 1.92045 15.6804
   Ar 7.76141 1.92045 15.6804
   Ar 14.414 1.92045 15.6804
   Ar 1.10877 5.76134 15.6804
   Ar 7.76141 5.76134 15.6804
   Ar 14.414 5.76134 15.6804
   Ar 1.10877 9.60223 15.6804
   Ar 7.76141 9.60223 15.6804
   Ar 14.414 9.60223 15.6804
   Ar 1.10877 13.4431 15.6804
   Ar 7.76141 13.4431 15.6804
   Ar 14.414 13.4431 15.6804
   Ar 1.10877 17.284 15.6804
   Ar 7.76141 17.284 15.6804
   Ar 14.414 17.284 15.6804
   Ar 4.43508 0 6.27216
   Ar 11.0877 0 6.27216
   Ar 17.7403 0 6.27216
   Ar 4.43508 3.84089 6.27216
   Ar 11.0877 3.84089 6.27216
   Ar 17.7403 3.84089 6.27216
   Ar 4.43508 7.68179 6.27216
   Ar 11.0877 7.68179 6.27216
   Ar 17.7403 7.68179 6.27216
   Ar 4.43508 11.5227 6.27216
   Ar 11.0877 11.5227 6.27216
   Ar 17.7403 11.5227 6.27216
   Ar 4.43508 15.3636 6.27216
   Ar 11.0877 15.3636 6.27216
   Ar 17.7403 15.3636 6.27216
   Ar 4.43508 0 15.6804
   Ar 11.0877 0 15.6804
   Ar 17.7403 0 15.6804
   Ar 4.43508 3.84089 15.6804
   Ar 11.0877 3.84089 15.6804
   Ar 17.7403 3.84089 15.6804
   Ar 4.43508 7.68179 15.6804
   Ar 11.0877 7.68179 15.6804
   Ar 17.7403 7.68179 15.6804
   Ar 4.43508 11.5227 15.6804
   Ar 11.0877 11.5227 15.6804
   Ar 17.7403 11.5227 15.6804
   Ar 4.43508 15.3636 15.6804
   Ar 11.0877 15.3636 15.6804
   Ar 17.7403 15.3636 15.6804
    &END COORD
    &TOPOLOGY
    &END TOPOLOGY
  &END SUBSYS
&END FORCE_EVAL
&GLOBAL
  FFTLIB FFTSG
  PROGRAM FIST
  PROJECT shock
  RUN_TYPE md
&END GLOBAL
&MOTION
  &MD
    ENSEMBLE NPH_UNIAXIAL
    STEPS 10000
    TIMESTEP 1.
    TEMPERATURE 20.0
    &UNIAXIAL
      V_SHOCK 2700.
      PRESSURE -400.
    &END UNIAXIAL
  &END MD
&END MOTION
