
&FORCE_EVAL
  &MM
    &FORCEFIELD
      parmfile sample_pot/deca_ala.pot
      parmtype CHM
    &END FORCEFIELD
    &POISSON
      &EWALD
        EWALD_TYPE ewald
        ALPHA .36
        GMAX 29
      &END EWALD
    &END POISSON
  &END MM
  &SUBSYS
    &CELL
      ABC 50.0 50.0 50.0
      UNIT ANGSTROM
    &END CELL
    &TOPOLOGY
      CHARGE_BETA
      COORD_FILE_NAME sample_pdb/deca_ala.pdb
      COORDINATE PDB
    #  PARA_RES T
    &END TOPOLOGY
    #&CONSTRAINT
    #  &HBONDS
    #  &END HBONDS
    #&END CONSTRAINT
  &END SUBSYS
&END FORCE_EVAL
&GLOBAL
  FFTLIB FFTSG
  PRINT_LEVEL LOW
  PROGRAM FIST
  PROJECT deca_ala
  RUN_TYPE md
&END GLOBAL
&MOTION
  &MD
    ENSEMBLE NVE
    STEPS 10
    TIMESTEP 2.5
    TEMPERATURE 298
  &END MD
&END MOTION
