
&FORCE_EVAL
  METHOD FIST
  &MM
    &FORCEFIELD
      parm_file_name sample_pot/charmm.pot
      parmtype CHM
    &END FORCEFIELD
    &POISSON
      &EWALD
        EWALD_TYPE ewald
        ALPHA .36
        GMAX 29
      &END EWALD
    &END POISSON
  &END MM
  &SUBSYS
    &CELL
      ABC 20.0 20.0 20.0
    &END CELL
    &TOPOLOGY
      CHARGE_BETA
      COORD_FILE_NAME sample_pdb/glyala_wat.pdb
      COORDINATE PDB
    &END TOPOLOGY
  &END SUBSYS
&END FORCE_EVAL
&GLOBAL
  PRINT_LEVEL LOW

  PROJECT glyala_wat
  RUN_TYPE debug
&END GLOBAL
&MOTION
  &MD
    ENSEMBLE NVE
    STEPS 10
    TIMESTEP 2.5
    TEMPERATURE 298
  &END MD
&END MOTION
&DEBUG
&END
