
&FORCE_EVAL
  &MM
    &FORCEFIELD
      parmfile sample_pot/glyala_wat.pot
      parmtype CHM
    &END FORCEFIELD
    &POISSON_MM
      &EWALD
        EWALD_TYPE ewald
        ALPHA .36
        GMAX 29
      &END EWALD
    &END POISSON_MM
  &END MM
  &SUBSYS
    &CELL
      ABC 20.0 20.0 20.0
      UNIT ANGSTROM
    &END CELL
    &TOPOLOGY
      CHARGE_BETA
      COORD_FILE_NAME sample_pdb/glyala_wat.pdb
      COORDINATE PDB
    &END TOPOLOGY
  &END SUBSYS
&END FORCE_EVAL
&GLOBAL
  FFTLIB FFTSG
  PRINT_LEVEL LOW
  PROGRAM FIST
  PROJECT glyala_wat
  RUN_TYPE debug
&END GLOBAL
&MOTION
  &MD
    ENSEMBLE NVE
    STEPS 10
    TIMESTEP 2.5
    TEMPERATURE 298
  &END MD
&END MOTION
