
&FORCE_EVAL
  &MM
    &FORCEFIELD
      parmfile sample_pot/par_all27_prot_lipid.inp
      parmtype CHM
      &spline
       rcut_nb 9.0
      &end
    &END FORCEFIELD
    &POISSON
      &EWALD
        EWALD_TYPE spme
        ALPHA .4
        GMAX 27
        O_SPLINE 4
      &END EWALD
    &END POISSON
  &END MM
  &SUBSYS
    &CELL
      ABC 62.23 62.23 62.23
      UNIT ANGSTROM
    &END CELL
    &TOPOLOGY
      CONN_FILE 5dhfr_cube.psf
      CONNECTIVITY PSF
      COORD_FILE sample_pdb/5dhfr_cube.pdb
      COORDINATE PDB
      PARA_RES
    &END TOPOLOGY
  &END SUBSYS
&END FORCE_EVAL
&GLOBAL
  FFTLIB FFTSG
  PRINT_LEVEL LOW
  PROGRAM FIST
  PROJECT dhfr
  RUN_TYPE md
&END GLOBAL
&MOTION
  &MD
    ENSEMBLE NVE
    STEPS 50
    TIMESTEP 0.5
    TEMPERATURE 298
  &END MD
&END MOTION
