
&FORCE_EVAL
  &MM
    &FORCEFIELD
      &BEND
        ATOMS H O H
        K 0.
        THETA0 1.8
      &END BEND
      &BOND
        ATOMS O H
        K 0.
        R0 1.8
      &END BOND
      &CHARGE
        ATOM O
        CHARGE -0.8476
      &END CHARGE
      &CHARGE
        ATOM H
        CHARGE 0.4238
      &END CHARGE
      &NONBONDED
        &LENNARD-JONES
          atoms O O
          EPSILON 78.198
          SIGMA 3.166
          RCUT 11.4
        &END LENNARD-JONES
        &LENNARD-JONES
          atoms O H
          EPSILON 0.0
          SIGMA 3.6705
          RCUT 8.4
        &END LENNARD-JONES
        &LENNARD-JONES
          atoms H H
          EPSILON 0.0
          SIGMA 3.30523
          RCUT 5.4
        &END LENNARD-JONES
      &END NONBONDED
    &END FORCEFIELD
    &POISSON_MM
      &EWALD
        EWALD_TYPE spme
        ALPHA .44
        GMAX 40
        O_SPLINE 4
      &END EWALD
    &END POISSON_MM
  &END MM
  &SUBSYS
    &CELL
      ABC 60.00 55.00 84.00
      UNIT ANGSTROM
    &END CELL
    &CONSTRAINT
      &G3X3
        DISTANCES 1.8897268 1.8897268 3.0859239
        MOLECULE 1
        ATOMS 1 2 3
      &END G3X3
    &END CONSTRAINT
    &COORD
    O   -25.67889      -4.755030      -32.77144      H2O
    H   -25.27668      -5.450250      -33.36718      H2O
    H   -26.11900      -4.060060      -33.34005      H2O
    O   -28.58316      -8.908940      -33.02944      H2O
    H   -28.53163      -8.079790      -33.58608      H2O
    H   -27.79422      -9.486490      -33.23925      H2O
    O   -27.04480      -4.484100      -30.42892      H2O
    H   -26.53100      -4.521770      -31.28601      H2O
    H   -27.95438      -4.112810      -30.61548      H2O
    O   -28.39668      -26.84149      -29.82541      H2O
    H   -27.63844      -26.71268      -29.18628      H2O
    H   -29.18332      -26.31621      -29.50094      H2O
    O   -25.96529      -19.70952      -27.49064      H2O
    H   -26.90828      -19.45759      -27.70817      H2O
    H   -25.64367      -20.36858      -28.17049      H2O
    O   -27.98367      -9.707620      -35.66178      H2O
    H   -28.22453      -9.008200      -36.33469      H2O
    H   -27.29908      -9.330990      -35.03769      H2O
    O   -27.39739      -4.450180      -35.41625      H2O
    H   -26.92847      -5.052290      -36.06245      H2O
    H   -28.32260      -4.798480      -35.26568      H2O
    O   -23.52058      -15.70830      -30.71266      H2O
    H   -23.97518      -15.87308      -29.83734      H2O
    H   -22.84866      -14.97736      -30.59331      H2O
    O   -29.22577      -15.22551      -36.69399      H2O
    H   -29.39047      -16.03808      -37.25309      H2O
    H   -28.80554      -15.50836      -35.83178      H2O
    O   -28.33848      -1.494650      -39.92760      H2O
    H   -27.95468      -1.830040      -40.78795      H2O
    H   -27.77750     -0.7343500      -39.60013      H2O
    O   -27.30796      -3.883290      -38.67431      H2O
    H   -27.54740      -3.050710      -39.17379      H2O
    H   -27.76774      -3.868910      -37.78639      H2O
    O   -28.23478      -25.77042      -35.27732      H2O
    H   -28.04768      -26.71847      -35.53460      H2O
    H   -28.52531      -25.74832      -34.32071      H2O
    O   -23.63259      -20.77614      -40.58535      H2O
    H   -22.95652      -20.94128      -39.86726      H2O
    H   -24.33133      -21.49003      -40.53930      H2O
    O   -28.44046      -13.19672      -38.34425      H2O
    H   -28.74390      -13.93611      -37.74323      H2O
    H   -27.64914      -12.74863      -37.92829      H2O
    O   -29.29686      -12.73908      -41.07308      H2O
    H   -29.11850      -12.90780      -40.10368      H2O
    H   -30.07818      -12.12011      -41.15318      H2O
    O   -25.39809      -1.979940      -37.95556      H2O
    H   -26.13227      -2.616060      -38.19292      H2O
    H   -24.58741      -2.506110      -37.69877      H2O
    O   -27.86332      -18.13404      -41.10458      H2O
    H   -27.89839      -17.18459      -40.79262      H2O
    H   -27.42029      -18.68786      -40.39960      H2O
    O   -29.13879      -23.18619      -40.12078      H2O
    H   -29.42484      -22.27002      -39.84003      H2O
    H   -29.91309      -23.64535      -40.55625      H2O
    O   -24.78337      -7.560220      -22.44198      H2O
    H   -24.23947      -7.096880      -21.74235      H2O
    H   -25.74800      -7.339700      -22.29756      H2O
    O   -28.87637      -5.750160      -22.84170      H2O
    H   -28.19213      -5.316000      -23.42764      H2O
    H   -28.52041      -5.791540      -21.90811      H2O
    O   -26.59400      -12.35442      -21.97844      H2O
    H   -27.06343      -11.68416      -22.55323      H2O
    H   -27.27775      -12.94332      -21.54752      H2O
    O   -20.77476      -10.65753      -23.87670      H2O
    H   -20.89130      -10.21989      -22.98514      H2O
    H   -20.98348      -9.990520      -24.59192      H2O
    O   -27.56871      -8.400210      -21.72482      H2O
    H   -28.13161      -9.130930      -21.33855      H2O
    H   -28.05859      -7.989430      -22.49376      H2O
    O   -27.04526      -1.169440      -23.21930      H2O
    H   -27.63456      -1.884040      -23.59622      H2O
    H   -26.53989      -1.545940      -22.44287      H2O
    O   -27.53764      -7.016720      -26.35989      H2O
    H   -27.93692      -7.866260      -26.70466      H2O
    H   -26.97750      -6.608980      -27.08100      H2O
    O   -26.21162      -2.827230      -26.60742      H2O
    H   -25.35036      -3.330530      -26.53730      H2O
    H   -26.01386      -1.847210      -26.58616      H2O
    O   -21.76599      -10.36514      -27.86393      H2O
    H   -21.57511      -10.31554      -28.84429      H2O
    H   -21.65982      -11.31296      -27.56333      H2O
    O   -23.54188      -6.447530      -29.62219      H2O
    H   -22.83195      -6.795190      -29.00971      H2O
    H   -23.80563      -7.175830      -30.25467      H2O
    O   -28.28197      -18.69637      -28.37732      H2O
    H   -28.81676      -18.34658      -27.60814      H2O
    H   -28.83082      -18.62328      -29.21004      H2O
    O   -29.12660      -21.40599      -27.86036      H2O
    H   -28.46960      -22.03019      -27.43760      H2O
    H   -28.76274      -20.47575      -27.81265      H2O
    O   -29.27991      -18.35479      -25.91883      H2O
    H   -29.01131      -19.24270      -25.54538      H2O
    H   -29.91854      -17.91917      -25.28448      H2O
    O   -28.06108      -23.18609      -31.04466      H2O
    H   -28.06247      -23.58597      -31.96123      H2O
    H   -27.91099      -22.20062      -31.12413      H2O
    O   -25.94483      -14.77386      -29.60634      H2O
    H   -25.13827      -14.18885      -29.69138      H2O
    H   -26.75200      -14.19420      -29.49467      H2O
    O   -23.97779      -5.501760      -34.88314      H2O
    H   -24.83756      -5.492670      -35.39374      H2O
    H   -23.70311      -4.557960      -34.69932      H2O
    O   -21.04425      -4.774450      -27.82920      H2O
    H   -20.37391      -5.485010      -27.61529      H2O
    H   -20.89240      -4.461020      -28.76659      H2O
    O   -23.25905      -1.452130      -31.69939      H2O
    H   -24.25596      -1.482710      -31.77178      H2O
    H   -23.00968      -1.350370      -30.73634      H2O
    O   -22.99481      -13.44878      -34.67108      H2O
    H   -23.92909      -13.56401      -35.00849      H2O
    H   -22.75029      -14.24829      -34.12245      H2O
    O   -25.44476      -15.55667      -33.02221      H2O
    H   -25.69195      -15.42121      -32.06276      H2O
    H   -24.49219      -15.28086      -33.15074      H2O
    O   -22.52606      -7.711870      -34.61849      H2O
    H   -21.68767      -7.618860      -34.08142      H2O
    H   -23.00035      -6.831570      -34.62904      H2O
    O   -25.13156      -1.592620      -35.07478      H2O
    H   -24.98975      -1.317430      -36.02566      H2O
    H   -24.31142      -2.064320      -34.75094      H2O
    O   -21.10496      -3.946570      -35.11628      H2O
    H   -21.33353      -4.900410      -34.92148      H2O
    H   -20.14164      -3.894180      -35.37948      H2O
    O   -27.70325      -16.27967      -34.55081      H2O
    H   -26.82566      -15.90978      -34.24581      H2O
    H   -28.29746      -16.39519      -33.75484      H2O
    O   -21.94586      -26.33606      -31.87974      H2O
    H   -22.40784      -25.64673      -32.43778      H2O
    H   -22.38701      -27.22062      -32.03120      H2O
    O   -27.60156      -9.167880      -39.96465      H2O
    H   -28.28505      -9.860360      -40.19556      H2O
    H   -26.96640      -9.074940      -40.73143      H2O
    O   -25.60240      -8.590310      -34.38416      H2O
    H   -24.93485      -9.118130      -33.85902      H2O
    H   -25.31288      -8.567210      -35.34106      H2O
    O   -25.66257      -5.848790      -37.06240      H2O
    H   -25.60392      -5.558590      -38.01756      H2O
    H   -25.41092      -6.814850      -37.00393      H2O
    O   -21.34272      -26.95316      -37.32347      H2O
    H   -22.01830      -26.46366      -37.87482      H2O
    H   -20.45148      -26.51605      -37.44444      H2O
    O   -25.60966      -26.71442      -33.67488      H2O
    H   -25.16869      -27.17402      -34.44580      H2O
    H   -26.59954      -26.72782      -33.81617      H2O
    O   -27.39401      -23.19748      -33.65341      H2O
    H   -27.54957      -24.01214      -34.21210      H2O
    H   -26.86840      -22.53623      -34.18865      H2O
    O   -27.98255      -21.66648      -36.12478      H2O
    H   -27.63783      -22.53273      -36.48640      H2O
    H   -27.30081      -20.95427      -36.29209      H2O
    O   -28.21986      -15.54825      -40.05544      H2O
    H   -27.96562      -14.86118      -40.73611      H2O
    H   -27.99241      -15.19951      -39.14624      H2O
    O   -22.75075      -2.641860      -36.95182      H2O
    H   -22.75142      -1.689860      -36.64572      H2O
    H   -22.23610      -3.190890      -36.29326      H2O
    O   -25.57661      -1.457380      -40.56679      H2O
    H   -25.35807      -1.839400      -39.66884      H2O
    H   -24.86457     -0.8022400      -40.81933      H2O
    O   -24.04918      -26.80747      -41.25876      H2O
    H   -23.81409      -25.96115      -41.73676      H2O
    H   -23.72036      -27.58299      -41.79769      H2O
    O   -26.91024      -24.67477      -39.63122      H2O
    H   -27.78516      -24.21727      -39.78998      H2O
    H   -26.63771      -24.52630      -38.68060      H2O
    O   -26.60071      -24.21333      -36.91076      H2O
    H   -25.69910      -24.60442      -37.09557      H2O
    H   -27.07530      -24.79693      -36.25183      H2O
    O   -27.65709      -17.50630      -37.30038      H2O
    H   -27.63413      -17.17193      -36.35822      H2O
    H   -26.82085      -18.02518      -37.47778      H2O
    O   -26.72687      -20.17996      -39.58833      H2O
    H   -26.15738      -19.90882      -38.81234      H2O
    H   -26.53008      -21.13418      -39.81357      H2O
    O   -25.02956      -13.72598      -24.37933      H2O
    H   -25.27748      -13.41254      -23.46266      H2O
    H   -25.79049      -13.53758      -25.00021      H2O
    O   -23.86296      -24.83297      -21.99295      H2O
    H   -23.95078      -25.45979      -22.76715      H2O
    H   -22.90182      -24.79207      -21.71991      H2O
    O   -27.18506      -13.72893      -26.10902      H2O
    H   -27.22496      -14.49281      -26.75314      H2O
    H   -27.74899      -13.94969      -25.31325      H2O
    O   -25.94235      -17.68229      -23.59586      H2O
    H   -25.55405      -17.16404      -22.83386      H2O
    H   -26.81948      -17.27384      -23.84850      H2O
    O   -19.07918      -6.531440      -27.09786      H2O
    H   -18.25884      -6.025790      -26.83072      H2O
    H   -18.80135      -7.382840      -27.54274      H2O
    O   -23.14545      -26.72651      -26.28559      H2O
    H   -23.04561      -26.23480      -27.15061      H2O
    H   -22.90407      -26.11032      -25.53588      H2O
    O   -27.99922      -16.14205      -27.02977      H2O
    H   -28.24656      -16.79117      -26.31041      H2O
    H   -27.96748      -16.62732      -27.90356      H2O
    O   -23.91635      -16.49844      -27.99942      H2O
    H   -23.65052      -16.09160      -27.12545      H2O
    H   -24.91317      -16.47410      -28.07534      H2O
    O   -23.26727      -9.883560      -22.63775      H2O
    H   -23.04504      -10.27930      -23.52882      H2O
    H   -23.94751      -9.162080      -22.76710      H2O
    O   -23.56395      -3.728950      -26.27619      H2O
    H   -23.73708      -4.517720      -25.68638      H2O
    H   -22.72486      -3.893370      -26.79474      H2O
    O   -25.38491      -8.012880      -24.95613      H2O
    H   -25.73963      -8.252630      -24.05242      H2O
    H   -26.06640      -7.456670      -25.43175      H2O
    O   -25.40151      -20.39498      -30.17466      H2O
    H   -25.06812      -19.63377      -30.73090      H2O
    H   -26.14398      -20.85078      -30.66557      H2O
    O   -27.33142      -22.91198      -23.62054      H2O
    H   -27.31645      -22.04778      -23.11762      H2O
    H   -26.42803      -23.06685      -24.02042      H2O
    O   -22.65813      -18.90814      -28.35240      H2O
    H   -23.07660      -18.04864      -28.05892      H2O
    H   -23.32840      -19.42743      -28.88257      H2O
    O   -28.51594      -12.90760      -29.01874      H2O
    H   -29.47540      -13.17780      -28.93859      H2O
    H   -28.37450      -12.06574      -28.49790      H2O
    O   -24.24705      -3.284300      -29.52425      H2O
    H   -25.21404      -3.075460      -29.37826      H2O
    H   -24.16432      -4.237860      -29.81388      H2O
    O   -28.63567      -1.450410      -32.81532      H2O
    H   -28.10703      -1.489110      -33.66329      H2O
    H   -29.56546      -1.768000      -33.00141      H2O
    O   -27.08202      -23.41483      -28.32581      H2O
    H   -27.54106      -23.57506      -29.19966      H2O
    H   -27.01846      -24.28225      -27.83231      H2O
    O   -20.96512      -19.31740      -31.41988      H2O
    H   -21.28740      -20.26403      -31.41527      H2O
    H   -20.01823      -19.29865      -31.09888      H2O
    O   -27.79947      -12.22329      -31.71379      H2O
    H   -28.77822      -12.07023      -31.85025      H2O
    H   -27.65470      -12.57200      -30.78781      H2O
    O   -21.56520      -7.774690      -28.17334      H2O
    H   -21.74190      -8.715570      -27.88436      H2O
    H   -20.76013      -7.434920      -27.68711      H2O
    O   -23.38663      -5.830520      -24.35283      H2O
    H   -22.52671      -6.333490      -24.26585      H2O
    H   -24.13667      -6.422910      -24.05871      H2O
    O   -19.39566     -0.8140600      -26.96327      H2O
    H   -19.95898     -0.5593600      -26.17727      H2O
    H   -19.71936      -1.690290      -27.32027      H2O
    O   -25.81344      -20.99769      -34.12499      H2O
    H   -26.15864      -21.16521      -33.20153      H2O
    H   -24.81386      -21.01653      -34.10282      H2O
    O   -28.94530      -26.14505      -32.52047      H2O
    H   -28.76956      -25.70186      -31.64144      H2O
    H   -28.64888      -27.09848      -32.46470      H2O
    O   -23.89139      -12.72166      -29.49284      H2O
    H   -23.85481      -12.29395      -30.39602      H2O
    H   -22.98805      -12.65553      -29.06904      H2O
    O   -26.44834      -11.63985      -37.23708      H2O
    H   -26.00565      -11.22602      -38.03254      H2O
    H   -26.80647      -10.91124      -36.65324      H2O
    O   -26.11930      -10.16620      -31.57219      H2O
    H   -26.54908      -9.430620      -31.04854      H2O
    H   -26.79273      -10.89016      -31.72177      H2O
    O   -24.89457      -8.596630      -37.37283      H2O
    H   -23.91625      -8.468220      -37.53532      H2O
    H   -25.22758      -9.323210      -37.97382      H2O
    O   -29.19323      -26.26683      -25.52465      H2O
    H   -29.90741      -25.57940      -25.65653      H2O
    H   -29.34840      -26.72804      -24.65104      H2O
    O   -22.75704      -25.41401      -28.64133      H2O
    H   -21.99472      -25.36847      -29.28692      H2O
    H   -23.44924      -24.74565      -28.91364      H2O
    O   -25.87670      -20.14697      -36.72583      H2O
    H   -26.05680      -20.34550      -35.76242      H2O
    H   -24.88785      -20.14763      -36.87475      H2O
    O   -24.15088      -9.114340      -41.06972      H2O
    H   -24.40056      -8.160270      -40.90416      H2O
    H   -24.23556      -9.303640      -42.04798      H2O
    O   -23.36303      -4.416690      -39.41150      H2O
    H   -22.62406      -4.789120      -39.97294      H2O
    H   -22.96258      -3.906060      -38.65064      H2O
    O   -19.53214      -7.915180      -37.13956      H2O
    H   -19.19065      -7.543320      -36.27637      H2O
    H   -18.83927      -8.525890      -37.52294      H2O
    O   -23.22117      -3.059180      -33.97219      H2O
    H   -22.27458      -3.321260      -34.16007      H2O
    H   -23.31663      -2.879370      -32.99313      H2O
    O   -22.46843      -25.58112      -39.43532      H2O
    H   -21.83303      -24.93525      -39.85854      H2O
    H   -23.06486      -25.95682      -40.14463      H2O
    O   -20.74286      -24.20247      -40.99175      H2O
    H   -20.16641      -24.78343      -41.56638      H2O
    H   -20.24642      -23.35882      -40.78730      H2O
    O   -24.37058      -25.33775      -37.54329      H2O
    H   -23.95649      -25.81680      -36.76931      H2O
    H   -23.74476      -25.38377      -38.32189      H2O
    O   -24.37318      -15.80409      -36.32290      H2O
    H   -25.08348      -15.11801      -36.16555      H2O
    H   -24.44277      -16.50699      -35.61502      H2O
    O   -21.49289      -9.670700      -40.98975      H2O
    H   -22.40742      -9.370620      -40.71850      H2O
    H   -21.49325      -9.854390      -41.97274      H2O
    O   -24.73272      -6.349620      -40.64860      H2O
    H   -25.72099      -6.224140      -40.73562      H2O
    H   -24.35918      -5.595130      -40.10896      H2O
    O   -18.30198      -6.361130      -34.98714      H2O
    H   -19.03121      -6.625360      -34.35595      H2O
    H   -18.24796      -5.363010      -35.01614      H2O
    O   -20.82408      -5.141390      -40.87749      H2O
    H   -20.53898      -4.473200      -40.19029      H2O
    H   -20.56503      -6.055070      -40.56430      H2O
    O   -23.35595      -22.28539      -36.50788      H2O
    H   -23.76054      -23.19974      -36.49160      H2O
    H   -22.37496      -22.37102      -36.68205      H2O
    O   -24.27857      -17.17627      -38.65791      H2O
    H   -24.33097      -16.68821      -39.52915      H2O
    H   -24.43212      -16.52490      -37.91485      H2O
    O   -25.83981      -22.60530      -40.75991      H2O
    H   -26.52303      -22.67147      -41.48712      H2O
    H   -25.94476      -23.38922      -40.14798      H2O
    O   -24.80454      -15.90348      -22.21671      H2O
    H   -23.93334      -15.98584      -21.73274      H2O
    H   -24.67674      -15.30751      -23.00949      H2O
    O   -23.12681      -15.09587      -25.84334      H2O
    H   -22.41173      -14.47593      -25.52030      H2O
    H   -24.00297      -14.80338      -25.46020      H2O
    O   -20.17018      -8.509500      -22.19412      H2O
    H   -20.04914      -7.970670      -21.36045      H2O
    H   -20.85717      -8.063770      -22.76803      H2O
    O   -22.51271      -22.65983      -23.31756      H2O
    H   -22.98492      -22.37282      -22.48411      H2O
    H   -22.25464      -21.84549      -23.83744      H2O
    O   -22.05157      -20.16252      -24.47801      H2O
    H   -22.28236      -19.19307      -24.39492      H2O
    H   -22.49838      -20.53056      -25.29342      H2O
    O   -24.50398      -18.60648      -25.60473      H2O
    H   -25.11742      -18.87976      -26.34569      H2O
    H   -25.04971      -18.21711      -24.86273      H2O
    O   -28.24778      -9.640270      -27.80178      H2O
    H   -28.21208      -9.212550      -28.70499      H2O
    H   -27.58810      -10.39136      -27.77551      H2O
    O   -26.32759      -25.68209      -24.55452      H2O
    H   -27.17561      -25.24513      -24.25463      H2O
    H   -26.38442      -26.66137      -24.36017      H2O
    O   -23.80191      -21.48401      -26.20526      H2O
    H   -24.22139      -20.57838      -26.14301      H2O
    H   -24.29233      -22.10792      -25.59679      H2O
    O   -21.52932      -13.30056      -28.61025      H2O
    H   -21.42832      -14.20594      -28.19782      H2O
    H   -20.89813      -13.22684      -29.38236      H2O
    O   -23.05449      -9.174760      -25.51110      H2O
    H   -23.15611      -9.710990      -26.34903      H2O
    H   -23.93372      -8.752030      -25.29140      H2O
    O   -20.97515      -7.111720      -24.77889      H2O
    H   -20.29040      -6.735330      -25.40295      H2O
    H   -21.73251      -7.480900      -25.31751      H2O
    O   -20.51228      -3.532070      -30.00223      H2O
    H   -20.88350      -2.716080      -29.55911      H2O
    H   -19.66056      -3.287010      -30.46539      H2O
    O   -22.08066      -1.825350      -28.70807      H2O
    H   -22.82455      -2.485460      -28.81242      H2O
    H   -22.05794      -1.514220      -27.75797      H2O
    O   -22.93012      -26.21317      -35.07159      H2O
    H   -22.22016      -25.54995      -34.83475      H2O
    H   -22.49872      -27.09945      -35.24014      H2O
    O   -27.73399      -20.64980      -31.61576      H2O
    H   -28.37091      -20.90056      -32.34477      H2O
    H   -28.12246      -19.88788      -31.09753      H2O
    O   -23.91143      -11.65893      -32.25684      H2O
    H   -24.78637      -11.23791      -32.01762      H2O
    H   -23.73919      -11.51109      -33.23074      H2O
    O   -20.65319      -16.21534      -27.75723      H2O
    H   -21.32848      -16.94701      -27.85021      H2O
    H   -20.66031      -15.88959      -26.81180      H2O
    O   -14.92043      -2.299910      -28.12500      H2O
    H   -15.71903      -1.721520      -28.29143      H2O
    H   -15.02189      -2.738840      -27.23222      H2O
    O   -16.93680      -1.114220      -33.00664      H2O
    H   -17.34607     -0.7302800      -33.83435      H2O
    H   -16.37741     -0.4105700      -32.56851      H2O
    O   -20.65343      -24.87078      -34.83301      H2O
    H   -20.05698      -24.67554      -35.61155      H2O
    H   -20.38241      -24.28853      -34.06650      H2O
    O   -18.66816      -24.57505      -37.13617      H2O
    H   -18.03829      -25.16160      -36.62702      H2O
    H   -18.13515      -23.94132      -37.69678      H2O
    O   -19.02358      -25.06501      -25.10348      H2O
    H   -18.96298      -24.29649      -25.74043      H2O
    H   -18.10133      -25.40776      -24.92465      H2O
    O   -24.11799      -18.35063      -31.63235      H2O
    H   -23.20439      -18.74205      -31.52222      H2O
    H   -24.10842      -17.41092      -31.29049      H2O
    O   -19.11248      -11.93378      -38.04711      H2O
    H   -18.44489      -11.22605      -37.81591      H2O
    H   -19.54126      -12.25884      -37.20421      H2O
    O   -17.70192      -13.38673      -40.25454      H2O
    H   -16.76257      -13.68318      -40.08208      H2O
    H   -18.02481      -12.86586      -39.46433      H2O
    O   -19.07601      -12.41065      -33.35863      H2O
    H   -18.21442      -12.23855      -32.88108      H2O
    H   -19.61244      -13.06652      -32.82752      H2O
    O   -21.56712      -11.60199      -39.02477      H2O
    H   -21.55136      -11.09215      -39.88490      H2O
    H   -20.64306      -11.93004      -38.82859      H2O
    O   -18.69080     -0.8207100      -35.23112      H2O
    H   -18.66375     -0.6388100      -36.21407      H2O
    H   -19.56111     -0.4893500      -34.86675      H2O
    O   -20.42494      -22.18165      -37.05819      H2O
    H   -20.17205      -21.67208      -36.23576      H2O
    H   -19.80942      -22.96398      -37.15356      H2O
    O   -24.34488      -23.28352      -28.78224      H2O
    H   -24.03135      -22.70056      -28.03267      H2O
    H   -25.33018      -23.15714      -28.89721      H2O
    O   -19.35376      -18.64074      -38.01492      H2O
    H   -19.72903      -17.83274      -38.46914      H2O
    H   -18.35588      -18.60595      -38.06982      H2O
    O   -18.59070      -17.61080      -34.79021      H2O
    H   -17.83566      -17.75964      -35.42878      H2O
    H   -19.09693      -16.79683      -35.07515      H2O
    O   -27.51496      -5.667490      -40.66015      H2O
    H   -28.29753      -6.171010      -40.29402      H2O
    H   -27.18824      -5.029720      -39.96265      H2O
    O   -24.49320      -10.91317      -39.06585      H2O
    H   -24.35130      -10.42964      -39.92960      H2O
    H   -23.65508      -11.40593      -38.83187      H2O
    O   -18.07802      -5.489280      -38.11986      H2O
    H   -18.76139      -6.218870      -38.14620      H2O
    H   -18.42536      -4.743930      -37.55081      H2O
    O   -15.54021      -21.46661      -37.11301      H2O
    H   -16.39657      -21.06954      -36.78287      H2O
    H   -14.77693      -20.93392      -36.74743      H2O
    O   -23.37626      -19.19191      -36.92937      H2O
    H   -23.82272      -18.58383      -37.58581      H2O
    H   -22.63833      -19.68087      -37.39454      H2O
    O   -25.82503      -13.69577      -35.80231      H2O
    H   -26.09718      -13.54616      -34.85175      H2O
    H   -26.00675      -12.86203      -36.32371      H2O
    O   -22.40672      -14.54937      -38.70399      H2O
    H   -22.29637      -13.60243      -39.00586      H2O
    H   -22.55425      -14.55634      -37.71496      H2O
    O   -20.01462      -7.542230      -39.75991      H2O
    H   -20.56175      -8.361780      -39.93017      H2O
    H   -20.27234      -7.162550      -38.87141      H2O
    O   -23.41204      -10.33148      -34.69458      H2O
    H   -23.81504      -10.42851      -35.60463      H2O
    H   -22.71085      -9.619280      -34.72782      H2O
    O   -17.58431      -7.525540      -41.52639      H2O
    H   -17.91410      -7.225300      -42.42143      H2O
    H   -18.36602      -7.614720      -40.90915      H2O
    O   -19.99567      -3.444590      -38.86689      H2O
    H   -19.06653      -3.122410      -39.04826      H2O
    H   -20.61760      -2.661880      -38.89034      H2O
    O   -17.95521      -23.83312      -40.32043      H2O
    H   -18.59771      -24.45584      -39.87387      H2O
    H   -17.05143      -24.26082      -40.33633      H2O
    O   -21.53436      -18.32754      -40.91700      H2O
    H   -22.00053      -19.16388      -40.62850      H2O
    H   -21.55962      -17.66953      -40.16441      H2O
    O   -20.38504      -16.24794      -38.98512      H2O
    H   -19.94159      -16.05068      -38.11079      H2O
    H   -21.11553      -15.58116      -39.13269      H2O
    O   -16.56501      -4.881850      -40.75670      H2O
    H   -16.66750      -5.832780      -40.46476      H2O
    H   -17.13393      -4.730690      -41.56508      H2O
    O   -15.48924      -24.90683      -40.09916      H2O
    H   -15.76153      -25.86655      -40.16842      H2O
    H   -14.61676      -24.78529      -40.57245      H2O
    O   -18.20769      -16.24804      -40.60973      H2O
    H   -17.69404      -15.40229      -40.75417      H2O
    H   -18.95167      -16.06643      -39.96667      H2O
    O   -24.76185      -23.41784      -24.81071      H2O
    H   -25.18580      -24.31753      -24.91474      H2O
    H   -23.98023      -23.50037      -24.19244      H2O
    O   -26.36775      -11.48916      -27.70616      H2O
    H   -26.58557      -12.19106      -27.02800      H2O
    H   -25.46248      -11.67925      -28.08611      H2O
    O   -20.32268      -13.43002      -23.18293      H2O
    H   -19.60544      -13.53529      -22.49409      H2O
    H   -20.47007      -12.45465      -23.34704      H2O
    O   -18.24864      -4.158070      -22.90165      H2O
    H   -18.69833      -3.980860      -23.77708      H2O
    H   -17.28010      -4.342030      -23.06923      H2O
    O   -21.68071      -25.12454      -24.34043      H2O
    H   -21.95541      -24.16304      -24.33174      H2O
    H   -20.75054      -25.18983      -24.70171      H2O
    O   -21.96925      -23.30677      -26.84707      H2O
    H   -22.52877      -24.09770      -27.09478      H2O
    H   -22.57422      -22.54850      -26.60411      H2O
    O   -17.94482      -9.968760      -25.95849      H2O
    H   -18.14721      -9.559180      -25.06894      H2O
    H   -18.47301      -10.81279      -26.05139      H2O
    O   -20.36696      -8.141840      -30.94611      H2O
    H   -20.84772      -7.733900      -30.16994      H2O
    H   -20.76647      -9.038620      -31.13636      H2O
    O   -22.15338      -1.619330      -25.29377      H2O
    H   -22.82522      -2.321020      -25.53099      H2O
    H   -22.62572     -0.7440300      -25.19018      H2O
    O   -26.40707      -20.30102      -22.89271      H2O
    H   -26.68619      -20.15344      -21.94386      H2O
    H   -25.97203      -19.46744      -23.23315      H2O
    O   -20.16303      -19.97971      -28.33586      H2O
    H   -21.04946      -19.56132      -28.13787      H2O
    H   -20.30822      -20.93667      -28.58713      H2O
    O   -20.07116      -16.03810      -31.03760      H2O
    H   -20.58697      -16.72595      -31.54829      H2O
    H   -19.35827      -16.49827      -30.50842      H2O
    O   -21.64119      -10.86708      -31.01924      H2O
    H   -20.85463      -11.48443      -31.00530      H2O
    H   -22.34021      -11.25066      -31.62277      H2O
    O   -20.01870      -3.807820      -25.13597      H2O