&GLOBAL
  PROJECT UO2-4x4x4-cs-fixd-md
 PRINT_LEVEL low
 RUN_TYPE md
 WALLTIME 300
 &TIMINGS
  SORT_BY_SELF_TIME yes
  THRESHOLD 0.0000000001
 &END TIMINGS
&END GLOBAL
&MOTION
 &CONSTRAINT
  &FIXED_ATOMS
   COMPONENTS_TO_FIX xyz
   LIST 1..672
  &END FIXED_ATOMS
 &END CONSTRAINT
 &MD
  ENSEMBLE NPT_F
  STEPS 5
  TIMESTEP [fs] 0.5
  TEMPERATURE [K] 500.0
  &BAROSTAT
   PRESSURE [bar] 1.0
   TIMECON [fs] 100.0
  &END BAROSTAT
  &THERMOSTAT
   REGION global
   &NOSE
    TIMECON [fs] 100.0
   &END NOSE
  &END THERMOSTAT
 &END MD
 &PRINT
  &RESTART
   BACKUP_COPIES 0
  &END RESTART
  &RESTART_HISTORY OFF
  &END RESTART_HISTORY
  &STRUCTURE_DATA
   POSITION 1
   POSITION 2
   POSITION 3
   POSITION 4
   POSITION 5
   POSITION 6
  &END STRUCTURE_DATA
 &END PRINT
&END MOTION
&FORCE_EVAL
 METHOD Fist
 STRESS_TENSOR analytical
 &MM
  &FORCEFIELD
   &SHELL O
    CORE_CHARGE  +1.186267
    SHELL_CHARGE -3.186267
    MASS_FRACTION 0.1
    SPRING [eV*angstrom^-2] 70.824
    MAX_DISTANCE [angstrom] 0.5
   &END SHELL
   &SHELL U
    CORE_CHARGE  -2.84
    SHELL_CHARGE +6.84
    MASS_FRACTION 0.01
    SPRING [eV*angstrom^-2] 171.556
    MAX_DISTANCE [angstrom] 0.5
   &END SHELL
   &NONBONDED
    &BUCK4RANGES
     ATOMS O O
     A [eV] 20908.03
     B [angstrom^-1] 1/0.129629
     C [eV*angstrom^6] 229.04
     R1 [angstrom] 1.17
     R2 [angstrom] 1.62
     R3 [angstrom] 2.84
     RCUT [angstrom] 10.4
    &END BUCK4RANGES
    &WILLIAMS
     ATOMS O U
     A [eV] 844.41
     B [angstrom^-1] 1/0.425243
     C [eV*angstrom^6] 0.0
     RCUT [angstrom] 10.4
    &END WILLIAMS
    &WILLIAMS
     ATOMS U U
     A [eV] 0.0
     B [angstrom^-1] 0.0
     C [eV*angstrom^6] 0.0
     RCUT [angstrom] 10.4
    &END WILLIAMS
   &END NONBONDED
   &SPLINE
    EMAX_SPLINE [hartree] 1.0E3
    EPS_SPLINE [hartree] 1.0E-7
    R0_NB [angstrom] 0.3
   &END SPLINE
  &END FORCEFIELD
  &POISSON
   &EWALD
    EWALD_TYPE spme
    ALPHA [angstrom^-1] 0.35
    GMAX 32 32 32
    &RS_GRID
     DISTRIBUTION_TYPE automatic
    &END RS_GRID
   &END EWALD
  &END POISSON
 &END MM
 &PRINT
  &FORCES
   NDIGITS 6
  &END FORCES
  &STRESS_TENSOR
  &END STRESS_TENSOR
 &END PRINT
 &SUBSYS
  &CELL
   A     21.87537964     -0.32813069      0.00000000
   B     -0.32813069     21.87537964      0.00000000
   C      0.00000000      0.00000000     21.88030271 # V = 10468.0743, x = -0.03
  &END CELL
  &COORD
   SCALED
   U       0.000000    0.000000    0.000000  UO2  1
   U       0.000000    0.125000    0.125000  UO2  1
   U       0.125000    0.000000    0.125000  UO2  1
   U       0.125000    0.125000    0.000000  UO2  1
   O       0.062500    0.062500    0.062500  UO2  1
   O       0.062500    0.062500    0.187500  UO2  1
   O       0.062500    0.187500    0.062500  UO2  1
   O       0.187500    0.062500    0.062500  UO2  1
   O       0.062500    0.187500    0.187500  UO2  1
   O       0.187500    0.062500    0.187500  UO2  1
   O       0.187500    0.187500    0.062500  UO2  1
   O       0.187500    0.187500    0.187500  UO2  1
   U       0.000000    0.000000    0.250000  UO2  2
   U       0.000000    0.125000    0.375000  UO2  2
   U       0.125000    0.000000    0.375000  UO2  2
   U       0.125000    0.125000    0.250000  UO2  2
   O       0.062500    0.062500    0.312500  UO2  2
   O       0.062500    0.062500    0.437500  UO2  2
   O       0.062500    0.187500    0.312500  UO2  2
   O       0.187500    0.062500    0.312500  UO2  2
   O       0.062500    0.187500    0.437500  UO2  2
   O       0.187500    0.062500    0.437500  UO2  2
   O       0.187500    0.187500    0.312500  UO2  2
   O       0.187500    0.187500    0.437500  UO2  2
   U       0.000000    0.000000    0.500000  UO2  3
   U       0.000000    0.125000    0.625000  UO2  3
   U       0.125000    0.000000    0.625000  UO2  3
   U       0.125000    0.125000    0.500000  UO2  3
   O       0.062500    0.062500    0.562500  UO2  3
   O       0.062500    0.062500    0.687500  UO2  3
   O       0.062500    0.187500    0.562500  UO2  3
   O       0.187500    0.062500    0.562500  UO2  3
   O       0.062500    0.187500    0.687500  UO2  3
   O       0.187500    0.062500    0.687500  UO2  3
   O       0.187500    0.187500    0.562500  UO2  3
   O       0.187500    0.187500    0.687500  UO2  3
   U       0.000000    0.000000    0.750000  UO2  4
   U       0.000000    0.125000    0.875000  UO2  4
   U       0.125000    0.000000    0.875000  UO2  4
   U       0.125000    0.125000    0.750000  UO2  4
   O       0.062500    0.062500    0.812500  UO2  4
   O       0.062500    0.062500    0.937500  UO2  4
   O       0.062500    0.187500    0.812500  UO2  4
   O       0.187500    0.062500    0.812500  UO2  4
   O       0.062500    0.187500    0.937500  UO2  4
   O       0.187500    0.062500    0.937500  UO2  4
   O       0.187500    0.187500    0.812500  UO2  4
   O       0.187500    0.187500    0.937500  UO2  4
   U       0.000000    0.250000    0.000000  UO2  5
   U       0.000000    0.375000    0.125000  UO2  5
   U       0.125000    0.250000    0.125000  UO2  5
   U       0.125000    0.375000    0.000000  UO2  5
   O       0.062500    0.312500    0.062500  UO2  5
   O       0.062500    0.312500    0.187500  UO2  5
   O       0.062500    0.437500    0.062500  UO2  5
   O       0.187500    0.312500    0.062500  UO2  5
   O       0.062500    0.437500    0.187500  UO2  5
   O       0.187500    0.312500    0.187500  UO2  5
   O       0.187500    0.437500    0.062500  UO2  5
   O       0.187500    0.437500    0.187500  UO2  5
   U       0.000000    0.250000    0.250000  UO2  6
   U       0.000000    0.375000    0.375000  UO2  6
   U       0.125000    0.250000    0.375000  UO2  6
   U       0.125000    0.375000    0.250000  UO2  6
   O       0.062500    0.312500    0.312500  UO2  6
   O       0.062500    0.312500    0.437500  UO2  6
   O       0.062500    0.437500    0.312500  UO2  6
   O       0.187500    0.312500    0.312500  UO2  6
   O       0.062500    0.437500    0.437500  UO2  6
   O       0.187500    0.312500    0.437500  UO2  6
   O       0.187500    0.437500    0.312500  UO2  6
   O       0.187500    0.437500    0.437500  UO2  6
   U       0.000000    0.250000    0.500000  UO2  7
   U       0.000000    0.375000    0.625000  UO2  7
   U       0.125000    0.250000    0.625000  UO2  7
   U       0.125000    0.375000    0.500000  UO2  7
   O       0.062500    0.312500    0.562500  UO2  7
   O       0.062500    0.312500    0.687500  UO2  7
   O       0.062500    0.437500    0.562500  UO2  7
   O       0.187500    0.312500    0.562500  UO2  7
   O       0.062500    0.437500    0.687500  UO2  7
   O       0.187500    0.312500    0.687500  UO2  7
   O       0.187500    0.437500    0.562500  UO2  7
   O       0.187500    0.437500    0.687500  UO2  7
   U       0.000000    0.250000    0.750000  UO2  8
   U       0.000000    0.375000    0.875000  UO2  8
   U       0.125000    0.250000    0.875000  UO2  8
   U       0.125000    0.375000    0.750000  UO2  8
   O       0.062500    0.312500    0.812500  UO2  8
   O       0.062500    0.312500    0.937500  UO2  8
   O       0.062500    0.437500    0.812500  UO2  8
   O       0.187500    0.312500    0.812500  UO2  8
   O       0.062500    0.437500    0.937500  UO2  8
   O       0.187500    0.312500    0.937500  UO2  8
   O       0.187500    0.437500    0.812500  UO2  8
   O       0.187500    0.437500    0.937500  UO2  8
   U       0.000000    0.500000    0.000000  UO2  9
   U       0.000000    0.625000    0.125000  UO2  9
   U       0.125000    0.500000    0.125000  UO2  9
   U       0.125000    0.625000    0.000000  UO2  9
   O       0.062500    0.562500    0.062500  UO2  9
   O       0.062500    0.562500    0.187500  UO2  9
   O       0.062500    0.687500    0.062500  UO2  9
   O       0.187500    0.562500    0.062500  UO2  9
   O       0.062500    0.687500    0.187500  UO2  9
   O       0.187500    0.562500    0.187500  UO2  9
   O       0.187500    0.687500    0.062500  UO2  9
   O       0.187500    0.687500    0.187500  UO2  9
   U       0.000000    0.500000    0.250000  UO2  10
   U       0.000000    0.625000    0.375000  UO2  10
   U       0.125000    0.500000    0.375000  UO2  10
   U       0.125000    0.625000    0.250000  UO2  10
   O       0.062500    0.562500    0.312500  UO2  10
   O       0.062500    0.562500    0.437500  UO2  10
   O       0.062500    0.687500    0.312500  UO2  10
   O       0.187500    0.562500    0.312500  UO2  10
   O       0.062500    0.687500    0.437500  UO2  10
   O       0.187500    0.562500    0.437500  UO2  10
   O       0.187500    0.687500    0.312500  UO2  10
   O       0.187500    0.687500    0.437500  UO2  10
   U       0.000000    0.500000    0.500000  UO2  11
   U       0.000000    0.625000    0.625000  UO2  11
   U       0.125000    0.500000    0.625000  UO2  11
   U       0.125000    0.625000    0.500000  UO2  11
   O       0.062500    0.562500    0.562500  UO2  11
   O       0.062500    0.562500    0.687500  UO2  11
   O       0.062500    0.687500    0.562500  UO2  11
   O       0.187500    0.562500    0.562500  UO2  11
   O       0.062500    0.687500    0.687500  UO2  11
   O       0.187500    0.562500    0.687500  UO2  11
   O       0.187500    0.687500    0.562500  UO2  11
   O       0.187500    0.687500    0.687500  UO2  11
   U       0.000000    0.500000    0.750000  UO2  12
   U       0.000000    0.625000    0.875000  UO2  12
   U       0.125000    0.500000    0.875000  UO2  12
   U       0.125000    0.625000    0.750000  UO2  12
   O       0.062500    0.562500    0.812500  UO2  12
   O       0.062500    0.562500    0.937500  UO2  12
   O       0.062500    0.687500    0.812500  UO2  12
   O       0.187500    0.562500    0.812500  UO2  12
   O       0.062500    0.687500    0.937500  UO2  12
   O       0.187500    0.562500    0.937500  UO2  12
   O       0.187500    0.687500    0.812500  UO2  12
   O       0.187500    0.687500    0.937500  UO2  12
   U       0.000000    0.750000    0.000000  UO2  13
   U       0.000000    0.875000    0.125000  UO2  13
   U       0.125000    0.750000    0.125000  UO2  13
   U       0.125000    0.875000    0.000000  UO2  13
   O       0.062500    0.812500    0.062500  UO2  13
   O       0.062500    0.812500    0.187500  UO2  13
   O       0.062500    0.937500    0.062500  UO2  13
   O       0.187500    0.812500    0.062500  UO2  13
   O       0.062500    0.937500    0.187500  UO2  13
   O       0.187500    0.812500    0.187500  UO2  13
   O       0.187500    0.937500    0.062500  UO2  13
   O       0.187500    0.937500    0.187500  UO2  13
   U       0.000000    0.750000    0.250000  UO2  14
   U       0.000000    0.875000    0.375000  UO2  14
   U       0.125000    0.750000    0.375000  UO2  14
   U       0.125000    0.875000    0.250000  UO2  14
   O       0.062500    0.812500    0.312500  UO2  14
   O       0.062500    0.812500    0.437500  UO2  14
   O       0.062500    0.937500    0.312500  UO2  14
   O       0.187500    0.812500    0.312500  UO2  14
   O       0.062500    0.937500    0.437500  UO2  14
   O       0.187500    0.812500    0.437500  UO2  14
   O       0.187500    0.937500    0.312500  UO2  14
   O       0.187500    0.937500    0.437500  UO2  14
   U       0.000000    0.750000    0.500000  UO2  15
   U       0.000000    0.875000    0.625000  UO2  15
   U       0.125000    0.750000    0.625000  UO2  15
   U       0.125000    0.875000    0.500000  UO2  15
   O       0.062500    0.812500    0.562500  UO2  15
   O       0.062500    0.812500    0.687500  UO2  15
   O       0.062500    0.937500    0.562500  UO2  15
   O       0.187500    0.812500    0.562500  UO2  15
   O       0.062500    0.937500    0.687500  UO2  15
   O       0.187500    0.812500    0.687500  UO2  15
   O       0.187500    0.937500    0.562500  UO2  15
   O       0.187500    0.937500    0.687500  UO2  15
   U       0.000000    0.750000    0.750000  UO2  16
   U       0.000000    0.875000    0.875000  UO2  16
   U       0.125000    0.750000    0.875000  UO2  16
   U       0.125000    0.875000    0.750000  UO2  16
   O       0.062500    0.812500    0.812500  UO2  16
   O       0.062500    0.812500    0.937500  UO2  16
   O       0.062500    0.937500    0.812500  UO2  16
   O       0.187500    0.812500    0.812500  UO2  16
   O       0.062500    0.937500    0.937500  UO2  16
   O       0.187500    0.812500    0.937500  UO2  16
   O       0.187500    0.937500    0.812500  UO2  16
   O       0.187500    0.937500    0.937500  UO2  16
   U       0.250000    0.000000    0.000000  UO2  17
   U       0.250000    0.125000    0.125000  UO2  17
   U       0.375000    0.000000    0.125000  UO2  17
   U       0.375000    0.125000    0.000000  UO2  17
   O       0.312500    0.062500    0.062500  UO2  17
   O       0.312500    0.062500    0.187500  UO2  17
   O       0.312500    0.187500    0.062500  UO2  17
   O       0.437500    0.062500    0.062500  UO2  17
   O       0.312500    0.187500    0.187500  UO2  17
   O       0.437500    0.062500    0.187500  UO2  17
   O       0.437500    0.187500    0.062500  UO2  17
   O       0.437500    0.187500    0.187500  UO2  17
   U       0.250000    0.000000    0.250000  UO2  18
   U       0.250000    0.125000    0.375000  UO2  18
   U       0.375000    0.000000    0.375000  UO2  18
   U       0.375000    0.125000    0.250000  UO2  18
   O       0.312500    0.062500    0.312500  UO2  18
   O       0.312500    0.062500    0.437500  UO2  18
   O       0.312500    0.187500    0.312500  UO2  18
   O       0.437500    0.062500    0.312500  UO2  18
   O       0.312500    0.187500    0.437500  UO2  18
   O       0.437500    0.062500    0.437500  UO2  18
   O       0.437500    0.187500    0.312500  UO2  18
   O       0.437500    0.187500    0.437500  UO2  18
   U       0.250000    0.000000    0.500000  UO2  19
   U       0.250000    0.125000    0.625000  UO2  19
   U       0.375000    0.000000    0.625000  UO2  19
   U       0.375000    0.125000    0.500000  UO2  19
   O       0.312500    0.062500    0.562500  UO2  19
   O       0.312500    0.062500    0.687500  UO2  19
   O       0.312500    0.187500    0.562500  UO2  19
   O       0.437500    0.062500    0.562500  UO2  19
   O       0.312500    0.187500    0.687500  UO2  19
   O       0.437500    0.062500    0.687500  UO2  19
   O       0.437500    0.187500    0.562500  UO2  19
   O       0.437500    0.187500    0.687500  UO2  19
   U       0.250000    0.000000    0.750000  UO2  20
   U       0.250000    0.125000    0.875000  UO2  20
   U       0.375000    0.000000    0.875000  UO2  20
   U       0.375000    0.125000    0.750000  UO2  20
   O       0.312500    0.062500    0.812500  UO2  20
   O       0.312500    0.062500    0.937500  UO2  20
   O       0.312500    0.187500    0.812500  UO2  20
   O       0.437500    0.062500    0.812500  UO2  20
   O       0.312500    0.187500    0.937500  UO2  20
   O       0.437500    0.062500    0.937500  UO2  20
   O       0.437500    0.187500    0.812500  UO2  20
   O       0.437500    0.187500    0.937500  UO2  20
   U       0.250000    0.250000    0.000000  UO2  21
   U       0.250000    0.375000    0.125000  UO2  21
   U       0.375000    0.250000    0.125000  UO2  21
   U       0.375000    0.375000    0.000000  UO2  21
   O       0.312500    0.312500    0.062500  UO2  21
   O       0.312500    0.312500    0.187500  UO2  21
   O       0.312500    0.437500    0.062500  UO2  21
   O       0.437500    0.312500    0.062500  UO2  21
   O       0.312500    0.437500    0.187500  UO2  21
   O       0.437500    0.312500    0.187500  UO2  21
   O       0.437500    0.437500    0.062500  UO2  21
   O       0.437500    0.437500    0.187500  UO2  21
   U       0.250000    0.250000    0.750000  UO2  22
   U       0.250000    0.375000    0.875000  UO2  22
   U       0.375000    0.250000    0.875000  UO2  22
   U       0.375000    0.375000    0.750000  UO2  22
   O       0.312500    0.312500    0.812500  UO2  22
   O       0.312500    0.312500    0.937500  UO2  22
   O       0.312500    0.437500    0.812500  UO2  22
   O       0.437500    0.312500    0.812500  UO2  22
   O       0.312500    0.437500    0.937500  UO2  22
   O       0.437500    0.312500    0.937500  UO2  22
   O       0.437500    0.437500    0.812500  UO2  22
   O       0.437500    0.437500    0.937500  UO2  22
   U       0.250000    0.500000    0.000000  UO2  23
   U       0.250000    0.625000    0.125000  UO2  23
   U       0.375000    0.500000    0.125000  UO2  23
   U       0.375000    0.625000    0.000000  UO2  23
   O       0.312500    0.562500    0.062500  UO2  23
   O       0.312500    0.562500    0.187500  UO2  23
   O       0.312500    0.687500    0.062500  UO2  23
   O       0.437500    0.562500    0.062500  UO2  23
   O       0.312500    0.687500    0.187500  UO2  23
   O       0.437500    0.562500    0.187500  UO2  23
   O       0.437500    0.687500    0.062500  UO2  23
   O       0.437500    0.687500    0.187500  UO2  23
   U       0.250000    0.500000    0.750000  UO2  24
   U       0.250000    0.625000    0.875000  UO2  24
   U       0.375000    0.500000    0.875000  UO2  24
   U       0.375000    0.625000    0.750000  UO2  24
   O       0.312500    0.562500    0.812500  UO2  24
   O       0.312500    0.562500    0.937500  UO2  24
   O       0.312500    0.687500    0.812500  UO2  24
   O       0.437500    0.562500    0.812500  UO2  24
   O       0.312500    0.687500    0.937500  UO2  24
   O       0.437500    0.562500    0.937500  UO2  24
   O       0.437500    0.687500    0.812500  UO2  24
   O       0.437500    0.687500    0.937500  UO2  24
   U       0.250000    0.750000    0.000000  UO2  25
   U       0.250000    0.875000    0.125000  UO2  25
   U       0.375000    0.750000    0.125000  UO2  25
   U       0.375000    0.875000    0.000000  UO2  25
   O       0.312500    0.812500    0.062500  UO2  25
   O       0.312500    0.812500    0.187500  UO2  25
   O       0.312500    0.937500    0.062500  UO2  25
   O       0.437500    0.812500    0.062500  UO2  25
   O       0.312500    0.937500    0.187500  UO2  25
   O       0.437500    0.812500    0.187500  UO2  25
   O       0.437500    0.937500    0.062500  UO2  25
   O       0.437500    0.937500    0.187500  UO2  25
   U       0.250000    0.750000    0.250000  UO2  26
   U       0.250000    0.875000    0.375000  UO2  26
   U       0.375000    0.750000    0.375000  UO2  26
   U       0.375000    0.875000    0.250000  UO2  26
   O       0.312500    0.812500    0.312500  UO2  26
   O       0.312500    0.812500    0.437500  UO2  26
   O       0.312500    0.937500    0.312500  UO2  26
   O       0.437500    0.812500    0.312500  UO2  26
   O       0.312500    0.937500    0.437500  UO2  26
   O       0.437500    0.812500    0.437500  UO2  26
   O       0.437500    0.937500    0.312500  UO2  26
   O       0.437500    0.937500    0.437500  UO2  26
   U       0.250000    0.750000    0.500000  UO2  27
   U       0.250000    0.875000    0.625000  UO2  27
   U       0.375000    0.750000    0.625000  UO2  27
   U       0.375000    0.875000    0.500000  UO2  27
   O       0.312500    0.812500    0.562500  UO2  27
   O       0.312500    0.812500    0.687500  UO2  27
   O       0.312500    0.937500    0.562500  UO2  27
   O       0.437500    0.812500    0.562500  UO2  27
   O       0.312500    0.937500    0.687500  UO2  27
   O       0.437500    0.812500    0.687500  UO2  27
   O       0.437500    0.937500    0.562500  UO2  27
   O       0.437500    0.937500    0.687500  UO2  27
   U       0.250000    0.750000    0.750000  UO2  28
   U       0.250000    0.875000    0.875000  UO2  28
   U       0.375000    0.750000    0.875000  UO2  28
   U       0.375000    0.875000    0.750000  UO2  28
   O       0.312500    0.812500    0.812500  UO2  28
   O       0.312500    0.812500    0.937500  UO2  28
   O       0.312500    0.937500    0.812500  UO2  28
   O       0.437500    0.812500    0.812500  UO2  28
   O       0.312500    0.937500    0.937500  UO2  28
   O       0.437500    0.812500    0.937500  UO2  28
   O       0.437500    0.937500    0.812500  UO2  28
   O       0.437500    0.937500    0.937500  UO2  28
   U       0.500000    0.000000    0.000000  UO2  29
   U       0.500000    0.125000    0.125000  UO2  29
   U       0.625000    0.000000    0.125000  UO2  29
   U       0.625000    0.125000    0.000000  UO2  29
   O       0.562500    0.062500    0.062500  UO2  29
   O       0.562500    0.062500    0.187500  UO2  29
   O       0.562500    0.187500    0.062500  UO2  29
   O       0.687500    0.062500    0.062500  UO2  29
   O       0.562500    0.187500    0.187500  UO2  29
   O       0.687500    0.062500    0.187500  UO2  29
   O       0.687500    0.187500    0.062500  UO2  29
   O       0.687500    0.187500    0.187500  UO2  29
   U       0.500000    0.000000    0.250000  UO2  30
   U       0.500000    0.125000    0.375000  UO2  30
   U       0.625000    0.000000    0.375000  UO2  30
   U       0.625000    0.125000    0.250000  UO2  30
   O       0.562500    0.062500    0.312500  UO2  30
   O       0.562500    0.062500    0.437500  UO2  30
   O       0.562500    0.187500    0.312500  UO2  30
   O       0.687500    0.062500    0.312500  UO2  30
   O       0.562500    0.187500    0.437500  UO2  30
   O       0.687500    0.062500    0.437500  UO2  30
   O       0.687500    0.187500    0.312500  UO2  30
   O       0.687500    0.187500    0.437500  UO2  30
   U       0.500000    0.000000    0.500000  UO2  31
   U       0.500000    0.125000    0.625000  UO2  31
   U       0.625000    0.000000    0.625000  UO2  31
   U       0.625000    0.125000    0.500000  UO2  31
   O       0.562500    0.062500    0.562500  UO2  31
   O       0.562500    0.062500    0.687500  UO2  31
   O       0.562500    0.187500    0.562500  UO2  31
   O       0.687500    0.062500    0.562500  UO2  31
   O       0.562500    0.187500    0.687500  UO2  31
   O       0.687500    0.062500    0.687500  UO2  31
   O       0.687500    0.187500    0.562500  UO2  31
   O       0.687500    0.187500    0.687500  UO2  31
   U       0.500000    0.000000    0.750000  UO2  32
   U       0.500000    0.125000    0.875000  UO2  32
   U       0.625000    0.000000    0.875000  UO2  32
   U       0.625000    0.125000    0.750000  UO2  32
   O       0.562500    0.062500    0.812500  UO2  32
   O       0.562500    0.062500    0.937500  UO2  32
   O       0.562500    0.187500    0.812500  UO2  32
   O       0.687500    0.062500    0.812500  UO2  32
   O       0.562500    0.187500    0.937500  UO2  32
   O       0.687500    0.062500    0.937500  UO2  32
   O       0.687500    0.187500    0.812500  UO2  32
   O       0.687500    0.187500    0.937500  UO2  32
   U       0.500000    0.250000    0.000000  UO2  33
   U       0.500000    0.375000    0.125000  UO2  33
   U       0.625000    0.250000    0.125000  UO2  33
   U       0.625000    0.375000    0.000000  UO2  33
   O       0.562500    0.312500    0.062500  UO2  33
   O       0.562500    0.312500    0.187500  UO2  33
   O       0.562500    0.437500    0.062500  UO2  33
   O       0.687500    0.312500    0.062500  UO2  33
   O       0.562500    0.437500    0.187500  UO2  33
   O       0.687500    0.312500    0.187500  UO2  33
   O       0.687500    0.437500    0.062500  UO2  33
   O       0.687500    0.437500    0.187500  UO2  33
   U       0.500000    0.250000    0.750000  UO2  34
   U       0.500000    0.375000    0.875000  UO2  34
   U       0.625000    0.250000    0.875000  UO2  34
   U       0.625000    0.375000    0.750000  UO2  34
   O       0.562500    0.312500    0.812500  UO2  34
   O       0.562500    0.312500    0.937500  UO2  34
   O       0.562500    0.437500    0.812500  UO2  34
   O       0.687500    0.312500    0.812500  UO2  34
   O       0.562500    0.437500    0.937500  UO2  34
   O       0.687500    0.312500    0.937500  UO2  34
   O       0.687500    0.437500    0.812500  UO2  34
   O       0.687500    0.437500    0.937500  UO2  34
   U       0.500000    0.500000    0.000000  UO2  35
   U       0.500000    0.625000    0.125000  UO2  35
   U       0.625000    0.500000    0.125000  UO2  35
   U       0.625000    0.625000    0.000000  UO2  35
   O       0.562500    0.562500    0.062500  UO2  35
   O       0.562500    0.562500    0.187500  UO2  35
   O       0.562500    0.687500    0.062500  UO2  35
   O       0.687500    0.562500    0.062500  UO2  35
   O       0.562500    0.687500    0.187500  UO2  35
   O       0.687500    0.562500    0.187500  UO2  35
   O       0.687500    0.687500    0.062500  UO2  35
   O       0.687500    0.687500    0.187500  UO2  35
   U       0.500000    0.500000    0.750000  UO2  36
   U       0.500000    0.625000    0.875000  UO2  36
   U       0.625000    0.500000    0.875000  UO2  36
   U       0.625000    0.625000    0.750000  UO2  36
   O       0.562500    0.562500    0.812500  UO2  36
   O       0.562500    0.562500    0.937500  UO2  36
   O       0.562500    0.687500    0.812500  UO2  36
   O       0.687500    0.562500    0.812500  UO2  36
   O       0.562500    0.687500    0.937500  UO2  36
   O       0.687500    0.562500    0.937500  UO2  36
   O       0.687500    0.687500    0.812500  UO2  36
   O       0.687500    0.687500    0.937500  UO2  36
   U       0.500000    0.750000    0.000000  UO2  37
   U       0.500000    0.875000    0.125000  UO2  37
   U       0.625000    0.750000    0.125000  UO2  37
   U       0.625000    0.875000    0.000000  UO2  37
   O       0.562500    0.812500    0.062500  UO2  37
   O       0.562500    0.812500    0.187500  UO2  37
   O       0.562500    0.937500    0.062500  UO2  37
   O       0.687500    0.812500    0.062500  UO2  37
   O       0.562500    0.937500    0.187500  UO2  37
   O       0.687500    0.812500    0.187500  UO2  37
   O       0.687500    0.937500    0.062500  UO2  37
   O       0.687500    0.937500    0.187500  UO2  37
   U       0.500000    0.750000    0.250000  UO2  38
   U       0.500000    0.875000    0.375000  UO2  38
   U       0.625000    0.750000    0.375000  UO2  38
   U       0.625000    0.875000    0.250000  UO2  38
   O       0.562500    0.812500    0.312500  UO2  38
   O       0.562500    0.812500    0.437500  UO2  38
   O       0.562500    0.937500    0.312500  UO2  38
   O       0.687500    0.812500    0.312500  UO2  38
   O       0.562500    0.937500    0.437500  UO2  38
   O       0.687500    0.812500    0.437500  UO2  38
   O       0.687500    0.937500    0.312500  UO2  38
   O       0.687500    0.937500    0.437500  UO2  38
   U       0.500000    0.750000    0.500000  UO2  39
   U       0.500000    0.875000    0.625000  UO2  39
   U       0.625000    0.750000    0.625000  UO2  39
   U       0.625000    0.875000    0.500000  UO2  39
   O       0.562500    0.812500    0.562500  UO2  39
   O       0.562500    0.812500    0.687500  UO2  39
   O       0.562500    0.937500    0.562500  UO2  39
   O       0.687500    0.812500    0.562500  UO2  39
   O       0.562500    0.937500    0.687500  UO2  39
   O       0.687500    0.812500    0.687500  UO2  39
   O       0.687500    0.937500    0.562500  UO2  39
   O       0.687500    0.937500    0.687500  UO2  39
   U       0.500000    0.750000    0.750000  UO2  40
   U       0.500000    0.875000    0.875000  UO2  40
   U       0.625000    0.750000    0.875000  UO2  40
   U       0.625000    0.875000    0.750000  UO2  40
   O       0.562500    0.812500    0.812500  UO2  40
   O       0.562500    0.812500    0.937500  UO2  40
   O       0.562500    0.937500    0.812500  UO2  40
   O       0.687500    0.812500    0.812500  UO2  40
   O       0.562500    0.937500    0.937500  UO2  40
   O       0.687500    0.812500    0.937500  UO2  40
   O       0.687500    0.937500    0.812500  UO2  40
   O       0.687500    0.937500    0.937500  UO2  40
   U       0.750000    0.000000    0.000000  UO2  41
   U       0.750000    0.125000    0.125000  UO2  41
   U       0.875000    0.000000    0.125000  UO2  41
   U       0.875000    0.125000    0.000000  UO2  41
   O       0.812500    0.062500    0.062500  UO2  41
   O       0.812500    0.062500    0.187500  UO2  41
   O       0.812500    0.187500    0.062500  UO2  41
   O       0.937500    0.062500    0.062500  UO2  41
   O       0.812500    0.187500    0.187500  UO2  41
   O       0.937500    0.062500    0.187500  UO2  41
   O       0.937500    0.187500    0.062500  UO2  41
   O       0.937500    0.187500    0.187500  UO2  41
   U       0.750000    0.000000    0.250000  UO2  42
   U       0.750000    0.125000    0.375000  UO2  42
   U       0.875000    0.000000    0.375000  UO2  42
   U       0.875000    0.125000    0.250000  UO2  42
   O       0.812500    0.062500    0.312500  UO2  42
   O       0.812500    0.062500    0.437500  UO2  42
   O       0.812500    0.187500    0.312500  UO2  42
   O       0.937500    0.062500    0.312500  UO2  42
   O       0.812500    0.187500    0.437500  UO2  42
   O       0.937500    0.062500    0.437500  UO2  42
   O       0.937500    0.187500    0.312500  UO2  42
   O       0.937500    0.187500    0.437500  UO2  42
   U       0.750000    0.000000    0.500000  UO2  43
   U       0.750000    0.125000    0.625000  UO2  43
   U       0.875000    0.000000    0.625000  UO2  43
   U       0.875000    0.125000    0.500000  UO2  43
   O       0.812500    0.062500    0.562500  UO2  43
   O       0.812500    0.062500    0.687500  UO2  43
   O       0.812500    0.187500    0.562500  UO2  43
   O       0.937500    0.062500    0.562500  UO2  43
   O       0.812500    0.187500    0.687500  UO2  43
   O       0.937500    0.062500    0.687500  UO2  43
   O       0.937500    0.187500    0.562500  UO2  43
   O       0.937500    0.187500    0.687500  UO2  43
   U       0.750000    0.000000    0.750000  UO2  44
   U       0.750000    0.125000    0.875000  UO2  44
   U       0.875000    0.000000    0.875000  UO2  44
   U       0.875000    0.125000    0.750000  UO2  44
   O       0.812500    0.062500    0.812500  UO2  44
   O       0.812500    0.062500    0.937500  UO2  44