&GLOBAL
  PROJECT He_4
  PROGRAM_NAME ATOM
&END GLOBAL
&ATOM
  ATOMIC_NUMBER 2
  ELECTRON_CONFIGURATION  (HS) 1s1 2s1
  COULOMB_INTEGRALS ANALYTIC
  EXCHANGE_INTEGRALS ANALYTIC
  &METHOD
    METHOD_TYPE UKS
    &XC
      &XC_FUNCTIONAL
        &MGGA_X_TPSS
        &END MGGA_X_TPSS
        &MGGA_C_TPSS
        &END MGGA_C_TPSS
      &END XC_FUNCTIONAL
    &END XC
  &END METHOD
  &AE_BASIS
     BASIS_TYPE CONTRACTED_GTO
     BASIS_SET 6-31G*
  &END AE_BASIS
&END ATOM
