&GLOBAL
  PROJECT nh3-issc-op-1
  PRINT_LEVEL LOW
  RUN_TYPE LINEAR_RESPONSE
&END GLOBAL
&FORCE_EVAL
  &DFT
    BASIS_SET_FILE_NAME EMSL_BASIS_SETS
    POTENTIAL_FILE_NAME POTENTIAL
    &MGRID
      CUTOFF 100
    &END MGRID
    &QS
      METHOD GAPW
    &END QS
    &SCF
      MAX_SCF 5
      SCF_GUESS ATOMIC
    &END SCF
    &XC
      &XC_FUNCTIONAL BLYP
      &END XC_FUNCTIONAL
    &END XC
    &PRINT
      &AO_MATRICES
        FERMI_CONTACT T
        PSO T
        EFG T
      &END
    &END
  &END DFT
  &PROPERTIES
    &LINRES
       MAX_ITER 1
       &LOCALIZE
         MAX_ITER 1
       &END
       &CURRENT
       &END CURRENT
       &SPINSPIN
          DO_FC F
          DO_SD F
          DO_DSO F
          DO_PSO F
       &END
    &END
  &END
  &SUBSYS
    &CELL
      ABC 5.0 5.0 5.0
    &END CELL
    &COORD
 N     0.000000     0.000000     0.000000
 H     0.000000     0.000000     1.008000
 H     1.026719     0.000000    -0.363000
 H    -0.513360    -0.889165    -0.363000
    &END COORD
    &KIND N
      BASIS_SET 3-21G*
      POTENTIAL ALL
    &END KIND
    &KIND H
      BASIS_SET 3-21G*
      POTENTIAL ALL
    &END KIND
  &END SUBSYS
&END FORCE_EVAL
