&GLOBAL
  PROJECT no-gapw-issc-1
  PRINT_LEVEL LOW
  RUN_TYPE LINEAR_RESPONSE
&END GLOBAL
&FORCE_EVAL
  &DFT
    LSD T
    MULTIPLICITY 2
    BASIS_SET_FILE_NAME EMSL_BASIS_SETS
    POTENTIAL_FILE_NAME POTENTIAL
    &MGRID
      CUTOFF 100
    &END MGRID
    &QS
      METHOD GAPW
    &END QS
    &SCF
      MAX_SCF 5
    &END SCF
    &XC
      &XC_FUNCTIONAL BLYP
      &END XC_FUNCTIONAL
    &END XC
  &END DFT
  &PROPERTIES
    &LINRES
       &LOCALIZE
         MAX_ITER 5
       &END
       MAX_ITER 10
       PRECONDITIONER FULL_ALL
       &CURRENT
          GAUGE R_AND_STEP_FUNCTION
          ORBITAL_CENTER WANNIER
       &END CURRENT
       &SPINSPIN
         DO_FC F
         DO_SD F
         DO_DSO F
         DO_PSO T
       &END
    &END
  &END
  &SUBSYS
    &CELL
      ABC 5.0 5.0 5.0
    &END CELL
    &KIND O
      BASIS_SET 3-21G*
      POTENTIAL ALL
    &END KIND
    &KIND N
      BASIS_SET 3-21G*
      POTENTIAL ALL
    &END KIND
    &COORD
 O   0.000000    0.000000    0.542338
 N   0.000000    0.000000   -0.619815
    &END COORD
  &END SUBSYS
&END FORCE_EVAL
