&GLOBAL
  PREFERRED_FFT_LIBRARY FFTW3
  PROJECT SbH3_def2_gapw
  RUN_TYPE GEO_OPT
&END GLOBAL

&MOTION
  &GEO_OPT
    MAX_ITER 1
  &END GEO_OPT
&END MOTION

&FORCE_EVAL
  &DFT
    BASIS_SET_FILE_NAME ./ECP_BASIS_POT
    POTENTIAL_FILE_NAME ./ECP_BASIS_POT
    &MGRID
      CUTOFF 300
      NGRIDS 5
      REL_CUTOFF 40
    &END MGRID
    &POISSON
      PERIODIC NONE
      PSOLVER WAVELET
    &END POISSON
    &QS
      EPS_DEFAULT 1.0E-12
      METHOD GAPW
    &END QS
    &SCF
      IGNORE_CONVERGENCE_FAILURE
      MAX_SCF 5
      SCF_GUESS ATOMIC
    &END SCF
    &XC
      &XC_FUNCTIONAL LDA
      &END XC_FUNCTIONAL
    &END XC
  &END DFT
  &SUBSYS
    &CELL
      ABC 9.0 9.0 9.0
      PERIODIC NONE
    &END CELL
    &COORD
      Sb        0.0500000000       -0.2357770000       -0.6270200000
      H         0.0000000000        1.1518460000        0.3391280000
      H        -1.2017170000       -0.9295890000        0.3391280000
      H         0.2017170000       -0.9295890000        0.3391280000
    &END COORD
    &KIND Sb
      BASIS_SET def2-SVP
      POTENTIAL ECP def2-SVP_ECP
    &END KIND
    &KIND H
      BASIS_SET def2-SVP
      POTENTIAL ALL
    &END KIND
    &TOPOLOGY
      &CENTER_COORDINATES
      &END CENTER_COORDINATES
    &END TOPOLOGY
  &END SUBSYS
&END FORCE_EVAL
