
&FORCE_EVAL
  METHOD EP
  &DFT
    &MGRID
      CUTOFF 200
    &END MGRID
    &QS
      EPS_DEFAULT 1.0E-8
      EXTRAPOLATION LINEAR_P
    &END QS
    &SCF
      EPS_SCF 1.0E-4
      SCF_GUESS ATOMIC
    &END SCF
    &XC
      &XC_FUNCTIONAL Pade
      &END XC_FUNCTIONAL
    &END XC
    &PRINT
      &DERIVATIVES
        FILENAME 3H2OForces
      &END
    &END
  &END DFT
  &SUBSYS
    &CELL
      ABC 6.0 6.0 6.0
      UNIT ANGSTROM
    &END CELL
    &COORD
   O     0.000000     0.000000     0.000000    H2O1
   H     0.000000     0.000000     1.000000    H2O1
   H     0.942809     0.000000    -0.333333    H2O1
   O    -1.617979    -0.948062    -2.341650    H2O2
   H    -2.529195    -1.296822    -2.122437    H2O2
   H    -1.534288    -0.833088    -3.331486    H2O2
   O    -1.447990     2.117783     1.555094    H2O3
   H    -1.501128     2.645178     2.403050    H2O3
   H    -2.090603     1.352766     1.597519    H2O3
    &END COORD
    &KIND H
      BASIS_SET DZVP-GTH-PADE
      POTENTIAL GTH-PADE-q1
    &END KIND
    &KIND O
      BASIS_SET DZVP-GTH-PADE
      POTENTIAL GTH-PADE-q6
    &END KIND
  &END SUBSYS
  &EP
    comp_input H2O-sys.inp
    at_per_mol 3
  &END
&END FORCE_EVAL
&GLOBAL
  PROJECT H2O
  RUN_TYPE MD # DEBUG #
  PRINT_LEVEL LOW
&END GLOBAL
&MOTION
  &MD
    ENSEMBLE NVT
    STEPS 1
    TIMESTEP 0.1
    TEMPERATURE 300.0
    &THERMOSTAT
      &NOSE
        LENGTH 3
        YOSHIDA 3
        TIMECON 100.0
        MTS 2
      &END NOSE
    &END THERMOSTAT
  &END MD
&END MOTION
