# comment out for DFT
@SET QS_METHOD SE
# uncomment for DFT - too slow for regtest, though
# @SET QS_METHOD DFT
# USER set the DFT functional, e.g. BLYP or PBE
@SET DFT_FUNCTIONAL BLYP
&FORCE_EVAL
  METHOD QMMM
  @IF ${QS_METHOD} == SE
  &DFT
    CHARGE -1
    &QS
      METHOD AM1
      &SE
      &END SE
    &END QS
    &SCF
      EPS_SCF 1.0E-7
      SCF_GUESS ATOMIC
      &PRINT
        &RESTART off
        &END RESTART
      &END PRINT
    &END SCF
  &END DFT
  @ENDIF
  @IF ${QS_METHOD} == DFT
  &DFT
    BASIS_SET_FILE_NAME BASIS_SET
    CHARGE -1
    POTENTIAL_FILE_NAME POTENTIAL
    WFN_RESTART_FILE_NAME wfn.restart.protonated
    &MGRID
      COMMENSURATE
      CUTOFF 280.0
      NGRIDS 4
      REL_CUTOFF 30.0
    &END MGRID
    &POISSON
      PERIODIC XYZ
      POISSON_SOLVER PERIODIC
      &EWALD
        ALPHA 0.35
        EWALD_ACCURACY 1.E-6
        EWALD_TYPE EWALD
        GMAX 53 61 67
      &END EWALD
    &END POISSON
    &QS
      EPS_DEFAULT 1.0E-12
      EXTRAPOLATION PS
      EXTRAPOLATION_ORDER 1
    &END QS
    &SCF
      EPS_SCF 1.0E-6
      MAX_SCF 20
      SCF_GUESS restart
      &OT
        MINIMIZER CG
        PRECONDITIONER FULL_ALL
      &END OT
      &OUTER_SCF
        EPS_SCF 1.0E-6
        MAX_SCF 100
      &END OUTER_SCF
    &END SCF
    &XC
      &VDW_POTENTIAL
        POTENTIAL_TYPE PAIR_POTENTIAL
        &PAIR_POTENTIAL
          REFERENCE_FUNCTIONAL ${DFT_FUNCTIONAL}
          TYPE DFTD2
        &END PAIR_POTENTIAL
      &END VDW_POTENTIAL
      &XC_FUNCTIONAL ${DFT_FUNCTIONAL}
      &END XC_FUNCTIONAL
      &XC_GRID
        # USE_FINER_GRID
        XC_DERIV NN10_SMOOTH
        XC_SMOOTH_RHO NN10
      &END XC_GRID
    &END XC
    #    &PRINT
    #      &MULLIKEN
    #   FILENAME qmcharges
    #   COMMON_ITERATION_LEVELS 0
    #      &END MULLIKEN
    #    &END PRINT
  &END DFT
  @ENDIF
  &MM
    &FORCEFIELD
      # for LM AMBER params
      EI_SCALE14 0.83333
      PARMTYPE CHM
      PARM_FILE_NAME ../sample_pot/tyrosine.pot
    &END FORCEFIELD
    &POISSON
      @IF ${QS_METHOD} == DFT
      PERIODIC XYZ
      POISSON_SOLVER PERIODIC
      @ENDIF
      &EWALD
        ALPHA 0.35
        EWALD_ACCURACY 1.E-6
        EWALD_TYPE SPME
        GMAX 53 61 67
      &END EWALD
    &END POISSON
  &END MM
  &QMMM
    &QM_KIND O
      MM_INDEX 4
      MM_INDEX 23
    &END QM_KIND
    &QM_KIND C
      MM_INDEX 3
    &END QM_KIND
    &LINK
      MM_INDEX 2
      QM_INDEX 3
    &END LINK
    &FORCE_MIXING
      ADAPTIVE_EXCLUDE_MOLECULES M1
      EXTENDED_DELTA_CHARGE 0
      MAX_N_QM 300
      QM_KIND_ELEMENT_MAPPING H H
      QM_KIND_ELEMENT_MAPPING O O
      QM_KIND_ELEMENT_MAPPING N N
      QM_KIND_ELEMENT_MAPPING C C
      R_BUF 3.0 3.5
      R_CORE 1.3 1.5
      R_QM 3.0 3.5
      &BUFFER_NON_ADAPTIVE
        &LINK
          MM_INDEX 12
          QM_INDEX 11
        &END LINK
        &QM_KIND C
          MM_INDEX 5
          MM_INDEX 6
          MM_INDEX 7
          MM_INDEX 8
          MM_INDEX 9
          MM_INDEX 10
          MM_INDEX 11
        &END QM_KIND
        &QM_KIND H
          MM_INDEX 15
          MM_INDEX 16
          MM_INDEX 17
          MM_INDEX 18
          MM_INDEX 19
          MM_INDEX 20
        &END QM_KIND
      &END BUFFER_NON_ADAPTIVE
      &QM_NON_ADAPTIVE
        &QM_KIND N
          MM_INDEX 1
        &END QM_KIND
        &QM_KIND C
          MM_INDEX 2
        &END QM_KIND
        &QM_KIND H
          MM_INDEX 13
          MM_INDEX 14
          MM_INDEX 21
        &END QM_KIND
      &END QM_NON_ADAPTIVE
    &END FORCE_MIXING
    &CELL
      # big enough for QM region atoms plus a bit
      ABC 18.0 18.0 18.0
      @IF ${QS_METHOD} == DFT
      PERIODIC XYZ
      @ENDIF
    &END CELL
    @IF ${QS_METHOD} == SE
    # SE only supports COULOMB
    ECOUPL COULOMB
    @ENDIF
    @IF ${QS_METHOD} == DFT
    #GAUSS is from Laino 2005 using Blochl 1995, Gaussian expansion of the electrostatic potential
    ECOUPL GAUSS
    @ENDIF
    USE_GEEP_LIB 10
    &MM_KIND OX
      RADIUS 1.2
    &END MM_KIND
    &MM_KIND HX
      RADIUS 0.44
    &END MM_KIND
  &END QMMM
  &SUBSYS
    &CELL
      @IF ${QS_METHOD} == DFT
      PERIODIC XYZ
      @ENDIF
      ABC [angstrom] 32.82913000 32.82913000 32.82913000
    &END CELL
    #USER: BASIS_SET - double zeta in valence + polarization (DZVP)
    #USER: try to use basis functions consistent with POTENTIAL (e.g. GTH) and XC_FUNCTIONAL (e.g. BLYP)
    # for all
    &KIND H
      BASIS_SET DZVP-GTH-${DFT_FUNCTIONAL}
      POTENTIAL GTH-${DFT_FUNCTIONAL}-q1
    &END KIND
    &KIND C
      BASIS_SET DZVP-GTH-${DFT_FUNCTIONAL}
      POTENTIAL GTH-${DFT_FUNCTIONAL}-q4
    &END KIND
    &KIND N
      BASIS_SET DZVP-GTH-${DFT_FUNCTIONAL}
      POTENTIAL GTH-${DFT_FUNCTIONAL}-q5
    &END KIND
    &KIND O
      BASIS_SET DZVP-GTH-${DFT_FUNCTIONAL}
      POTENTIAL GTH-${DFT_FUNCTIONAL}-q6
    &END KIND
    &KIND Cl
      BASIS_SET DZVP-GTH-${DFT_FUNCTIONAL}
      POTENTIAL GTH-${DFT_FUNCTIONAL}-q7
    &END KIND
    &KIND S
      BASIS_SET DZVP-GTH-${DFT_FUNCTIONAL}
      POTENTIAL GTH-${DFT_FUNCTIONAL}-q6
    &END KIND
    &KIND OX
      ELEMENT O
    &END KIND
    &KIND HX
      ELEMENT H
    &END KIND
    &TOPOLOGY
      CONNECTIVITY PSF
      CONN_FILE_NAME ../sample_psf/tyrosine_NVT.psf
      COORDINATE PDB
      COORD_FILE_NAME ../sample_pdb/tyrosine_NVT.pdb
      &DUMP_PDB off
      &END DUMP_PDB
    &END TOPOLOGY
    &VELOCITY
      0.0 0.0 0.0
      0.0 0.0 0.0
      0.0 0.0 0.0
      0.0 0.0 0.0
      0.0 0.0 0.0
      0.0 0.0 0.0
      0.0 0.0 0.0
      0.0 0.0 0.0
      0.0 0.0 0.0
      0.0 0.0 0.0
      0.0 0.0 0.0
      0.0 0.0 0.0
      0.0 0.0 0.0
      0.0 0.0 0.0
      0.0 0.0 0.0
      0.0 0.0 0.0
      0.0 0.0 0.0
      0.0 0.0 0.0
      0.0 0.0 0.0
      0.0 0.0 0.0
      0.0 0.0 0.0
      0.0 0.0 0.0
      0.0 0.0 0.0
      0.0 0.0 0.0
      0.0 0.0 0.0
      0.0 0.0 0.0
      0.0 0.0 0.0
      0.0 0.0 0.0
      0.0 0.0 0.0
      0.0 0.0 0.0
      0.0 0.0 0.0
      0.0 0.0 0.0
      0.0 0.0 0.0
      0.0 0.0 0.0
      0.0 0.0 0.0
      0.0 0.0 0.0
      0.0 0.0 0.0
      0.0 0.0 0.0
      0.0 0.0 0.0
      0.0 0.0 0.0
      0.0 0.0 0.0
      0.0 0.0 0.0
      0.0 0.0 0.0
      0.0 0.0 0.0
      0.0 0.0 0.0
      0.0 0.0 0.0
      0.0 0.0 0.0
      0.0 0.0 0.0
      0.0 0.0 0.0
      0.0 0.0 0.0
      0.0 0.0 0.0
      0.0 0.0 0.0
      0.0 0.0 0.0
      0.0 0.0 0.0
      0.0 0.0 0.0
      0.0 0.0 0.0
      0.0 0.0 0.0
      0.0 0.0 0.0
      0.0 0.0 0.0
      0.0 0.0 0.0
      0.0 0.0 0.0
      0.0 0.0 0.0
      0.0 0.0 0.0
      0.0 0.0 0.0
      0.0 0.0 0.0
      0.0 0.0 0.0
      0.0 0.0 0.0
      0.0 0.0 0.0
      0.0 0.0 0.0
      0.0 0.0 0.0
      0.0 0.0 0.0
      0.0 0.0 0.0
      0.0 0.0 0.0
      0.0 0.0 0.0
      0.0 0.0 0.0
      0.0 0.0 0.0
      0.0 0.0 0.0
      0.0 0.0 0.0
      0.0 0.0 0.0
      0.0 0.0 0.0
      0.0 0.0 0.0
      0.0 0.0 0.0
      0.0 0.0 0.0
      0.0 0.0 0.0
      0.0 0.0 0.0
      0.0 0.0 0.0
      0.0 0.0 0.0
      0.0 0.0 0.0
      0.0 0.0 0.0
      0.0 0.0 0.0
      0.0 0.0 0.0
      0.0 0.0 0.0
      0.0 0.0 0.0
      0.0 0.0 0.0
      0.0 0.0 0.0
      0.0 0.0 0.0
      0.0 0.0 0.0
      0.0 0.0 0.0
      0.0 0.0 0.0
      0.0 0.0 0.0
      0.0 0.0 0.0
      0.0 0.0 0.0
      0.0 0.0 0.0
      0.0 0.0 0.0
      0.0 0.0 0.0
      0.0 0.0 0.0
      0.0 0.0 0.0
      0.0 0.0 0.0
      0.0 0.0 0.0
      0.0 0.0 0.0
      0.0 0.0 0.0
      0.0 0.0 0.0
      0.0 0.0 0.0
      0.0 0.0 0.0
      0.0 0.0 0.0
      0.0 0.0 0.0
      0.0 0.0 0.0
      0.0 0.0 0.0
      0.0 0.0 0.0
      0.0 0.0 0.0
      0.0 0.0 0.0
      0.0 0.0 0.0
      0.0 0.0 0.0
      0.0 0.0 0.0
      0.0 0.0 0.0
      0.0 0.0 0.0
      0.0 0.0 0.0
      0.0 0.0 0.0
      0.0 0.0 0.0
      0.0 0.0 0.0
      0.0 0.0 0.0
      0.0 0.0 0.0
      0.0 0.0 0.0
      0.0 0.0 0.0
      0.0 0.0 0.0
      0.0 0.0 0.0
      0.0 0.0 0.0
      0.0 0.0 0.0
      0.0 0.0 0.0
      0.0 0.0 0.0
      0.0 0.0 0.0
      0.0 0.0 0.0
      0.0 0.0 0.0
      0.0 0.0 0.0
      0.0 0.0 0.0
      0.0 0.0 0.0
      0.0 0.0 0.0
      0.0 0.0 0.0
      0.0 0.0 0.0
      0.0 0.0 0.0
      0.0 0.0 0.0
      0.0 0.0 0.0
      0.0 0.0 0.0
      0.0 0.0 0.0
      0.0 0.0 0.0
      0.0 0.0 0.0
      0.0 0.0 0.0
      0.0 0.0 0.0
      0.0 0.0 0.0
      0.0 0.0 0.0
      0.0 0.0 0.0
      0.0 0.0 0.0
      0.0 0.0 0.0
      0.0 0.0 0.0
      0.0 0.0 0.0
      0.0 0.0 0.0
      0.0 0.0 0.0
      0.0 0.0 0.0
      0.0 0.0 0.0
      0.0 0.0 0.0
      0.0 0.0 0.0
      0.0 0.0 0.0
      0.0 0.0 0.0
      0.0 0.0 0.0
      0.0 0.0 0.0
      0.0 0.0 0.0
      0.0 0.0 0.0
      0.0 0.0 0.0
      0.0 0.0 0.0
      0.0 0.0 0.0
      0.0 0.0 0.0
      0.0 0.0 0.0
      0.0 0.0 0.0
      0.0 0.0 0.0
      0.0 0.0 0.0
      0.0 0.0 0.0
      0.0 0.0 0.0
      0.0 0.0 0.0
      0.0 0.0 0.0
      0.0 0.0 0.0
      0.0 0.0 0.0
      0.0 0.0 0.0
      0.0 0.0 0.0
      0.0 0.0 0.0
      0.0 0.0 0.0
      0.0 0.0 0.0
      0.0 0.0 0.0
      0.0 0.0 0.0
      0.0 0.0 0.0
      0.0 0.0 0.0
      0.0 0.0 0.0
      0.0 0.0 0.0
      0.0 0.0 0.0
      0.0 0.0 0.0
      0.0 0.0 0.0
      0.0 0.0 0.0
      0.0 0.0 0.0
      0.0 0.0 0.0
      0.0 0.0 0.0
      0.0 0.0 0.0
      0.0 0.0 0.0
      0.0 0.0 0.0
      0.0 0.0 0.0
      0.0 0.0 0.0
      0.0 0.0 0.0
      0.0 0.0 0.0
      0.0 0.0 0.0
      0.0 0.0 0.0
      0.0 0.0 0.0
      0.0 0.0 0.0
      0.0 0.0 0.0
      0.0 0.0 0.0
      0.0 0.0 0.0
      0.0 0.0 0.0
      0.0 0.0 0.0
      0.0 0.0 0.0
      0.0 0.0 0.0
      0.0 0.0 0.0
      0.0 0.0 0.0
      0.0 0.0 0.0
      0.0 0.0 0.0
      0.0 0.0 0.0
      0.0 0.0 0.0
      0.0 0.0 0.0
      0.0 0.0 0.0
      0.0 0.0 0.0
      0.0 0.0 0.0
      0.0 0.0 0.0
      0.0 0.0 0.0
      0.0 0.0 0.0
      0.0 0.0 0.0
      0.0 0.0 0.0
      0.0 0.0 0.0
      0.0 0.0 0.0
      0.0 0.0 0.0
      0.0 0.0 0.0
      0.0 0.0 0.0
      0.0 0.0 0.0
      0.0 0.0 0.0
      0.0 0.0 0.0
      0.0 0.0 0.0
      0.0 0.0 0.0
      0.0 0.0 0.0
      0.0 0.0 0.0
      0.0 0.0 0.0
      0.0 0.0 0.0
      0.0 0.0 0.0
      0.0 0.0 0.0
      0.0 0.0 0.0
      0.0 0.0 0.0
      0.0 0.0 0.0
      0.0 0.0 0.0
      0.0 0.0 0.0
      0.0 0.0 0.0
      0.0 0.0 0.0
      0.0 0.0 0.0
      0.0 0.0 0.0
      0.0 0.0 0.0
      0.0 0.0 0.0
      0.0 0.0 0.0
      0.0 0.0 0.0
      0.0 0.0 0.0
      0.0 0.0 0.0
      0.0 0.0 0.0
      0.0 0.0 0.0
      0.0 0.0 0.0
      0.0 0.0 0.0
      0.0 0.0 0.0
      0.0 0.0 0.0
      0.0 0.0 0.0
      0.0 0.0 0.0
      0.0 0.0 0.0
      0.0 0.0 0.0
      0.0 0.0 0.0
      0.0 0.0 0.0
      0.0 0.0 0.0
      0.0 0.0 0.0
      0.0 0.0 0.0
      0.0 0.0 0.0
      0.0 0.0 0.0
      0.0 0.0 0.0
      0.0 0.0 0.0
      0.0 0.0 0.0
      0.0 0.0 0.0
      0.0 0.0 0.0
      0.0 0.0 0.0
      0.0 0.0 0.0
      0.0 0.0 0.0
      0.0 0.0 0.0
      0.0 0.0 0.0
      0.0 0.0 0.0
      0.0 0.0 0.0
      0.0 0.0 0.0
      0.0 0.0 0.0
      0.0 0.0 0.0
      0.0 0.0 0.0
      0.0 0.0 0.0
      0.0 0.0 0.0
      0.0 0.0 0.0
      0.0 0.0 0.0
      0.0 0.0 0.0
      0.0 0.0 0.0
      0.0 0.0 0.0
      0.0 0.0 0.0
      0.0 0.0 0.0
      0.0 0.0 0.0
      0.0 0.0 0.0
      0.0 0.0 0.0
      0.0 0.0 0.0
      0.0 0.0 0.0
      0.0 0.0 0.0
      0.0 0.0 0.0
      0.0 0.0 0.0
      0.0 0.0 0.0
      0.0 0.0 0.0
      0.0 0.0 0.0
      0.0 0.0 0.0
      0.0 0.0 0.0
      0.0 0.0 0.0
      0.0 0.0 0.0
      0.0 0.0 0.0
      0.0 0.0 0.0
      0.0 0.0 0.0
      0.0 0.0 0.0
      0.0 0.0 0.0
      0.0 0.0 0.0
      0.0 0.0 0.0
      0.0 0.0 0.0
      0.0 0.0 0.0
      0.0 0.0 0.0
      0.0 0.0 0.0
      0.0 0.0 0.0
      0.0 0.0 0.0
      0.0 0.0 0.0
      0.0 0.0 0.0
      0.0 0.0 0.0
      0.0 0.0 0.0
      0.0 0.0 0.0
      0.0 0.0 0.0
      0.0 0.0 0.0
      0.0 0.0 0.0
      0.0 0.0 0.0
      0.0 0.0 0.0
      0.0 0.0 0.0
      0.0 0.0 0.0
      0.0 0.0 0.0
      0.0 0.0 0.0
      0.0 0.0 0.0
      0.0 0.0 0.0
      0.0 0.0 0.0
      0.0 0.0 0.0
      0.0 0.0 0.0
      0.0 0.0 0.0
      0.0 0.0 0.0
      0.0 0.0 0.0
      0.0 0.0 0.0
      0.0 0.0 0.0
      0.0 0.0 0.0
      0.0 0.0 0.0
      0.0 0.0 0.0
      0.0 0.0 0.0
      0.0 0.0 0.0
      0.0 0.0 0.0
      0.0 0.0 0.0
      0.0 0.0 0.0
      0.0 0.0 0.0
      0.0 0.0 0.0
      0.0 0.0 0.0
      0.0 0.0 0.0
      0.0 0.0 0.0
      0.0 0.0 0.0
      0.0 0.0 0.0
      0.0 0.0 0.0
      0.0 0.0 0.0
      0.0 0.0 0.0
      0.0 0.0 0.0
      0.0 0.0 0.0
      0.0 0.0 0.0
      0.0 0.0 0.0
      0.0 0.0 0.0
      0.0 0.0 0.0
      0.0 0.0 0.0
      0.0 0.0 0.0
      0.0 0.0 0.0
      0.0 0.0 0.0
      0.0 0.0 0.0
      0.0 0.0 0.0
      0.0 0.0 0.0
      0.0 0.0 0.0
      0.0 0.0 0.0
      0.0 0.0 0.0
      0.0 0.0 0.0
      0.0 0.0 0.0
      0.0 0.0 0.0
      0.0 0.0 0.0
      0.0 0.0 0.0
      0.0 0.0 0.0
      0.0 0.0 0.0
      0.0 0.0 0.0
      0.0 0.0 0.0
      0.0 0.0 0.0
      0.0 0.0 0.0
      0.0 0.0 0.0
      0.0 0.0 0.0
      0.0 0.0 0.0
      0.0 0.0 0.0
      0.0 0.0 0.0
      0.0 0.0 0.0
      0.0 0.0 0.0
      0.0 0.0 0.0
      0.0 0.0 0.0
      0.0 0.0 0.0
      0.0 0.0 0.0
      0.0 0.0 0.0
      0.0 0.0 0.0
      0.0 0.0 0.0
      0.0 0.0 0.0
      0.0 0.0 0.0
      0.0 0.0 0.0
      0.0 0.0 0.0
      0.0 0.0 0.0
      0.0 0.0 0.0
      0.0 0.0 0.0
      0.0 0.0 0.0
      0.0 0.0 0.0
      0.0 0.0 0.0
      0.0 0.0 0.0
      0.0 0.0 0.0
      0.0 0.0 0.0
      0.0 0.0 0.0
      0.0 0.0 0.0
      0.0 0.0 0.0
      0.0 0.0 0.0
      0.0 0.0 0.0
      0.0 0.0 0.0
      0.0 0.0 0.0
      0.0 0.0 0.0
      0.0 0.0 0.0
      0.0 0.0 0.0
      0.0 0.0 0.0
      0.0 0.0 0.0
      0.0 0.0 0.0
      0.0 0.0 0.0
      0.0 0.0 0.0
      0.0 0.0 0.0
      0.0 0.0 0.0
      0.0 0.0 0.0
      0.0 0.0 0.0
      0.0 0.0 0.0
      0.0 0.0 0.0
      0.0 0.0 0.0
      0.0 0.0 0.0
      0.0 0.0 0.0
      0.0 0.0 0.0
      0.0 0.0 0.0
      0.0 0.0 0.0
      0.0 0.0 0.0
      0.0 0.0 0.0
      0.0 0.0 0.0
      0.0 0.0 0.0
      0.0 0.0 0.0
      0.0 0.0 0.0
      0.0 0.0 0.0
      0.0 0.0 0.0
      0.0 0.0 0.0
      0.0 0.0 0.0
      0.0 0.0 0.0
      0.0 0.0 0.0
      0.0 0.0 0.0
      0.0 0.0 0.0
      0.0 0.0 0.0
      0.0 0.0 0.0
      0.0 0.0 0.0
      0.0 0.0 0.0
      0.0 0.0 0.0
      0.0 0.0 0.0
      0.0 0.0 0.0
      0.0 0.0 0.0
      0.0 0.0 0.0
      0.0 0.0 0.0
      0.0 0.0 0.0
      0.0 0.0 0.0
      0.0 0.0 0.0
      0.0 0.0 0.0
      0.0 0.0 0.0
      0.0 0.0 0.0
      0.0 0.0 0.0
      0.0 0.0 0.0
      0.0 0.0 0.0
      0.0 0.0 0.0
      0.0 0.0 0.0
      0.0 0.0 0.0
      0.0 0.0 0.0
      0.0 0.0 0.0
      0.0 0.0 0.0
      0.0 0.0 0.0
      0.0 0.0 0.0
      0.0 0.0 0.0
      0.0 0.0 0.0
      0.0 0.0 0.0
      0.0 0.0 0.0
      0.0 0.0 0.0
      0.0 0.0 0.0
      0.0 0.0 0.0
      0.0 0.0 0.0
      0.0 0.0 0.0
      0.0 0.0 0.0
      0.0 0.0 0.0
      0.0 0.0 0.0
      0.0 0.0 0.0
      0.0 0.0 0.0
      0.0 0.0 0.0
      0.0 0.0 0.0
      0.0 0.0 0.0
      0.0 0.0 0.0
      0.0 0.0 0.0
      0.0 0.0 0.0
      0.0 0.0 0.0
      0.0 0.0 0.0
      0.0 0.0 0.0
      0.0 0.0 0.0
      0.0 0.0 0.0
      0.0 0.0 0.0
      0.0 0.0 0.0
      0.0 0.0 0.0
      0.0 0.0 0.0
      0.0 0.0 0.0
      0.0 0.0 0.0
      0.0 0.0 0.0
      0.0 0.0 0.0
      0.0 0.0 0.0
      0.0 0.0 0.0
      0.0 0.0 0.0
      0.0 0.0 0.0
      0.0 0.0 0.0
      0.0 0.0 0.0
      0.0 0.0 0.0
      0.0 0.0 0.0
      0.0 0.0 0.0
      0.0 0.0 0.0
      0.0 0.0 0.0
      0.0 0.0 0.0
      0.0 0.0 0.0
      0.0 0.0 0.0
      0.0 0.0 0.0
      0.0 0.0 0.0
      0.0 0.0 0.0
      0.0 0.0 0.0
      0.0 0.0 0.0
      0.0 0.0 0.0
      0.0 0.0 0.0
      0.0 0.0 0.0
      0.0 0.0 0.0
      0.0 0.0 0.0
      0.0 0.0 0.0
      0.0 0.0 0.0
      0.0 0.0 0.0
      0.0 0.0 0.0
      0.0 0.0 0.0
      0.0 0.0 0.0
      0.0 0.0 0.0
      0.0 0.0 0.0
      0.0 0.0 0.0
      0.0 0.0 0.0
      0.0 0.0 0.0
      0.0 0.0 0.0
      0.0 0.0 0.0
      0.0 0.0 0.0
      0.0 0.0 0.0
      0.0 0.0 0.0
      0.0 0.0 0.0
      0.0 0.0 0.0
      0.0 0.0 0.0
      0.0 0.0 0.0
      0.0 0.0 0.0
      0.0 0.0 0.0
      0.0 0.0 0.0
      0.0 0.0 0.0
      0.0 0.0 0.0
      0.0 0.0 0.0
      0.0 0.0 0.0
      0.0 0.0 0.0
      0.0 0.0 0.0
      0.0 0.0 0.0
      0.0 0.0 0.0
      0.0 0.0 0.0
      0.0 0.0 0.0
      0.0 0.0 0.0
      0.0 0.0 0.0
      0.0 0.0 0.0
      0.0 0.0 0.0
      0.0 0.0 0.0
      0.0 0.0 0.0
      0.0 0.0 0.0
      0.0 0.0 0.0
      0.0 0.0 0.0
      0.0 0.0 0.0
      0.0 0.0 0.0
      0.0 0.0 0.0
      0.0 0.0 0.0
      0.0 0.0 0.0
      0.0 0.0 0.0
      0.0 0.0 0.0
      0.0 0.0 0.0
      0.0 0.0 0.0
      0.0 0.0 0.0
      0.0 0.0 0.0
      0.0 0.0 0.0
      0.0 0.0 0.0
      0.0 0.0 0.0
      0.0 0.0 0.0
      0.0 0.0 0.0
      0.0 0.0 0.0
      0.0 0.0 0.0
      0.0 0.0 0.0
      0.0 0.0 0.0
      0.0 0.0 0.0
      0.0 0.0 0.0
      0.0 0.0 0.0
      0.0 0.0 0.0
      0.0 0.0 0.0
      0.0 0.0 0.0
      0.0 0.0 0.0
      0.0 0.0 0.0
      0.0 0.0 0.0
      0.0 0.0 0.0
      0.0 0.0 0.0
      0.0 0.0 0.0
      0.0 0.0 0.0
      0.0 0.0 0.0
      0.0 0.0 0.0
      0.0 0.0 0.0
      0.0 0.0 0.0
      0.0 0.0 0.0
      0.0 0.0 0.0
      0.0 0.0 0.0
      0.0 0.0 0.0
      0.0 0.0 0.0
      0.0 0.0 0.0
      0.0 0.0 0.0
      0.0 0.0 0.0
      0.0 0.0 0.0
      0.0 0.0 0.0
      0.0 0.0 0.0
      0.0 0.0 0.0
      0.0 0.0 0.0
      0.0 0.0 0.0
      0.0 0.0 0.0
      0.0 0.0 0.0
      0.0 0.0 0.0
      0.0 0.0 0.0
      0.0 0.0 0.0
      0.0 0.0 0.0
      0.0 0.0 0.0
      0.0 0.0 0.0
      0.0 0.0 0.0
      0.0 0.0 0.0
      0.0 0.0 0.0
      0.0 0.0 0.0
      0.0 0.0 0.0
      0.0 0.0 0.0
      0.0 0.0 0.0
      0.0 0.0 0.0
      0.0 0.0 0.0
      0.0 0.0 0.0
      0.0 0.0 0.0
      0.0 0.0 0.0
      0.0 0.0 0.0
      0.0 0.0 0.0
      0.0 0.0 0.0
      0.0 0.0 0.0
      0.0 0.0 0.0
      0.0 0.0 0.0
      0.0 0.0 0.0
      0.0 0.0 0.0
      0.0 0.0 0.0
      0.0 0.0 0.0
      0.0 0.0 0.0
      0.0 0.0 0.0
      0.0 0.0 0.0
      0.0 0.0 0.0
      0.0 0.0 0.0
      0.0 0.0 0.0
      0.0 0.0 0.0
      0.0 0.0 0.0
      0.0 0.0 0.0
      0.0 0.0 0.0
      0.0 0.0 0.0
      0.0 0.0 0.0
      0.0 0.0 0.0
      0.0 0.0 0.0
      0.0 0.0 0.0
      0.0 0.0 0.0
      0.0 0.0 0.0
      0.0 0.0 0.0
      0.0 0.0 0.0
      0.0 0.0 0.0
      0.0 0.0 0.0
      0.0 0.0 0.0
      0.0 0.0 0.0
      0.0 0.0 0.0
      0.0 0.0 0.0
      0.0 0.0 0.0
      0.0 0.0 0.0
      0.0 0.0 0.0
      0.0 0.0 0.0
      0.0 0.0 0.0
      0.0 0.0 0.0
      0.0 0.0 0.0
      0.0 0.0 0.0
      0.0 0.0 0.0
      0.0 0.0 0.0
      0.0 0.0 0.0
      0.0 0.0 0.0
      0.0 0.0 0.0
      0.0 0.0 0.0
      0.0 0.0 0.0
      0.0 0.0 0.0
      0.0 0.0 0.0
      0.0 0.0 0.0
      0.0 0.0 0.0
      0.0 0.0 0.0
      0.0 0.0 0.0
      0.0 0.0 0.0
      0.0 0.0 0.0
      0.0 0.0 0.0
      0.0 0.0 0.0
      0.0 0.0 0.0
      0.0 0.0 0.0
      0.0 0.0 0.0
      0.0 0.0 0.0
      0.0 0.0 0.0
      0.0 0.0 0.0
      0.0 0.0 0.0
      0.0 0.0 0.0
      0.0 0.0 0.0
      0.0 0.0 0.0
      0.0 0.0 0.0
      0.0 0.0 0.0
      0.0 0.0 0.0
      0.0 0.0 0.0
      0.0 0.0 0.0
      0.0 0.0 0.0
      0.0 0.0 0.0
      0.0 0.0 0.0
      0.0 0.0 0.0
      0.0 0.0 0.0
      0.0 0.0 0.0
      0.0 0.0 0.0
      0.0 0.0 0.0
      0.0 0.0 0.0
      0.0 0.0 0.0
      0.0 0.0 0.0
      0.0 0.0 0.0
      0.0 0.0 0.0
      0.0 0.0 0.0
      0.0 0.0 0.0
      0.0 0.0 0.0
      0.0 0.0 0.0
      0.0 0.0 0.0
      0.0 0.0 0.0
      0.0 0.0 0.0
      0.0 0.0 0.0
      0.0 0.0 0.0
      0.0 0.0 0.0
      0.0 0.0 0.0
      0.0 0.0 0.0
      0.0 0.0 0.0
      0.0 0.0 0.0
      0.0 0.0 0.0
      0.0 0.0 0.0
      0.0 0.0 0.0
      0.0 0.0 0.0
      0.0 0.0 0.0
      0.0 0.0 0.0
      0.0 0.0 0.0
      0.0 0.0 0.0
      0.0 0.0 0.0
      0.0 0.0 0.0
      0.0 0.0 0.0
      0.0 0.0 0.0
      0.0 0.0 0.0
      0.0 0.0 0.0
      0.0 0.0 0.0
      0.0 0.0 0.0
      0.0 0.0 0.0
      0.0 0.0 0.0
      0.0 0.0 0.0
      0.0 0.0 0.0
      0.0 0.0 0.0
      0.0 0.0 0.0
      0.0 0.0 0.0
      0.0 0.0 0.0
      0.0 0.0 0.0
      0.0 0.0 0.0
      0.0 0.0 0.0
      0.0 0.0 0.0
      0.0 0.0 0.0
      0.0 0.0 0.0
      0.0 0.0 0.0
      0.0 0.0 0.0
      0.0 0.0 0.0
      0.0 0.0 0.0
      0.0 0.0 0.0
      0.0 0.0 0.0
      0.0 0.0 0.0
      0.0 0.0 0.0
      0.0 0.0 0.0
      0.0 0.0 0.0
      0.0 0.0 0.0
      0.0 0.0 0.0
      0.0 0.0 0.0
      0.0 0.0 0.0
      0.0 0.0 0.0
      0.0 0.0 0.0
      0.0 0.0 0.0
      0.0 0.0 0.0
      0.0 0.0 0.0
      0.0 0.0 0.0
      0.0 0.0 0.0
      0.0 0.0 0.0
      0.0 0.0 0.0
      0.0 0.0 0.0
      0.0 0.0 0.0
      0.0 0.0 0.0
      0.0 0.0 0.0
      0.0 0.0 0.0
      0.0 0.0 0.0
      0.0 0.0 0.0
      0.0 0.0 0.0
      0.0 0.0 0.0
      0.0 0.0 0.0
      0.0 0.0 0.0
      0.0 0.0 0.0
      0.0 0.0 0.0
      0.0 0.0 0.0
      0.0 0.0 0.0
      0.0 0.0 0.0
      0.0 0.0 0.0
      0.0 0.0 0.0
      0.0 0.0 0.0
      0.0 0.0 0.0
      0.0 0.0 0.0
      0.0 0.0 0.0
      0.0 0.0 0.0
      0.0 0.0 0.0
      0.0 0.0 0.0
      0.0 0.0 0.0
      0.0 0.0 0.0
      0.0 0.0 0.0
      0.0 0.0 0.0
      0.0 0.0 0.0
      0.0 0.0 0.0
      0.0 0.0 0.0
      0.0 0.0 0.0
      0.0 0.0 0.0
      0.0 0.0 0.0
      0.0 0.0 0.0
      0.0 0.0 0.0
      0.0 0.0 0.0
      0.0 0.0 0.0
      0.0 0.0 0.0
      0.0 0.0 0.0
      0.0 0.0 0.0
      0.0 0.0 0.0
      0.0 0.0 0.0
      0.0 0.0 0.0
      0.0 0.0 0.0
      0.0 0.0 0.0
      0.0 0.0 0.0
      0.0 0.0 0.0
      0.0 0.0 0.0
      0.0 0.0 0.0
      0.0 0.0 0.0
      0.0 0.0 0.0
      0.0 0.0 0.0
      0.0 0.0 0.0
      0.0 0.0 0.0
      0.0 0.0 0.0
      0.0 0.0 0.0
      0.0 0.0 0.0
      0.0 0.0 0.0
      0.0 0.0 0.0
      0.0 0.0 0.0
      0.0 0.0 0.0
      0.0 0.0 0.0
      0.0 0.0 0.0
      0.0 0.0 0.0
      0.0 0.0 0.0
      0.0 0.0 0.0
      0.0 0.0 0.0
      0.0 0.0 0.0
      0.0 0.0 0.0
      0.0 0.0 0.0
      0.0 0.0 0.0
      0.0 0.0 0.0
      0.0 0.0 0.0
      0.0 0.0 0.0
      0.0 0.0 0.0
      0.0 0.0 0.0
      0.0 0.0 0.0
      0.0 0.0 0.0
      0.0 0.0 0.0
      0.0 0.0 0.0
      0.0 0.0 0.0
      0.0 0.0 0.0
      0.0 0.0 0.0
      0.0 0.0 0.0
      0.0 0.0 0.0
      0.0 0.0 0.0
      0.0 0.0 0.0
      0.0 0.0 0.0
      0.0 0.0 0.0
      0.0 0.0 0.0
      0.0 0.0 0.0
      0.0 0.0 0.0
      0.0 0.0 0.0
      0.0 0.0 0.0
      0.0 0.0 0.0
      0.0 0.0 0.0
      0.0 0.0 0.0
      0.0 0.0 0.0
      0.0 0.0 0.0
      0.0 0.0 0.0
      0.0 0.0 0.0
      0.0 0.0 0.0
      0.0 0.0 0.0
      0.0 0.0 0.0
      0.0 0.0 0.0
      0.0 0.0 0.0
      0.0 0.0 0.0
      0.0 0.0 0.0
      0.0 0.0 0.0
      0.0 0.0 0.0
      0.0 0.0 0.0
      0.0 0.0 0.0
      0.0 0.0 0.0
      0.0 0.0 0.0
      0.0 0.0 0.0
      0.0 0.0 0.0
      0.0 0.0 0.0
      0.0 0.0 0.0
      0.0 0.0 0.0
      0.0 0.0 0.0
      0.0 0.0 0.0
      0.0 0.0 0.0
      0.0 0.0 0.0
      0.0 0.0 0.0
      0.0 0.0 0.0
      0.0 0.0 0.0
      0.0 0.0 0.0
      0.0 0.0 0.0
      0.0 0.0 0.0
      0.0 0.0 0.0
      0.0 0.0 0.0
      0.0 0.0 0.0
      0.0 0.0 0.0
      0.0 0.0 0.0
      0.0 0.0 0.0
      0.0 0.0 0.0
      0.0 0.0 0.0
      0.0 0.0 0.0
      0.0 0.0 0.0
      0.0 0.0 0.0
      0.0 0.0 0.0
      0.0 0.0 0.0
      0.0 0.0 0.0
      0.0 0.0 0.0
      0.0 0.0 0.0
      0.0 0.0 0.0
      0.0 0.0 0.0
      0.0 0.0 0.0
      0.0 0.0 0.0
      0.0 0.0 0.0
      0.0 0.0 0.0
      0.0 0.0 0.0
      0.0 0.0 0.0
      0.0 0.0 0.0
      0.0 0.0 0.0
      0.0 0.0 0.0
      0.0 0.0 0.0
      0.0 0.0 0.0
      0.0 0.0 0.0
      0.0 0.0 0.0
      0.0 0.0 0.0
      0.0 0.0 0.0
      0.0 0.0 0.0
      0.0 0.0 0.0
      0.0 0.0 0.0
      0.0 0.0 0.0
      0.0 0.0 0.0
      0.0 0.0 0.0
      0.0 0.0 0.0
      0.0 0.0 0.0
      0.0 0.0 0.0
      0.0 0.0 0.0
      0.0 0.0 0.0
      0.0 0.0 0.0
      0.0 0.0 0.0
      0.0 0.0 0.0
      0.0 0.0 0.0
      0.0 0.0 0.0
      0.0 0.0 0.0
      0.0 0.0 0.0
      0.0 0.0 0.0
      0.0 0.0 0.0
      0.0 0.0 0.0
      0.0 0.0 0.0
      0.0 0.0 0.0
      0.0 0.0 0.0
      0.0 0.0 0.0
      0.0 0.0 0.0
      0.0 0.0 0.0
      0.0 0.0 0.0
      0.0 0.0 0.0
      0.0 0.0 0.0
      0.0 0.0 0.0
      0.0 0.0 0.0
      0.0 0.0 0.0
      0.0 0.0 0.0
      0.0 0.0 0.0
      0.0 0.0 0.0
      0.0 0.0 0.0
      0.0 0.0 0.0
      0.0 0.0 0.0
      0.0 0.0 0.0
      0.0 0.0 0.0
      0.0 0.0 0.0
      0.0 0.0 0.0
      0.0 0.0 0.0
      0.0 0.0 0.0
      0.0 0.0 0.0
      0.0 0.0 0.0
      0.0 0.0 0.0
      0.0 0.0 0.0
      0.0 0.0 0.0
      0.0 0.0 0.0
      0.0 0.0 0.0
      0.0 0.0 0.0
      0.0 0.0 0.0
      0.0 0.0 0.0
      0.0 0.0 0.0
      0.0 0.0 0.0
      0.0 0.0 0.0
      0.0 0.0 0.0
      0.0 0.0 0.0
      0.0 0.0 0.0
      0.0 0.0 0.0
      0.0 0.0 0.0
      0.0 0.0 0.0
      0.0 0.0 0.0
      0.0 0.0 0.0
      0.0 0.0 0.0
      0.0 0.0 0.0
      0.0 0.0 0.0
      0.0 0.0 0.0
      0.0 0.0 0.0
      0.0 0.0 0.0
      0.0 0.0 0.0
      0.0 0.0 0.0
      0.0 0.0 0.0
      0.0 0.0 0.0
      0.0 0.0 0.0
      0.0 0.0 0.0
      0.0 0.0 0.0
      0.0 0.0 0.0
      0.0 0.0 0.0
      0.0 0.0 0.0
      0.0 0.0 0.0
      0.0 0.0 0.0
      0.0 0.0 0.0
      0.0 0.0 0.0
      0.0 0.0 0.0
      0.0 0.0 0.0
      0.0 0.0 0.0
      0.0 0.0 0.0
      0.0 0.0 0.0
      0.0 0.0 0.0
      0.0 0.0 0.0
      0.0 0.0 0.0
      0.0 0.0 0.0
      0.0 0.0 0.0
      0.0 0.0 0.0
      0.0 0.0 0.0
      0.0 0.0 0.0
      0.0 0.0 0.0
      0.0 0.0 0.0
      0.0 0.0 0.0
      0.0 0.0 0.0
      0.0 0.0 0.0
      0.0 0.0 0.0
      0.0 0.0 0.0
      0.0 0.0 0.0
      0.0 0.0 0.0
      0.0 0.0 0.0
      0.0 0.0 0.0
      0.0 0.0 0.0
      0.0 0.0 0.0
      0.0 0.0 0.0
      0.0 0.0 0.0
      0.0 0.0 0.0
      0.0 0.0 0.0
      0.0 0.0 0.0
      0.0 0.0 0.0
      0.0 0.0 0.0
      0.0 0.0 0.0
      0.0 0.0 0.0
      0.0 0.0 0.0
      0.0 0.0 0.0
      0.0 0.0 0.0
      0.0 0.0 0.0
      0.0 0.0 0.0
      0.0 0.0 0.0
      0.0 0.0 0.0
      0.0 0.0 0.0
      0.0 0.0 0.0
      0.0 0.0 0.0
      0.0 0.0 0.0
      0.0 0.0 0.0
      0.0 0.0 0.0
      0.0 0.0 0.0
      0.0 0.0 0.0
      0.0 0.0 0.0
      0.0 0.0 0.0
      0.0 0.0 0.0
      0.0 0.0 0.0
      0.0 0.0 0.0
      0.0 0.0 0.0
      0.0 0.0 0.0
      0.0 0.0 0.0
      0.0 0.0 0.0
      0.0 0.0 0.0
      0.0 0.0 0.0
      0.0 0.0 0.0
      0.0 0.0 0.0
      0.0 0.0 0.0
      0.0 0.0 0.0
      0.0 0.0 0.0
      0.0 0.0 0.0
      0.0 0.0 0.0
      0.0 0.0 0.0
      0.0 0.0 0.0
      0.0 0.0 0.0
      0.0 0.0 0.0
      0.0 0.0 0.0
      0.0 0.0 0.0
      0.0 0.0 0.0
      0.0 0.0 0.0
      0.0 0.0 0.0
      0.0 0.0 0.0
      0.0 0.0 0.0
      0.0 0.0 0.0
      0.0 0.0 0.0
      0.0 0.0 0.0
      0.0 0.0 0.0
      0.0 0.0 0.0
      0.0 0.0 0.0
      0.0 0.0 0.0
      0.0 0.0 0.0
      0.0 0.0 0.0
      0.0 0.0 0.0
      0.0 0.0 0.0
      0.0 0.0 0.0
      0.0 0.0 0.0
      0.0 0.0 0.0
      0.0 0.0 0.0
      0.0 0.0 0.0
      0.0 0.0 0.0
      0.0 0.0 0.0
      0.0 0.0 0.0
      0.0 0.0 0.0
      0.0 0.0 0.0
      0.0 0.0 0.0
      0.0 0.0 0.0
      0.0 0.0 0.0
      0.0 0.0 0.0
      0.0 0.0 0.0
      0.0 0.0 0.0
      0.0 0.0 0.0
      0.0 0.0 0.0
      0.0 0.0 0.0
      0.0 0.0 0.0
      0.0 0.0 0.0
      0.0 0.0 0.0
      0.0 0.0 0.0
      0.0 0.0 0.0
      0.0 0.0 0.0
      0.0 0.0 0.0
      0.0 0.0 0.0
      0.0 0.0 0.0
      0.0 0.0 0.0
      0.0 0.0 0.0
      0.0 0.0 0.0
      0.0 0.0 0.0
      0.0 0.0 0.0
      0.0 0.0 0.0
      0.0 0.0 0.0
      0.0 0.0 0.0
      0.0 0.0 0.0
      0.0 0.0 0.0
      0.0 0.0 0.0
      0.0 0.0 0.0
      0.0 0.0 0.0
      0.0 0.0 0.0
      0.0 0.0 0.0
      0.0 0.0 0.0
      0.0 0.0 0.0
      0.0 0.0 0.0
      0.0 0.0 0.0
      0.0 0.0 0.0
      0.0 0.0 0.0
      0.0 0.0 0.0
      0.0 0.0 0.0
      0.0 0.0 0.0
      0.0 0.0 0.0
      0.0 0.0 0.0
      0.0 0.0 0.0
      0.0 0.0 0.0
      0.0 0.0 0.0
      0.0 0.0 0.0
      0.0 0.0 0.0
      0.0 0.0 0.0
      0.0 0.0 0.0
      0.0 0.0 0.0
      0.0 0.0 0.0
      0.0 0.0 0.0
      0.0 0.0 0.0
      0.0 0.0 0.0
      0.0 0.0 0.0
      0.0 0.0 0.0
      0.0 0.0 0.0
      0.0 0.0 0.0
      0.0 0.0 0.0
      0.0 0.0 0.0
      0.0 0.0 0.0
      0.0 0.0 0.0
      0.0 0.0 0.0
      0.0 0.0 0.0
      0.0 0.0 0.0
      0.0 0.0 0.0
      0.0 0.0 0.0
      0.0 0.0 0.0
      0.0 0.0 0.0
      0.0 0.0 0.0
      0.0 0.0 0.0
      0.0 0.0 0.0
      0.0 0.0 0.0
      0.0 0.0 0.0
      0.0 0.0 0.0
      0.0 0.0 0.0
      0.0 0.0 0.0
      0.0 0.0 0.0
      0.0 0.0 0.0
      0.0 0.0 0.0
      0.0 0.0 0.0
      0.0 0.0 0.0
      0.0 0.0 0.0
      0.0 0.0 0.0
      0.0 0.0 0.0
      0.0 0.0 0.0
      0.0 0.0 0.0
      0.0 0.0 0.0
      0.0 0.0 0.0
      0.0 0.0 0.0
      0.0 0.0 0.0
      0.0 0.0 0.0
      0.0 0.0 0.0
      0.0 0.0 0.0
      0.0 0.0 0.0
      0.0 0.0 0.0
      0.0 0.0 0.0
      0.0 0.0 0.0
      0.0 0.0 0.0
      0.0 0.0 0.0
      0.0 0.0 0.0
      0.0 0.0 0.0
      0.0 0.0 0.0
      0.0 0.0 0.0
      0.0 0.0 0.0
      0.0 0.0 0.0
      0.0 0.0 0.0
      0.0 0.0 0.0
      0.0 0.0 0.0
      0.0 0.0 0.0
      0.0 0.0 0.0
      0.0 0.0 0.0
      0.0 0.0 0.0
      0.0 0.0 0.0
      0.0 0.0 0.0
      0.0 0.0 0.0
      0.0 0.0 0.0
      0.0 0.0 0.0
      0.0 0.0 0.0
      0.0 0.0 0.0
      0.0 0.0 0.0
      0.0 0.0 0.0
      0.0 0.0 0.0
      0.0 0.0 0.0
      0.0 0.0 0.0
      0.0 0.0 0.0
      0.0 0.0 0.0
      0.0 0.0 0.0
      0.0 0.0 0.0
      0.0 0.0 0.0
      0.0 0.0 0.0
      0.0 0.0 0.0
      0.0 0.0 0.0
      0.0 0.0 0.0
      0.0 0.0 0.0
      0.0 0.0 0.0
      0.0 0.0 0.0
      0.0 0.0 0.0
      0.0 0.0 0.0
      0.0 0.0 0.0
      0.0 0.0 0.0
      0.0 0.0 0.0
      0.0 0.0 0.0
      0.0 0.0 0.0
      0.0 0.0 0.0
      0.0 0.0 0.0
      0.0 0.0 0.0
      0.0 0.0 0.0
      0.0 0.0 0.0
      0.0 0.0 0.0
      0.0 0.0 0.0
      0.0 0.0 0.0
      0.0 0.0 0.0
      0.0 0.0 0.0
      0.0 0.0 0.0
      0.0 0.0 0.0
      0.0 0.0 0.0
      0.0 0.0 0.0
      0.0 0.0 0.0
      0.0 0.0 0.0
      0.0 0.0 0.0
      0.0 0.0 0.0
      0.0 0.0 0.0
      0.0 0.0 0.0
      0.0 0.0 0.0
      0.0 0.0 0.0
      0.0 0.0 0.0
      0.0 0.0 0.0
      0.0 0.0 0.0
      0.0 0.0 0.0
      0.0 0.0 0.0
      0.0 0.0 0.0
      0.0 0.0 0.0
      0.0 0.0 0.0
      0.0 0.0 0.0
      0.0 0.0 0.0
      0.0 0.0 0.0
      0.0 0.0 0.0
      0.0 0.0 0.0
      0.0 0.0 0.0
      0.0 0.0 0.0
      0.0 0.0 0.0