
&FORCE_EVAL
  METHOD Quickstep
  &DFT
    &MGRID
      CUTOFF 300
      REL_CUTOFF 30
    &END MGRID
    &QS
      EPS_DEFAULT 1.0E-12
      EPS_GVG 1.0E-6
      EPS_RHO 1.0E-8
      PAO
    &END QS
    &SCF
      EPS_DIIS 0.1
      EPS_SCF 1.0E-6
      MAX_DIIS 4
      MAX_SCF 30
      &MIXING
        METHOD DIRECT_P_MIXING
        ALPHA 0.4
      &END
      SCF_GUESS atomic
    &END SCF
    &XC
      &XC_FUNCTIONAL Pade
      &END XC_FUNCTIONAL
    &END XC
  &END DFT
  &SUBSYS
    &CELL
      ABC 12.0 12.0 12.0
    &END CELL
    &COORD
    Ar     0.000000  0.000000  0.000000
    &END COORD
    &KIND Ar
      BASIS_SET DZVP-GTH-PADE
      PAO_MIN_BAS 4 3 2 1
      POTENTIAL GTH-PADE-q8
    &END KIND
  &END SUBSYS
&END FORCE_EVAL
&GLOBAL

  PRINT_LEVEL MEDIUM
&END GLOBAL
