&CP2K
 PROGRAM      QUICKSTEP
 PROJECT      H2O
 IOLEVEL      0
 FFTLIB       FFTSG
 RUN_TYPE     spectra
&END

&IO
 BASIS_SET_FILE GTH_BASIS_SETS
 POTENTIAL_FILE POTENTIAL
 RESTART_FILE   RESTART_CN
&END

&DFT
 FUNCTIONAL   PBE
 XC_DERIV     NN10_SMOOTH
 EXCITATIONS  TDDFPT
 LSD
&END

&QS
 CUTOFF       150
 NGRID        4
 REL_CUTOFF   40
&END
 MAP_CONSISTENT
 EPS_DEFAULT  1.0E-12

&SCF
 GUESS        ATOMIC
 MIXING       0.2
 EPS_SCF      1.0E-5
&END

&PRINT low
 LUMOS 5
 NO_CUBE
 HOMOS
&END

&KIND C
 BASIS_SET    DZVP-GTH
 POTENTIAL    GTH-PBE-q4
 LEBEDEV_GRID 70
 RADIAL_GRID  50
&END

&KIND N
 BASIS_SET    DZVP-GTH
 POTENTIAL    GTH-PBE-q5
 LEBEDEV_GRID 70
 RADIAL_GRID  50
&END

&CELL
 UNIT         ANGSTROM 
 ABC          10.0  10.0  10.0
&END
 ABC          20.0  20.0  20.0

&COORD 
  C 0.0 0.0 0.000
  N 0.0 0.0 1.128
&END

&FORCE_EVAL
  &DFT
    &TDDFPT
      RES_ETYPE  SINGLETS
      NEV        3
      REORTHO    2
      KERNEL     Y
      INVERT_S   Y
      PRECOND    N
      MAX_KV     60
      RESTARTS   4
      OE_CORR    NONE
      &XC
      	&XC_FUNCTIONAL
          &PADE
          &END
      	&END XC_FUNCTIONAL
      &END XC
    &END TDDFPT
  &END DFT
&END FORCE_EVAL




