
&FORCE_EVAL
  &DFT
    &MGRID
      CUTOFF 240
    &END MGRID
    &QS
    &END QS
    &SCF
      SCF_GUESS ATOMIC
    &END SCF
    &XC
      &XC_FUNCTIONAL Pade
      &END XC_FUNCTIONAL
    &END XC
  &END DFT
  &SUBSYS
    &CELL
      ABC 10.0 10.0 10.0
      UNIT ANGSTROM
    &END CELL
    &COORD
    O   0.000000    0.000000   -0.065587
    H   0.000000   -0.757136    0.520545
    H   0.000000    0.757136    0.520545
    &END COORD
    &KIND H
      BASIS_SET DZVP-GTH-PADE
      POTENTIAL GTH-PADE-q1
    &END KIND
    &KIND O
      BASIS_SET DZVP-GTH-PADE
      POTENTIAL GTH-PADE-q6
    &END KIND
  &END SUBSYS
&END FORCE_EVAL
&GLOBAL
  FFTLIB FFTSG
  PROGRAM Quickstep
  PROJECT H2O
  RUN_TYPE GEO_OPT
  PRINT_LEVEL LOW
&END GLOBAL
&MOTION
  &GEOOPT
    MAX_ITER 30
    OPTIMIZER BFGS
  &END GEOOPT
&END MOTION
