
&FORCE_EVAL
  &DFT
    LSD
    &MGRID
      CUTOFF 200
    &END MGRID
    &QS
    &END QS
    &SCF
      CHOLESKY OFF
      EPS_SCF 1.0E-5
      MIXING 0.4
      SCF_GUESS ATOMIC
    &END SCF
    &XC
      &XC_FUNCTIONAL Pade
      &END XC_FUNCTIONAL
    &END XC
  &END DFT
  &SUBSYS
    &CELL
      ABC 10.0 10.0 10.0
      UNIT ANGSTROM
    &END CELL
    &COORD
    H   0.000000   -0.757136    0.520545
    O   0.000000    0.000000   -0.065587
    H   0.000000    0.757136    0.520545
    &END COORD
    &KIND H
      BASIS_SET DZV-GTH-PADE
      POTENTIAL GTH-PADE-q1
    &END KIND
    &KIND O
      BASIS_SET DZVP-GTH-PADE
      POTENTIAL GTH-PADE-q6
    &END KIND
  &END SUBSYS
&END FORCE_EVAL
&GLOBAL
  FFTLIB FFTSG
  PROGRAM Quickstep
  RUN_TYPE GEO_OPT
  PRINT_LEVEL LOW
&END GLOBAL
