&CP2K
 PROGRAM      Quickstep
 PROJECT      H2O
 IOLEVEL      0
 FFTLIB       FFTSG
 RUN_TYPE      SPECTRA
&END

&IO
 BASIS_SET_FILE GTH_BASIS_SETS
&END

&TOPOLOGY
&END

&DFT
 FUNCTIONAL   PADE
 EXCITATIONS  tddfpt
&END

&QS
 CUTOFF       160
&END

&SCF
 GUESS        ATOMIC
 MIXING       0.4
 EPS_SCF      1.0E-5
&END

&PRINT LOW
 LUMOS 5
 NO_CUBE
&END

&KIND H
 BASIS_SET    AUG-DZVP-GTH
 POTENTIAL    GTH-PADE-q1
&END

&KIND O
 BASIS_SET    AUG-DZVP-GTH
 POTENTIAL    GTH-PADE-q6
&END

&CELL
 UNIT         ANGSTROM
 ABC          10.0  10.0  10.0
&END

&COORD 
 O   0.000000    0.000000   -0.065587
 H   0.000000   -0.757136    0.520545
 H   0.000000    0.757136    0.520545
&END

&FORCE_EVAL
  &DFT
    &TDDFPT
      RES_ETYPE  SINGLETS
      NEV        3
      REORTHO    2
      KERNEL     Y
      INVERT_S   Y
      MAX_KV     60
      RESTARTS   2
      OE_CORR    SAOP
      &XC
      	&XC_FUNCTIONAL
      	  &PBEX
      	  &END
      	  &PBEC
      	  &END
      	&END XC_FUNCTIONAL
      &END XC
    &END TDDFPT
  &END DFT
&END FORCE_EVAL

