
&FORCE_EVAL
  &DFT
    BASIS_SET_FILE_NAME GTH_BASIS_SETS
    POTENTIAL_FILE_NAME POTENTIAL
    &MGRID
      CUTOFF 250 # 5000
      REL_CUTOFF 30
    &END MGRID
    &QS
    &END QS
    &SCF
      SCF_GUESS restart
    # MAX_SCF 1
    # OT
    &END SCF
    &XC
      DENSITY_CUTOFF 1.e-9
      DENSITY_SMOOTH_CUTOFF_RANGE 0
      &XC_FUNCTIONAL PADE
      &END XC_FUNCTIONAL
      &XC_GRID
      # FUNCTIONAL_ROUTINE DEBUG # TEST # TEST_LSD # DEBUG
        XC_DERIV NN50_SMOOTH # NN6_SMOOTH
        XC_SMOOTH_RHO NN50 # N10
      &END XC_GRID
    &END XC
  &END DFT
  &DFT
    BASIS_SET_FILE_NAME ../BASISSET
    &SCF
      EPS_SCF 1.e-6
      MAX_SCF 100
    &END SCF
    &XC
      &GRID
        XC_DERIV SPLINE2
      &END GRID
      &XC_FUNCTIONAL
        &BECKE88
        &END BECKE88
        &LYP
        &END LYP
      &END XC_FUNCTIONAL
    &END XC
  # &qs
  # &tddfpt
  &END DFT
  &SUBSYS
    &CELL
      ABC 5.0 5.0 5.0
      UNIT ANGSTROM
    &END CELL
    &CONSTRAINT
      SHAKE 1.0E-10
    &END CONSTRAINT
  # CELL_REF
  # END
    &COORD
    O   2.500000    2.500000    1.934413
    H   2.500000    1.742864    2.520545
    H   2.500000    3.257136    2.520545
    &END COORD
    &KIND H
      BASIS_SET DZVP-GTH
      POTENTIAL GTH-PBE-q1
    &END KIND
    &KIND O
      BASIS_SET DZVP-GTH
      LDA_CORE_RADIUS 0 0 0 0
      POTENTIAL GTH-PBE-q6
    &END KIND
  # cell
  # topology
  # kind
  # coord
  &END SUBSYS
# &mm &fist
# &qmmm
# &metadyn
&END FORCE_EVAL
# ############### old input to keeep cp2k happy ##############
&GLOBAL
  FFTLIB FFTESSL
  PROGRAM Quickstep
  PROJECT H2O
  PRINT_LEVEL MEDIUM
# RUN_TYPE geo_opt
&END GLOBAL
&GLOBAL
  FFTLIB FFTSG
  PRINT_LEVEL LOW
  PROGRAM Quickstep
  PROJECT H2O
&END GLOBAL
&MOTION
  &GEOOPT
    MAX_ITER 0
  &END GEOOPT
  &MD
    ENSEMBLE NVE
    STEPS 1
    TIMESTEP 0.1
    TEMPERATURE 0.0
    RESTART INIT
    &NOSE
      LENGTH 3
      YOSHIDA 3
      TIMECON 100.0
      MTS 2
    &END NOSE
  &END MD
&END MOTION
