
&FORCE_EVAL
  METHOD TBMD
  &TBMD
    NOISY-TB FALSE
    &TBMD_NEIGHBOR_LIST
      R_CUTOFF 3.75
      VERLET_SKIN 1.0
    &END TBMD_NEIGHBOR_LIST
    &TB_MODEL
      TB-MODEL GSP
    &END TB_MODEL
  &END TBMD
  &SUBSYS
    &CELL
      ABC 27.1550 27.1550 27.1550
      UNIT ANGSTROM
    &END CELL
    &COORD
   SI    0.000000    0.000000    0.000000
   SI    0.000000    2.715000    2.715000
   SI    2.715000    2.715000    0.000000
   SI    2.715000    0.000000    2.715000
   SI    4.073000    1.358000    4.073000
   SI    1.358000    1.358000    1.358000
   SI    1.358000    4.073000    4.073000
   SI    4.073000    4.073000    1.358000
   SI    0.000000    0.000000    5.431000
   SI    0.000000    2.715000    8.146000
   SI    2.715000    2.715000    5.431000
   SI    2.715000    0.000000    8.146000
   SI    4.073000    1.358000    9.504000
   SI    1.358000    1.358000    6.789000
   SI    1.358000    4.073000    9.504000
   SI    4.073000    4.073000    6.789000
   SI    0.000000    5.431000    0.000000
   SI    0.000000    8.146000    2.715000
   SI    2.715000    8.146000    0.000000
   SI    2.715000    5.431000    2.715000
   SI    4.073000    6.789000    4.073000
   SI    1.358000    6.789000    1.358000
   SI    1.358000    9.504000    4.073000
   SI    4.073000    9.504000    1.358000
   SI    0.000000    5.431000    5.431000
   SI    0.000000    8.146000    8.146000
   SI    2.715000    8.146000    5.431000
   SI    2.715000    5.431000    8.146000
   SI    4.073000    6.789000    9.504000
   SI    1.358000    6.789000    6.789000
   SI    1.358000    9.504000    9.504000
   SI    4.073000    9.504000    6.789000
   SI    5.431000    0.000000    0.000000
   SI    5.431000    2.715000    2.715000
   SI    8.146000    2.715000    0.000000
   SI    8.146000    0.000000    2.715000
   SI    9.504000    1.358000    4.073000
   SI    6.789000    1.358000    1.358000
   SI    6.789000    4.073000    4.073000
   SI    9.504000    4.073000    1.358000
   SI    5.431000    0.000000    5.431000
   SI    5.431000    2.715000    8.146000
   SI    8.146000    2.715000    5.431000
   SI    8.146000    0.000000    8.146000
   SI    9.504000    1.358000    9.504000
   SI    6.789000    1.358000    6.789000
   SI    6.789000    4.073000    9.504000
   SI    9.504000    4.073000    6.789000
   SI    5.431000    5.431000    0.000000
   SI    5.431000    8.146000    2.715000
   SI    8.146000    8.146000    0.000000
   SI    8.146000    5.431000    2.715000
   SI    9.504000    6.789000    4.073000
   SI    6.789000    6.789000    1.358000
   SI    6.789000    9.504000    4.073000
   SI    9.504000    9.504000    1.358000
   SI    5.431000    5.431000    5.431000
   SI    5.431000    8.146000    8.146000
   SI    8.146000    8.146000    5.431000
   SI    8.146000    5.431000    8.146000
   SI    9.504000    6.789000    9.504000
   SI    6.789000    6.789000    6.789000
   SI    6.789000    9.504000    9.504000
   SI    9.504000    9.504000    6.789000
    &END COORD
    &KIND Si
      BASIS_SET DZVP-GTH-PADE
      POTENTIAL GTH-PADE-q4
    &END KIND
  &END SUBSYS
&END FORCE_EVAL
&GLOBAL
  FFTLIB FFTSG

  PROJECT Silicon
  RUN_TYPE MD
  PRINT_LEVEL LOW
&END GLOBAL
&MOTION
  &MD
    ENSEMBLE NVE
    STEPS 3
    TIMESTEP 1.0
    TEMPERATURE 300.0
  &END MD
&END MOTION
