&GLOBAL
  PROJECT ethene
  RUN_TYPE md
&END GLOBAL

&MOTION
  &MD
    ENSEMBLE NVE
    STEPS 10
    TEMPERATURE 298
    TIMESTEP 0.5
  &END MD
&END MOTION

&FORCE_EVAL
  METHOD FIST
  &MM
    &FORCEFIELD
      PARMTYPE CHM
      PARM_FILE_NAME ../sample_pot/charmm.pot
      &CHARGE
        ATOM CE2
        CHARGE -0.42
      &END CHARGE
      &CHARGE
        ATOM HE2
        CHARGE 0.21
      &END CHARGE
    &END FORCEFIELD
    &POISSON
      &EWALD
        ALPHA .44
        EWALD_TYPE spme
        GMAX 24
        O_SPLINE 6
      &END EWALD
    &END POISSON
  &END MM
  &SUBSYS
    &CELL
      ABC 24.955 24.955 24.955
    &END CELL
    &TOPOLOGY
      COORDINATE pdb
      COORD_FILE_NAME ../sample_pdb/ethene.pdb
    &END TOPOLOGY
  &END SUBSYS
&END FORCE_EVAL
