&GLOBAL
  PROJECT multi_frag_check
  RUN_TYPE MD
&END GLOBAL

&MOTION
  &MD
    ENSEMBLE NVE
    STEPS 10
    TEMPERATURE 298
    TIMESTEP 0.5
  &END MD
&END MOTION

&FORCE_EVAL
  METHOD FIST
  &MM
    &FORCEFIELD
      PARMTYPE CHM
      PARM_FILE_NAME ../sample_pot/multi_frag_pot/full.pot
    &END FORCEFIELD
    &POISSON
      &EWALD
        ALPHA .44
        EWALD_TYPE spme
        GMAX 36
        O_SPLINE 6
      &END EWALD
    &END POISSON
  &END MM
  &SUBSYS
    &CELL
      ABC 38.2908000 37.8868000 38.0118000
    &END CELL
    &PRINT
      &TOPOLOGY_INFO
        PSF_INFO
      &END TOPOLOGY_INFO
    &END PRINT
    &TOPOLOGY
      CONNECTIVITY PSF
      CONN_FILE_NAME ../sample_psf/multi_frag_psf/full.psf
      COORDINATE pdb
      COORD_FILE_NAME ../sample_pdb/multi_frag.pdb
    &END TOPOLOGY
  &END SUBSYS
&END FORCE_EVAL
