&GLOBAL
  PRINT_LEVEL LOW
  PROJECT CH2O
  RUN_TYPE ENERGY_FORCE
&END GLOBAL

&FORCE_EVAL
  METHOD Quickstep
  &DFT
    BASIS_SET_FILE_NAME GTH_BASIS_SETS
    POTENTIAL_FILE_NAME POTENTIAL
    &EXCITED_STATES T
      STATE 1
    &END EXCITED_STATES
    &MGRID
      CUTOFF 200
    &END MGRID
    &POISSON
      PERIODIC NONE
      POISSON_SOLVER WAVELET
    &END POISSON
    &QS
    &END QS
    &SCF
      EPS_SCF 1.E-7
      MAX_SCF 50
      SCF_GUESS ATOMIC
    &END SCF
    &XC
      &XC_FUNCTIONAL PADE
      &END XC_FUNCTIONAL
    &END XC
  &END DFT
  &PRINT
    &FORCES
    &END FORCES
  &END PRINT
  &PROPERTIES
    &TDDFPT
      CONVERGENCE [eV] 1.0e-7
      KERNEL NONE
      MAX_ITER 50
      NSTATES 5
    &END TDDFPT
  &END PROPERTIES
  &SUBSYS
    &CELL
      ABC 8.0 8.0 8.0
      PERIODIC NONE
    &END CELL
    &COORD
      O         0.094933   -0.000368    0.895642
      C        -0.031077   -0.000121   -0.307326
      H        -0.090437    0.947608   -0.895642
      H        -0.094933   -0.947608   -0.895562
    &END COORD
    &KIND O
      BASIS_SET aug-TZV2P-GTH
      POTENTIAL GTH-PBE-q6
    &END KIND
    &KIND C
      BASIS_SET aug-TZV2P-GTH
      POTENTIAL GTH-PBE-q4
    &END KIND
    &KIND H
      BASIS_SET aug-TZV2P-GTH
      POTENTIAL GTH-PBE-q1
    &END KIND
    &TOPOLOGY
      &CENTER_COORDINATES
      &END CENTER_COORDINATES
    &END TOPOLOGY
  &END SUBSYS
&END FORCE_EVAL
