&GLOBAL
  PROJECT HF
  RUN_TYPE DEBUG
  PRINT_LEVEL LOW
&END GLOBAL
&DEBUG
   DEBUG_FORCES T
   DEBUG_STRESS_TENSOR F
   STOP_ON_MISMATCH F
   DX 0.001
&END
&FORCE_EVAL
  METHOD Quickstep
  &PROPERTIES
    &TDDFPT
       KERNEL NONE
       NSTATES      1
       MAX_ITER    50
       CONVERGENCE [eV] 1.0e-7
    &END TDDFPT
  &END PROPERTIES
  &PRINT
     &FORCES
     &END
  &END
  &DFT
    BASIS_SET_FILE_NAME GTH_BASIS_SETS
    POTENTIAL_FILE_NAME POTENTIAL
    &MGRID
      CUTOFF 400
      REL_CUTOFF 60
    &END MGRID
    &QS
    &END QS
    &EXCITED_STATES T
       STATE 1
    &END EXCITED_STATES
    &POISSON
     POISSON_SOLVER MT
     PERIODIC NONE
    &END POISSON
    &SCF
      MAX_SCF 50
      SCF_GUESS ATOMIC 
      EPS_SCF 1.E-8
    &END SCF
    &XC
      &XC_FUNCTIONAL PADE
      &END XC_FUNCTIONAL
    &END XC
  &END DFT
  &SUBSYS
    &CELL
      ABC 4.0 4.0 8.0
      PERIODIC NONE
    &END CELL
    &TOPOLOGY
     &CENTER_COORDINATES
     &END
    &END TOPOLOGY
    &COORD
  H         0.000000    0.000000    4.260000
  F         0.000000    0.000000    3.360000
    &END COORD
    &KIND H
      BASIS_SET TZVP-GTH
      POTENTIAL GTH-PBE-q1
    &END KIND
    &KIND F
      BASIS_SET TZVP-GTH
      POTENTIAL GTH-PBE-q7
    &END KIND
  &END SUBSYS
&END FORCE_EVAL
