&GLOBAL
  PRINT_LEVEL LOW
  PROJECT Floquet_KP
  RUN_TYPE ENERGY
&END GLOBAL

&FORCE_EVAL
  METHOD Quickstep
  &DFT
    BASIS_SET_FILE_NAME BASIS_MOLOPT
    POTENTIAL_FILE_NAME POTENTIAL
    &KPOINTS
      FULL_GRID T
      SCHEME MONKHORST-PACK 4 4 1
    &END KPOINTS
    &POISSON
      PERIODIC XYZ
    &END POISSON
    &QS
      EXTRAPOLATION USE_GUESS  ! required for K-Point sampling
      !EPS_DEFAULT 1.0E-30
    &END QS
    &SCF
      ADDED_MOS -1
      EPS_SCF 1.0E-6
      MAX_SCF 10000
      SCF_GUESS ATOMIC
      &DIAGONALIZATION
        ALGORITHM STANDARD
        EPS_ADAPT 0.01
      &END DIAGONALIZATION
      &MIXING
        ALPHA 0.2
        BETA 1.5
        METHOD BROYDEN_MIXING
        NBROYDEN 8
      &END MIXING
      &SMEAR ON
        ELECTRONIC_TEMPERATURE [K] 300
        METHOD FERMI_DIRAC
      &END SMEAR
    &END SCF
    &XC
      &XC_FUNCTIONAL PBE
      &END XC_FUNCTIONAL
    &END XC
  &END DFT
  &PROPERTIES
    &BANDSTRUCTURE
      &BANDSTRUCTURE_PATH
        NPOINTS 1
        SPECIAL_POINT K 1/3 2/3 0.0
      &END BANDSTRUCTURE_PATH
      &DOS
        ENERGY_STEP 2.0
        ENERGY_WINDOW 1.0
      &END DOS
      &FLOQUET
        AMPLITUDE 1.06E9
        BROADENING 0.02
        ENERGY_STEP 1.69
        ENERGY_WINDOW 3.38
        FREQUENCY 1.5
        MAX_FLOQUET_INDEX 50
        PHASE_OFFSETS 0.0 0.5 0.0
        POLARISATION 1 1 0
      &END FLOQUET
    &END BANDSTRUCTURE
  &END PROPERTIES
  &SUBSYS
    &CELL
      ABC [angstrom] 2.4612 2.4612 16
      ALPHA_BETA_GAMMA 90. 90. 60.
      PERIODIC XY
    &END CELL
    &COORD
      SCALED
      C  1./3.  1./3.  0.
      C  2./3.  2./3.  0.
    &END COORD
    &KIND C
      BASIS_SET SZV-MOLOPT-GTH
      ELEMENT C
      POTENTIAL GTH-PBE
    &END KIND
    &TOPOLOGY
      &CENTER_COORDINATES T
      &END CENTER_COORDINATES
    &END TOPOLOGY
  &END SUBSYS
&END FORCE_EVAL
