 # Version information for this restart file 
 # current date 2022-12-20 12:33:11.553
 # current working dir /data/gtocci/scratch/projects/cp2k/tests/Fist/regtest-quip
 # Program compiled at                           Tue 20 Dec 2022 11:57:58 AM CET
 # Program compiled on                                                   tcopt12
 # Program compiled for                                                    local
 # Source code revision number                                       git:049a8fa
 &GLOBAL
   PROJECT_NAME Quip_Cu_LJ
   RUN_TYPE  GEO_OPT
   &PRINT  DEBUG
   &END PRINT
 &END GLOBAL
 &FORCE_EVAL
   METHOD  FIST
   STRESS_TENSOR  ANALYTICAL
   &MM
     &FORCEFIELD
       &NONBONDED
         &QUIP
           ATOMS Cu Cu
           PARM_FILE_NAME ip.parms.LJ.xml
           INIT_ARGS IP LJ
         &END QUIP
       &END NONBONDED
       &CHARGE
         ATOM Cu
         CHARGE     0.0000000000000000E+00
       &END CHARGE
     &END FORCEFIELD
     &POISSON
       &EWALD
         EWALD_TYPE  NONE
       &END EWALD
     &END POISSON
   &END MM
   &SUBSYS
     &CELL
       A     1.0000000000000002E+01    0.0000000000000000E+00    0.0000000000000000E+00
       B     0.0000000000000000E+00    1.0000000000000002E+01    0.0000000000000000E+00
       C     0.0000000000000000E+00    0.0000000000000000E+00    1.0000000000000002E+01
       MULTIPLE_UNIT_CELL  1 1 1
     &END CELL
     &COORD
Cu   -3.9498273951658063E+00   -1.1095987992290341E+01   -1.2128716593609949E+01
Cu    1.8168020128368934E+00    3.1301836223467538E+00    6.2532840189165828E+00
Cu    2.1330254584532944E+00    7.9658043968040149E+00    5.8754326084330071E+00
     &END COORD
     &TOPOLOGY
       NUMBER_OF_ATOMS  3
       MULTIPLE_UNIT_CELL  1 1 1
     &END TOPOLOGY
   &END SUBSYS
   &PRINT
     &FORCES  SILENT
     &END FORCES
   &END PRINT
 &END FORCE_EVAL
