&GLOBAL
  PRINT_LEVEL MEDIUM
  PROJECT stress_tensor
  RUN_TYPE ENERGY_FORCE
&END GLOBAL

&FORCE_EVAL
  METHOD FIST
  STRESS_TENSOR ANALYTICAL
  &MM
    &FORCEFIELD
      &NONBONDED
        &ACE
          ATOMS O H
          POT_FILE_NAME ./water_nore_PACE_1k.yaml
        &END ACE
      &END NONBONDED
    &END FORCEFIELD
    &POISSON
      &EWALD
        EWALD_TYPE none
      &END EWALD
    &END POISSON
  &END MM
  &PRINT
    &FORCES
      &EACH
        JUST_ENERGY 1
      &END EACH
    &END FORCES
    &STRESS_TENSOR
      COMPONENTS
    &END STRESS_TENSOR
  &END PRINT
  &SUBSYS
    &CELL
      A [angstrom] 12.0 0.0 0.0
      B [angstrom] 2.0 14.0 0.0
      C [angstrom] 1.0 1.0 15.0
      PERIODIC XYZ
    &END CELL
    &COORD
      O    9.1300   10.6500   12.4900
      H    8.6200   11.2000   13.1500
      H    9.8800   11.2000   12.1200
      O    3.4400    3.0700    6.3300
      H    3.5000    2.6900    7.2500
      H    3.5800    2.3500    5.6600
      O    5.7300    4.6100    2.1300
      H    5.1600    4.2100    1.4200
      H    6.6700    4.2900    2.0200
      O    6.3700    1.7600    7.5900
      H    6.4400    2.7100    7.8900
      H    6.1900    1.1800    8.3700
      O   11.2400    4.2200    4.5800
      H   12.0500    3.9400    5.0900
      H   10.6100    3.4600    4.5000
      O    6.0500    8.0500   13.1300
      H    6.5500    8.8600   12.8100
      H    5.1500    8.3300   13.4700
      O    0.4200    3.3700   10.5100
      H    0.9500    3.3700   11.3600
      H   -0.3700    3.9700   10.6100
      O    5.1400   10.0800    3.9600
      H    6.1300   10.0300    4.0600
      H    4.7700   10.7500    4.6000
      O    6.2500   10.0800   10.4900
      H    5.3000    9.9300   10.2000
      H    6.3300    9.8700   11.4700
      O    9.3900    8.2200   13.2600
      H    9.3200    7.9300   14.2100
      H    9.9900    9.0200   13.2000
      O   -0.0100   13.6000    3.9100
      H    0.6300   14.1700    4.4300
      H    0.4600   13.1900    3.1400
      O    8.1100   11.7900    3.3800
      H    8.1300   11.7400    2.3800
      H    8.3300   10.9000    3.7700
      O   10.2300    2.5200    1.3900
      H    9.3300    2.4900    0.9400
      H   10.5100    3.4800    1.4800
      O    6.2400    7.7000    3.9400
      H    6.2500    7.7600    4.9400
      H    5.3700    7.3300    3.6300
      O    0.8700    5.4700   13.0600
      H    1.1100    5.7700   12.1400
      H    1.4800    4.7300   13.3400
      O    1.4800    0.2100   10.4900
      H    0.5700    0.1300   10.0600
      H    1.4200    0.8600   11.2400
      O    3.1600   12.8200    4.7600
      H    3.8100   12.1400    5.0900
      H    2.9700   12.6500    3.8000
      O    6.5900    5.9400    8.1100
      H    7.1200    5.4000    8.7700
      H    6.4100    5.3900    7.3000
      O    5.6900    1.9200    3.9300
      H    6.5100    2.0100    3.3600
      H    5.0400    1.3200    3.4800
      O    9.8500    9.5400   10.1300
      H   10.3700   10.3900   10.1800
      H    9.5400    9.2800   11.0500
      O    2.1600    6.4700    5.6800
      H    2.6200    6.3600    4.8000
      H    2.2500    5.6400    6.2100
      O    0.1100    7.3600    2.7900
      H   -0.2800    7.6100    1.9100
      H    0.2600    6.3700    2.8300
      O    0.3900    0.5400    7.8600
      H    0.0500    0.0500    7.0500
      H    1.1400    1.1300    7.5900
      O    1.2100    6.6500    7.9400
      H    1.4700    6.6500    8.9100
      H    0.2400    6.4200    7.8700
      O    4.7600   12.9800    2.3200
      H    5.6200   13.3100    1.9500
      H    4.0500   13.0200    1.6200
      O    9.0800    6.0900   11.9900
      H    9.0600    6.0800   12.9900
      H    9.8900    5.6000   11.6800
      O    2.5100    9.4700    7.7800
      H    3.0100    9.8900    7.0100
      H    2.3900   10.1500    8.5000
      O    0.8100    2.1900    4.8800
      H    1.2800    2.5500    4.0700
      H    0.7700    1.2000    4.8200
      O   10.3200    1.4100    8.9800
      H   10.8100    2.2600    8.7700
      H    9.7000    1.5700    9.7400
      O    9.8700    3.7200   13.5200
      H    9.6400    3.9700   14.4600
      H   10.0700    4.5400   13.0000
      O    1.6000   12.7300   10.9400
      H    1.1100   13.0500   11.7600
      H    1.8400   11.7700   11.0600
      O   10.4600   -0.2000   14.6300
      H   11.1500    0.5000   14.7800
      H    9.5600    0.1600   14.8800
      O    4.6700    3.9600   11.3400
      H    3.9400    4.3600   11.9000
      H    4.9600    4.6200   10.6500
      O    2.3700    1.5200    2.2300
      H    2.9800    2.1100    1.7100
      H    1.4300    1.8400    2.1300
      O   10.1800    4.4400    7.4100
      H   11.1400    4.4800    7.6900
      H    9.9200    5.3200    7.0300
      O    6.0500    7.9000    8.9300
      H    6.2800    8.8700    8.8300
      H    5.0700    7.8100    9.0700
      O    0.6500    2.0200   13.6300
      H   -0.0400    2.4300   14.2400
      H    0.6500    1.0300   13.7500
      O    3.7100    5.3500    2.8000
      H    3.6900    5.2500    1.8000
      H    2.9000    4.9100    3.1900
      O    5.2400   11.9000   11.3400
      H    6.0000   12.1000   10.7200
      H    5.2200   12.5800   12.0600
      O    1.2500   10.8300   12.8200
      H    0.3500   11.2100   12.6200
      H    1.8400   11.5500   13.1700
      O    2.7000    9.7200    2.9500
      H    2.2300   10.5700    2.7200
      H    3.3900    9.5200    2.2600
      O    6.9900    1.3900   14.6000
      H    6.0600    1.6600   14.3500
      H    7.0200    1.1500   15.5600
      O    9.8000    9.4100    4.8500
      H   10.4200    9.6400    4.0900
      H   10.2500    8.7700    5.4600
      O    4.5100    6.1700   12.8800
      H    3.8800    6.6400   12.2700
      H    5.4400    6.2400   12.5200
      O    2.1000    6.6200   15.0300
      H    1.8500    7.3900   15.6200
      H    2.2000    6.9300   14.0900
      O   11.1400    8.0100    8.7700
      H   10.5900    7.7000    9.5500
      H   11.3800    8.9700    8.8900
      O    9.0600    5.3600    3.4000
      H    8.5200    4.9300    2.6700
      H    9.4300    6.2200    3.0600
      O   11.4600   10.9100    6.4900
      H   11.9200   10.0200    6.4700
      H   11.5200   11.3000    7.4000
      O    7.9400    7.3300    6.0400
      H    8.5300    6.5500    5.8400
      H    8.1700    7.7000    6.9300
      O    9.1000   13.1600   12.5500
      H    9.2000   13.5900   11.6500
      H    8.5900   13.7700   13.1500
      O    2.9700    1.4800   14.7600
      H    2.4300    2.3100   14.8600
      H    2.9100    1.1500   13.8200
      O    7.4700    3.0000   12.8600
      H    7.7700    3.0900   13.8100
      H    6.7500    3.6700   12.6800
      O    2.7500    8.6500   11.0600
      H    3.0400    9.2100   10.2900
      H    2.7200    9.2100   11.8800
      O    6.1800   12.2000    6.7900
      H    7.1600   12.0400    6.6300
      H    6.0300   12.3100    7.7700
      O    2.8000    2.5900   11.5200
      H    2.5700    2.9100   10.6000
      H    2.4000    3.2100   12.2000
      O    9.2500    9.2000    1.4500
      H    9.5800    9.9000    2.0900
      H    9.6900    8.3300    1.6600
      O   10.4500    5.7400    0.6300
      H   10.1400    6.6800    0.4900
      H   10.1000    5.1700   -0.1100
      O    6.0300    8.0400   -0.0100
      H    6.6200    7.8400    0.7700
      H    5.1500    7.5900    0.1200
      O    2.7600    4.8800    9.5200
      H    2.5000    5.0200   10.4800
      H    3.7000    4.5500    9.4900
      O    2.1500    3.3900    0.4800
      H    2.1800    3.9700    1.2900
      H    3.0600    3.3400    0.0800
      O    4.8900   10.8000    1.3400
      H    5.6600   10.4200    0.8300
      H    4.1900   11.1100    0.7000
      O    6.4500    1.3800   10.4300
      H    6.3000    1.2300   11.4000
      H    5.6200    1.7400   10.0100
      O    0.0500    7.8700   12.2100
      H   -0.2000    7.8800   11.2500
      H    0.6400    8.6600   12.4000
      O    7.2700   10.0500    6.1000
      H    7.6500    9.5100    6.8500
      H    8.0200   10.3600    5.5200
      O    4.4200    6.2400    6.0100
      H    4.4400    5.5000    6.6900
      H    5.2700    6.2400    5.4900
      O   10.9300    1.8000    6.3100
      H   10.5400    2.0000    5.4100
      H   11.5800    2.5200    6.5600
      O    9.8600   13.5200    7.7100
      H   10.5700   14.1200    8.0800
      H    9.3300   13.1200    8.4600
      O    7.5300    3.0600    5.8200
      H    7.2200    3.0500    4.8700
      H    8.4000    3.5400    5.8700
      O   12.0800   11.5300    1.5200
      H   12.6000   10.8300    1.0200
      H   11.1100   11.3100    1.4900
      O    2.4200    8.2700    1.0000
      H    2.0300    7.4100    1.3400
      H    1.7400    9.0000    1.1100
      O    9.6000   13.4100    5.2900
      H    8.9900   13.8700    5.9400
      H   10.5100   13.3400    5.7000
      O    3.3900    0.4100    5.5200
      H    4.2200   -0.1400    5.5800
      H    2.9200    0.3900    6.4000
      O    2.0300   12.0200    6.9200
      H    1.4700   11.8600    6.1100
      H    1.5600   11.6600    7.7200
      O    0.4700    9.2300   14.2900
      H    0.5100    9.5500   15.2400
      H    0.2400    8.2600   14.2900
      O    5.9900    5.2600   -0.3300
      H    5.2600    5.5900    0.2700
      H    6.5100    4.5500    0.1500
      O    1.5600    3.0300    8.0300
      H    2.1200    3.2100    8.8400
      H    1.8600    3.6100    7.2800
      O    9.2600   -0.1500   10.7800
      H    9.0900   -0.4500    9.8400
      H    8.7400    0.6800   10.9600
      O    8.1900    0.9300    1.1500
      H    8.2500    0.9700    0.1500
      H    9.0900    0.7000    1.5200
      O    3.4900    1.0500    9.3500
      H    2.7500    1.2400    8.7100
      H    4.0500    0.3100    8.9900
      O    4.0000   10.2900   13.0600
      H    3.7800   10.2700   14.0300
      H    3.8800   11.2100   12.7100
      O   11.1300    6.9000    6.2100
      H   11.9000    7.5200    6.0600
      H   11.2000    6.1300    5.5800
      O   11.5100    0.7800    1.8100
      H   10.6200    0.6200    2.2500
      H   11.3900    0.7800    0.8200
      O    6.6900   13.2000   14.2700
      H    6.3600   14.1400   14.3800
      H    6.9100   13.0400   13.3100
      O    3.4100   12.7700   15.2900
      H    2.7900   12.2700   14.6900
      H    4.0300   13.3200   14.7400
      O    9.0700    4.1100   10.7300
      H    8.8600    3.5500   11.5300
      H    8.4800    3.8200    9.9700
      O    4.7900    8.6000    6.4000
      H    4.9700    8.5800    7.3800
      H    5.0600    9.4800    6.0200
      O   10.0500   11.5600   14.8100
      H    9.3100   11.7100   15.4800
      H    9.9300   12.1900   14.0500
      O   11.1000    1.5500   12.1400
      H   10.9400    1.6200   11.1500
      H   10.3500    2.0100   12.6200
      O    0.1700   10.8300    9.4100
      H    0.5900   11.7400    9.5000
      H    0.4400   10.4300    8.5400
      O    8.0600   12.0300    9.4900
      H    7.6200   12.9300    9.4600
      H    8.5600   11.9300   10.3500
      O    9.3500   10.2700    7.5000
      H    9.3700   11.1400    7.9900
      H    9.6300    9.5400    8.1200
      O    8.4300    1.6800    3.7200
      H    8.5900    1.9500    4.6700
      H    7.9700    0.8000    3.7000
      O    3.8700   12.7300    8.2000
      H    4.4700   12.7600    9.0000
      H    4.1500   11.9900    7.6100
      O    7.8700    7.0500    2.0300
      H    7.1700    6.6400    2.6100
      H    8.4100    7.7000    2.5600
      O   10.6100    5.4100    9.4300
      H   10.9400    6.0300   10.1500
      H    9.9500    5.9000    8.8600
      O    1.4100    9.5900    5.2900
      H    1.1400   10.3100    4.6600
      H    2.1200    9.0300    4.8600
      O   10.5400   12.1800    3.2600
      H   10.0900   11.6300    3.9600
      H    9.8400   12.5900    2.6700
      O    7.9600    7.1600    9.5100
      H    8.5200    6.9200    8.7200
      H    8.0200    6.4400   10.1900
      O    7.0800    9.1900    2.5500
      H    6.2400    8.8300    2.1500
      H    7.0500   10.1900    2.5400
      O    4.6600    2.0200   12.9200
      H    4.8600    1.0500   13.0600
      H    5.3000    2.4000   12.2600
    &END COORD
    &TOPOLOGY
    &END TOPOLOGY
  &END SUBSYS
&END FORCE_EVAL
