&GLOBAL
  PREFERRED_FFT_LIBRARY FFTW3
  PRINT_LEVEL Low
  PROJECT h2
  RUN_TYPE MIMIC
&END GLOBAL

&FORCE_EVAL
  METHOD Quickstep
  &DFT
    BASIS_SET_FILE_NAME GTH_BASIS_SETS
    POTENTIAL_FILE_NAME GTH_POTENTIALS
    &MGRID
      CUTOFF 100
      NGRIDS 4
      REL_CUTOFF 60
    &END MGRID
    &POISSON
      PERIODIC NONE
      POISSON_SOLVER MT
    &END POISSON
    &QS
      EPS_DEFAULT 1.0E-10
      EXTRAPOLATION PS
      EXTRAPOLATION_ORDER 5
    &END QS
    &SCF
      EPS_SCF 5.0E-7
      MAX_SCF 1000
      SCF_GUESS Atomic
      &OT
        MINIMIZER DIIS
        PRECONDITIONER Full_Single_Inverse
      &END OT
    &END SCF
    &XC
      &XC_FUNCTIONAL
        &GGA_C_LYP T
        &END GGA_C_LYP
        &GGA_X_B88 T
        &END GGA_X_B88
      &END XC_FUNCTIONAL
    &END XC
  &END DFT
  &SUBSYS
    &CELL
      ABC [Bohr] 10.00 10.00 10.00
      ALPHA_BETA_GAMMA 90.00 90.00 90.00
      PERIODIC NONE
    &END CELL
    &COORD
      Unit Bohr
      H  23.09245158  21.44838997  24.18849265
      H  22.33656119  21.54287627  25.34122551
    &END COORD
    &KIND H
      BASIS_SET DZVP-GTH
      POTENTIAL GTH-BLYP-q1
    &END KIND
  &END SUBSYS
&END FORCE_EVAL
