@SET MY_OMEGA 0.5
&GLOBAL
  PRINT_LEVEL MEDIUM
  PROJECT H2O-srLDAlrMP2
  RUN_TYPE ENERGY
  &TIMINGS
    THRESHOLD 0.01
  &END TIMINGS
&END GLOBAL

&FORCE_EVAL
  METHOD Quickstep
  &DFT
    BASIS_SET_FILE_NAME HFX_BASIS
    POTENTIAL_FILE_NAME POTENTIAL
    &MGRID
      CUTOFF 100
      REL_CUTOFF 20
    &END MGRID
    &POISSON
      PERIODIC XYZ
      POISSON_SOLVER WAVELET
    &END POISSON
    &QS
      EPS_DEFAULT 1.0E-15
      EPS_PGF_ORB 1.0E-30
      METHOD GPW
    &END QS
    &SCF
      EPS_SCF 1.0E-7
      MAX_SCF 100
      SCF_GUESS RESTART
      ! ADDED_MOS 15000 15000
    &END SCF
    &XC
      &HF
        FRACTION 0.53
        &INTERACTION_POTENTIAL
          CUTOFF_RADIUS 1.99
          POTENTIAL_TYPE TRUNCATED
        &END INTERACTION_POTENTIAL
        &SCREENING
          EPS_SCHWARZ 1.0E-6
          SCREEN_ON_INITIAL_P FALSE
        &END SCREENING
      &END HF
      &WF_CORRELATION
        MEMORY 200.
        NUMBER_PROC 1
        SCALE_S 0.27
        SCALE_T 0.27
        &INTEGRALS
          &INTERACTION_POTENTIAL
            OMEGA 0.2
            POTENTIAL_TYPE MIX_CL
            SCALE_COULOMB 1.0
            SCALE_LONGRANGE 1.5
          &END INTERACTION_POTENTIAL
          &WFC_GPW
            CUTOFF 50
            REL_CUTOFF 10
          &END WFC_GPW
        &END INTEGRALS
        &RI_MP2
        &END RI_MP2
      &END WF_CORRELATION
      &XC_FUNCTIONAL
        &GGA_C_LYP
          SCALE 0.73
        &END GGA_C_LYP
        &GGA_X_B88
          SCALE 0.47
        &END GGA_X_B88
      &END XC_FUNCTIONAL
    &END XC
  &END DFT
  &SUBSYS
    &CELL
      ABC [angstrom] 5.000 5.000 5.000
      PERIODIC XYZ
    &END CELL
    &KIND H
      BASIS_SET DZVP-GTH
      BASIS_SET RI_AUX RI_DZVP-GTH
      POTENTIAL GTH-HF-q1
    &END KIND
    &KIND O
      BASIS_SET DZVP-GTH
      BASIS_SET RI_AUX RI_DZVP-GTH
      POTENTIAL GTH-HF-q6
    &END KIND
    &TOPOLOGY
      COORD_FILE_FORMAT xyz
      COORD_FILE_NAME H2O_gas.xyz
      &CENTER_COORDINATES
      &END CENTER_COORDINATES
    &END TOPOLOGY
  &END SUBSYS
&END FORCE_EVAL
