&GLOBAL
  PRINT_LEVEL MEDIUM
  PROJECT "Ar"
  RUN_TYPE ENERGY_FORCE
&END GLOBAL

&FORCE_EVAL
  METHOD Quickstep
  &DFT
    BASIS_SET_FILE_NAME "BASIS_SET"
    POTENTIAL_FILE_NAME POTENTIAL
    &MGRID
      CUTOFF 200
      REL_CUTOFF 40
    &END MGRID
    &PRINT
      &DERIVATIVES
      &END DERIVATIVES
    &END PRINT
    &QS
      FORCE_PAW
      GAPW_ACCURATE_XCINT T
      METHOD GAPW
    &END QS
    &SCF
      EPS_SCF 1.0E-8
      SCF_GUESS atomic
    &END SCF
    &XC
      &XC_FUNCTIONAL Pade
      &END XC_FUNCTIONAL
    &END XC
  &END DFT
  &SUBSYS
    &CELL
      ABC 6.0 6.0 6.0
    &END CELL
    &COORD
      Ar     0.100000  0.120000  0.110000
    &END COORD
    &KIND Ar
      BASIS_SET DZVP-GTH-PADE
      POTENTIAL GTH-PADE-q8
    &END KIND
  &END SUBSYS
&END FORCE_EVAL
