&GLOBAL
  PRINT_LEVEL MEDIUM
  PROJECT F2
  RUN_TYPE DEBUG
&END GLOBAL

&DEBUG
  CHECK_ATOM_FORCE 1 z
  CHECK_ATOM_FORCE 2 z
  DE 0.0002
  DEBUG_FORCES .TRUE.
  DEBUG_STRESS_TENSOR .FALSE.
  STOP_ON_MISMATCH F
&END DEBUG

&FORCE_EVAL
  METHOD Quickstep
  &DFT
    BASIS_SET_FILE_NAME "BASIS_SET"
    POTENTIAL_FILE_NAME POTENTIAL
    &MGRID
      CUTOFF 240
      REL_CUTOFF 50
    &END MGRID
    &POISSON
      PERIODIC NONE
      POISSON_SOLVER MT
    &END POISSON
    &QS
      ALPHA_WEIGHTS 6.0
      GAPW_ACCURATE_XCINT T
      METHOD GAPW
    &END QS
    &SCF
      EPS_SCF 1.0E-7
      SCF_GUESS ATOMIC
      &OT
        MINIMIZER DIIS
        PRECONDITIONER FULL_ALL
      &END OT
    &END SCF
    &XC
      &XC_FUNCTIONAL PADE
      &END XC_FUNCTIONAL
    &END XC
  &END DFT
  &SUBSYS
    &CELL
      ABC 5.0 5.0 5.0
      PERIODIC NONE
    &END CELL
    &COORD
      F      0.000000  0.000000  0.530000
      F      0.000000  0.000000 -0.510000
    &END COORD
    &KIND F
      BASIS_SET DZVP-GTH-PADE
      POTENTIAL GTH-PADE-q7
    &END KIND
  &END SUBSYS
&END FORCE_EVAL
