&GLOBAL
  PRINT_LEVEL MEDIUM
  PROJECT HF
  RUN_TYPE DEBUG
&END GLOBAL

&DEBUG
  CHECK_ATOM_FORCE 1 z
  DE 0.0002
  DEBUG_FORCES .TRUE.
  DEBUG_STRESS_TENSOR .FALSE.
  STOP_ON_MISMATCH T
&END DEBUG

&FORCE_EVAL
  METHOD Quickstep
  &DFT
    BASIS_SET_FILE_NAME BASIS_MOLOPT_UZH
    BASIS_SET_FILE_NAME BASIS_ADMM_ae
    POTENTIAL_FILE_NAME POTENTIAL_UZH
    &AUXILIARY_DENSITY_MATRIX_METHOD
      ADMM_PURIFICATION_METHOD NONE
      EXCH_CORRECTION_FUNC PBEX
      EXCH_SCALING_MODEL NONE
      METHOD BASIS_PROJECTION
    &END AUXILIARY_DENSITY_MATRIX_METHOD
    &MGRID
      CUTOFF 240
      REL_CUTOFF 40
    &END MGRID
    &POISSON
      PERIODIC NONE
      POISSON_SOLVER MT
    &END POISSON
    &QS
      ALPHA_WEIGHTS 6.0
      GAPW_ACCURATE_XCINT T
      METHOD GAPW
    &END QS
    &SCF
      EPS_SCF 1.0E-7
      SCF_GUESS atomic
      &OT
        MINIMIZER DIIS
        PRECONDITIONER FULL_ALL
      &END OT
    &END SCF
    &XC
      &XC_FUNCTIONAL PBE0
      &END XC_FUNCTIONAL
    &END XC
  &END DFT
  &PRINT
    &FORCES
    &END FORCES
  &END PRINT
  &SUBSYS
    &CELL
      ABC 5.0 5.0 5.0
      PERIODIC NONE
    &END CELL
    &COORD
      H      0.000000  0.000000  0.470000
      F      0.000000  0.000000 -0.510000
    &END COORD
    &KIND H
      BASIS_SET ORB SVP-MOLOPT-GGA-ae
      BASIS_SET AUX_FIT admm-1
      POTENTIAL ALL
    &END KIND
    &KIND F
      BASIS_SET ORB SVP-MOLOPT-GGA-ae
      BASIS_SET AUX_FIT admm-1
      POTENTIAL ALL
    &END KIND
  &END SUBSYS
&END FORCE_EVAL
