&GLOBAL
  PRINT_LEVEL LOW
  PROJECT STRESS_NUM_RI-MP2
  RUN_TYPE CELL_OPT
&END GLOBAL

&MOTION
  &CELL_OPT
    MAX_ITER 0
  &END CELL_OPT
&END MOTION

&FORCE_EVAL
  METHOD Quickstep
  STRESS_TENSOR NUMERICAL
  &DFT
    BASIS_SET_FILE_NAME HFX_BASIS
    POTENTIAL_FILE_NAME POTENTIAL
    &MGRID
      CUTOFF 100
      REL_CUTOFF 30
    &END MGRID
    &QS
      EPS_DEFAULT 1.0E-12
      METHOD GPW
    &END QS
    &SCF
      EPS_SCF 1.0E-5
      MAX_SCF 100
      SCF_GUESS ATOMIC
      &PRINT
        &RESTART OFF
        &END RESTART
      &END PRINT
    &END SCF
    &XC
      &HF
        FRACTION 1.0000000
        &INTERACTION_POTENTIAL
          CUTOFF_RADIUS 1.5
          POTENTIAL_TYPE TRUNCATED
          T_C_G_DATA t_c_g.dat
        &END INTERACTION_POTENTIAL
        &SCREENING
          EPS_SCHWARZ 1.0E-5
          EPS_SCHWARZ_FORCES 1.0E-5
          SCREEN_ON_INITIAL_P .FALSE.
        &END SCREENING
      &END HF
      &WF_CORRELATION
        MEMORY 1.00
        NUMBER_PROC 1
        &CANONICAL_GRADIENTS
          EPS_CANONICAL 0.0001
          FREE_HFX_BUFFER .TRUE.
          &CPHF
            EPS_CONV 1.0E-6
            MAX_ITER 50
          &END CPHF
        &END CANONICAL_GRADIENTS
        &INTEGRALS
          ERI_METHOD MME
          &ERI_MME
            N_MINIMAX 4
            SUM_PRECISION 1.0E-5
          &END ERI_MME
          &WFC_GPW
            CUTOFF 100
            REL_CUTOFF 20
          &END WFC_GPW
        &END INTEGRALS
        &RI_MP2
          BLOCK_SIZE 1
        &END RI_MP2
      &END WF_CORRELATION
      &XC_FUNCTIONAL NONE
      &END XC_FUNCTIONAL
    &END XC
  &END DFT
  &PRINT
    &FORCES
    &END FORCES
    &STRESS_TENSOR
      COMPONENTS
    &END STRESS_TENSOR
  &END PRINT
  &SUBSYS
    &CELL
      ABC [angstrom] 6.000 6.000 6.000
    &END CELL
    &COORD
      H       0.000000    0.000000     0.000000
      H       0.000000    0.000000     0.740000
    &END COORD
    &KIND H
      BASIS_SET DZVP-GTH
      BASIS_SET RI_AUX RI_DZVP-GTH
      POTENTIAL GTH-HF-q1
    &END KIND
    &TOPOLOGY
      &CENTER_COORDINATES
      &END CENTER_COORDINATES
    &END TOPOLOGY
  &END SUBSYS
&END FORCE_EVAL
