&FORCE_EVAL
  &MM
    &FORCEFIELD
       PARMFILE acn.pot 
       PARMTYPE CHM
       &CHARGE
        ATOM CT
        CHARGE -0.479
       &END CHARGE
       &CHARGE
        ATOM YC
        CHARGE  0.481
       &END CHARGE
       &CHARGE
        ATOM YN
        CHARGE -0.532
       &END CHARGE
       &CHARGE
        ATOM HC
        CHARGE  0.177
       &END CHARGE
    &END FORCEFIELD
    &POISSON
      &EWALD
        EWALD_TYPE SPME
        ALPHA .44
        GMAX 32
        O_SPLINE 6
      &END EWALD
    &END POISSON
  &END MM
  &SUBSYS
    &CELL
      ABC 27.0 27.0 27.0
      UNIT ANGSTROM
    &END CELL
    &TOPOLOGY
      CONNECTIVITY GENERATE
      BONDPARM_FACTOR 1.31
      DUMP_TOP
      MOL_CHECK
      COORD_FILE acn.pdb
      COORD      pdb
    &END TOPOLOGY
  &END SUBSYS
&END FORCE_EVAL
&GLOBAL
  FFTLIB FFTW
  PROGRAM FIST
  PROJECT ACN
  RUN_TYPE md
  IOLEVEL  LOW
&END GLOBAL
&MOTION
  &MD
    ENSEMBLE NPT_I
    STEPS 5
    TIMESTEP 0.5
    TEMPERATURE 300
    &BAROSTAT
      PRESSURE 0.
      TIMECON 1000
    &END BAROSTAT
    &NOSE
      LENGTH 3
      YOSHIDA 3
      TIMECON 1000
      MTS 2
    &END NOSE
  &END MD
&END MOTION
