
&FORCE_EVAL
  &MM
    &FORCEFIELD
      parmfile ../sample_pot/butane.pot
      parmtype CHM
    &END FORCEFIELD
    &POISSON_MM
      &EWALD
        EWALD_TYPE spme
        ALPHA .44
        GMAX 24
        O_SPLINE 6
      &END EWALD
    &END POISSON_MM
  &END MM
  &SUBSYS
    &CELL
      ABC 24.955 24.955 24.955
      UNIT ANGSTROM
    &END CELL
    &TOPOLOGY
      CHARGE_BETA
      COORD_FILE ../sample_pdb/butane.pdb
      COORDINATE pdb
    &END TOPOLOGY
  &END SUBSYS
&END FORCE_EVAL
&GLOBAL
  FFTLIB FFTW
  PROGRAM FIST
  PROJECT butane
  RUN_TYPE md
&END GLOBAL
&MOTION
  &MD
    ENSEMBLE NVE
    STEPS 100
    TIMESTEP 2.5
    TEMPERATURE 298
    &NOSE
      LENGTH 3
      YOSHIDA 3
      TIMECON 1000
      MTS 2
    &END NOSE
  &END MD
&END MOTION
