&FORCE_EVAL
  METHOD FIST
  &MM
    &FORCEFIELD
      &CHARGE
        ATOM O
        CHARGE -0.65966
      &END CHARGE
      &CHARGE
        ATOM H
        CHARGE 0.32983
      &END CHARGE
      &NONBONDED
        &OOCF
          atoms O O
          RCUT 5.0
        &END OOCF
        &OHCF
          atoms O H
          RCUT 5.0
        &END OHCF
        &HHCF
          atoms H H
          RCUT 5.0
        &END HHCF
      &END NONBONDED
    &END FORCEFIELD
    &POISSON
      &EWALD
        EWALD_TYPE spme
        ALPHA .44
        GMAX 36
        O_SPLINE 6
      &END EWALD
    &END POISSON
  &END MM
  &SUBSYS
    &CELL
      ABC 20.0 20.0 20.0
      UNIT ANGSTROM
    &END CELL
    &COORD
O 0.836735 0.866553 0.738297
H 0.988303 -0.0654354 0.557851
H -0.119091 0.952436 0.682081
O 2.41925 2.37149 2.51081
H 2.86077 2.93048 1.86663
H 1.85221 1.82412 1.9423
    &END COORD
    &TOPOLOGY
      CONNECTIVITY OFF
    &END TOPOLOGY
  &END SUBSYS
&END FORCE_EVAL
&GLOBAL
  FFTLIB FFTSG
  PROGRAM CP2K
  PROJECT cf_dimer
  RUN_TYPE MD
&END GLOBAL
&MOTION
  &MD
    ENSEMBLE NVE
    STEPS 1
    TIMESTEP 0.25
    TEMPERATURE 0.0
    PV_AVA T
    PV_NUM T
  &END MD
&END MOTION
