
&FORCE_EVAL
  &MM
    &FORCEFIELD
      &NONBONDED
        &EAM
          atoms Cu Cu
          PARMFILE ../EAM_LIB/CU.pot
        &END EAM
      &END NONBONDED
    &END FORCEFIELD
    &POISSON_MM
      &EWALD
        EWALD_TYPE none
      &END EWALD
    &END POISSON_MM
  &END MM
  &SUBSYS
    &CELL
      ABC 7.206 7.206 7.206
      UNIT ANGSTROM
    &END CELL
    &COORD
    Cu -3.602999926 -3.602999926 -3.602999926
    Cu -1.801499963 -1.801499963 -3.602999926
    Cu -1.801499963 -3.602999926 -1.801499963
    Cu -3.602999926 -1.801499963 -1.801499963
    Cu -3.602999926 -3.602999926 0.0000000000E+00
    Cu -1.801499963 -1.801499963 0.0000000000E+00
    Cu -1.801499963 -3.602999926 1.801499963
    Cu -3.602999926 -1.801499963 1.801499963
    Cu -3.602999926 0.0000000000E+00 -3.602999926
    Cu -1.801499963 1.801499963 -3.602999926
    Cu -1.801499963 0.0000000000E+00 -1.801499963
    Cu -3.602999926 1.801499963 -1.801499963
    Cu -3.602999926 0.0000000000E+00 0.0000000000E+00
    Cu -1.801499963 1.801499963 0.0000000000E+00
    Cu -1.801499963 0.0000000000E+00 1.801499963
    Cu -3.602999926 1.801499963 1.801499963
    Cu 0.0000000000E+00 -3.602999926 -3.602999926
    Cu 1.801499963 -1.801499963 -3.602999926
    Cu 1.801499963 -3.602999926 -1.801499963
    Cu 0.0000000000E+00 -1.801499963 -1.801499963
    Cu 0.0000000000E+00 -3.602999926 0.0000000000E+00
    Cu 1.801499963 -1.801499963 0.0000000000E+00
    Cu 1.801499963 -3.602999926 1.801499963
    Cu 0.0000000000E+00 -1.801499963 1.801499963
    Cu 0.0000000000E+00 0.0000000000E+00 -3.602999926
    Cu 1.801499963 1.801499963 -3.602999926
    Cu 1.801499963 0.0000000000E+00 -1.801499963
    Cu 0.0000000000E+00 1.801499963 -1.801499963
    Cu 0.0000000000E+00 0.0000000000E+00 0.0000000000E+00
    Cu 1.801499963 1.801499963 0.0000000000E+00
    Cu 1.801499963 0.0000000000E+00 1.801499963
    Cu 0.0000000000E+00 1.801499963 1.801499963
    &END COORD
    &TOPOLOGY
    &END TOPOLOGY
  &END SUBSYS
&END FORCE_EVAL
&GLOBAL
  FFTLIB FFTSG
  PROGRAM FIST
  PROJECT copper
  RUN_TYPE md
&END GLOBAL
&MOTION
  &MD
    ENSEMBLE NVE
    STEPS 5
    TIMESTEP 5.
    TEMPERATURE 85.0
  &END MD
&END MOTION
