
&FORCE_EVAL
  &MM
    &FORCEFIELD
      parmfile ../sample_pot/deca_ala.pot
      parmtype CHM
    &END FORCEFIELD
    &POISSON_MM
      &EWALD
        EWALD_TYPE ewald
        ALPHA .36
        GMAX 29
      &END EWALD
    &END POISSON_MM
  &END MM
  &SUBSYS
    &CELL
      ABC 50.0 50.0 50.0
      UNIT ANGSTROM
    &END CELL
    &TOPOLOGY
      CHARGE_BETA
      CONN_FILE deca_ala2.psf
      CONNECTIVITY PSF
      COORD_FILE_NAME ../sample_pdb/deca_ala.pdb
      COORDINATE PDB
    &END TOPOLOGY
    &COORD
  C        -9.3933276912        2.2502574332        1.0735250639
  H       -10.4155430222        1.8625075701        0.8764029191
  H        -9.1399461617        3.0349838462        0.3254202903
  H        -9.3980714557        2.7210789888        2.0864643864
  C        -8.3560283577        1.1570983893        1.1501588264
  O        -7.2143819974        1.4055801685        1.4605235636
  N        -8.7586271565       -0.1383967538        0.9045595442
  H        -9.6579122239       -0.3282965486        0.4707454283
  C        -8.0216078260       -1.2991222188        1.3220156556
  H        -7.6978316262       -1.1924447863        2.3465758709
  C        -8.7237105905       -2.6655473372        1.1759034702
  H        -9.5560468450       -2.8159983132        1.8889393147
  H        -9.0928870496       -2.8210355709        0.1461064945
  H        -7.9598828822       -3.4382829331        1.3803242349
  C        -6.7978676662       -1.3351297269        0.4295171332
  O        -5.6922792160       -1.7140104173        0.8748355176
  N        -7.0176719129       -0.9609614076       -0.8165349667
  H        -7.8941703560       -0.6098738195       -1.0415635259
  C        -6.1469428616       -1.0227588495       -1.9632096083
  H        -5.7818008877       -2.0071942690       -2.0470968615
  C        -6.6566357300       -0.6226411774       -3.3314425843
  H        -7.5023955928       -1.2606035320       -3.6304561017
  H        -6.9816001539        0.4359542295       -3.3218893335
  H        -5.8450685223       -0.7390103140       -4.0940368238
  C        -4.9700624850       -0.1174739739       -1.7954760866
  O        -3.9348481274       -0.3749229743       -2.4171880563
  N        -5.1370324267        0.9657867675       -1.0308831894
  H        -5.9457633417        1.1646183299       -0.4762506752
  C        -4.1758288955        2.1012455958       -0.8885614412
  H        -3.7348810981        2.2559397778       -1.8717197152
  C        -4.8379830117        3.3853787393       -0.4012267869
  H        -5.6233220454        3.6321153024       -1.1572066550
  H        -5.3260231806        3.2827888867        0.5930456823
  H        -4.1305373320        4.2530248616       -0.3804949569
  C        -3.0663490143        1.6889289193        0.0102952926
  O        -1.8767895733        2.0134311099       -0.0822074075
  N        -3.4711255594        0.8460511349        0.9902252836
  H        -4.4027971990        0.5238859516        0.9865033618
  C        -2.5621983325        0.4292275493        2.0628805222
  H        -1.9976060577        1.2324938724        2.5605873542
  C        -3.3620234493       -0.3983177802        3.1489207412
  H        -4.2069245762        0.1740291323        3.5983482647
  H        -3.7267936035       -1.3377809670        2.6809401597
  H        -2.6875900180       -0.6751286403        3.9958888920
  C        -1.4646959504       -0.4470639728        1.4768374937
  O        -0.3602730548       -0.4496151035        1.9785685370
  N        -1.7458846026       -1.1961435831        0.4198184785
  H        -2.6112084139       -1.1560891778       -0.0538397122
  C        -0.7996926778       -2.1851030632       -0.0596218982
  H        -0.4934025675       -2.7860966821        0.8173626442
  C        -1.5686774686       -3.0528256504       -1.1194071240
  H        -2.3762738690       -3.6272240432       -0.5722849609
  H        -2.0435449082       -2.4148312097       -1.9131229685
  H        -0.9127625635       -3.8145777740       -1.6222555603
  C         0.4529707042       -1.4801363103       -0.6306368345
  O         1.5736832549       -2.0001344743       -0.6040352487
  N         0.1893594183       -0.2439345617       -1.1972611205
  H        -0.6005303174        0.2548506673       -0.9663809670
  C         1.1580283313        0.4144485633       -2.0796533429
  H         1.5720343297       -0.2855668430       -2.8077009448
  C         0.4581895447        1.6218723028       -2.7756429268
  H        -0.3461416383        1.2441909242       -3.4516181033
  H        -0.0188299924        2.2113757113       -1.9681612588
  H         1.1328111122        2.2849712012       -3.3565676892
  C         2.3033138534        0.9188384612       -1.2891429310
  O         3.4036018689        1.0988625232       -1.8382226690
  N         1.9977790786        1.2108465875       -0.0126218708
  H         1.1388429390        0.8789165935        0.3448976506
  C         2.8777236515        1.8478402786        0.9414488316
  H         3.3558632316        2.7052930318        0.4670292895
  C         2.2226168110        2.3324977906        2.3256323744
  H         1.4912367331        3.1738776476        2.1991301566
  H         1.7010272698        1.5154202636        2.8810551733
  H         3.0557780098        2.7268355962        2.9476486184
  C         3.9278891478        0.8601866047        1.2404170146
  O         5.0854389033        1.3029238282        1.5842183755
  N         3.6475776026       -0.4084718578        1.2836012329
  H         2.8363609196       -0.7156241947        0.8120949469
  C         4.4700934079       -1.4650489948        1.8691960047
  H         4.8438994359       -1.2114992471        2.8348251965
  C         3.6646775967       -2.7684268022        1.9431961704
  H         2.7609842085       -2.5798962044        2.5771131494
  H         3.2922164089       -2.9544340288        0.9044574480
  H         4.2117455788       -3.6675198029        2.3237171151
  C         5.7768651683       -1.6511856952        1.0023718461
  O         6.7923474760       -2.0923993881        1.3905393907
  N         5.5316128811       -1.3215383211       -0.2788495391
  H         4.7171440161       -0.8127637335       -0.5403168759
  C         6.3593107428       -1.7146543184       -1.4302890201
  H         6.7018073738       -2.7612962571       -1.2784816179
  C         5.6946747698       -1.5289295366       -2.8045278058
  H         4.8992408133       -2.3038468797       -2.9308541349
  H         5.2496611400       -0.5248701085       -2.9279405172
  H         6.4386110605       -1.7065522520       -3.6149459105
  C         7.5873916395       -0.7950621031       -1.4965128734
  O         8.6573552696       -1.1069797239       -2.0137217010
  N         7.3507387636        0.3957492985       -0.9217802392
  H         6.5516622650        0.6840743413       -0.4530388750
  C         8.3781436774        1.4201945146       -0.9423140492
  H         8.8445680660        1.4009035863       -1.9255893112
  C         7.7266212089        2.7662522613       -0.6149137471
  H         6.8860654390        3.0331000026       -1.2917317298
  H         7.3601598069        2.8397585019        0.4426355294
  H         8.5350450338        3.5283900959       -0.7413567844
  C         9.4559155285        1.1758641674        0.1303529358
  O        10.3159583511        2.0885115827        0.2556672253
  N         9.5364632454        0.0725258049        0.8804325000
  H         8.8402065450       -0.6140246596        0.8837071906
  C        10.7351843998       -0.2443351335        1.6429820891
  H        10.8728868754        0.4544023252        2.5029069378
  H        10.6408229661       -1.2883698098        1.9692421682
  H        11.5281129620       -0.1644684549        0.9123208246
    &END COORD
  &END SUBSYS
&END FORCE_EVAL
&GLOBAL
  FFTLIB FFTSG
  PRINT_LEVEL LOW
  PROGRAM FIST
  PROJECT deca_ala2
  RUN_TYPE md
&END GLOBAL
&MOTION
  &MD
    ENSEMBLE NVE
    STEPS 10
    TIMESTEP 2.5
    TEMPERATURE 298
  &END MD
&END MOTION
