&FORCE_EVAL
  METHOD FIST
  @INCLUDE "deca_ala_mm_section.txt"
  @INCLUDE deca_ala_subsys_section.txt
&END FORCE_EVAL
&GLOBAL
  PROJECT deca_ala_include
  PRINT_LEVEL LOW
  RUN_TYPE md
&END GLOBAL
&MOTION
   @INCLUDE 'deca_ala_md_section.txt'
&END MOTION
