
&FORCE_EVAL
  &MM
    &FORCEFIELD
      parmfile ../sample_pot/deca_ala.pot
      parmtype CHM
    &END FORCEFIELD
    &POISSON_MM
      &EWALD
        EWALD_TYPE ewald
        ALPHA .36
        GMAX 29
      &END EWALD
    &END POISSON_MM
  &END MM
  &SUBSYS
    &CELL
      ABC 50.0 50.0 50.0
      UNIT ANGSTROM
    &END CELL
    &TOPOLOGY
      CHARGE_BETA
      CONN_FILE deca_ala2.psf
      CONNECTIVITY PSF
      COORD_FILE_NAME deca_ala2.xyz
      COORDINATE XYZ
    &END TOPOLOGY
  &END SUBSYS
&END FORCE_EVAL
&GLOBAL
  FFTLIB FFTSG
  PRINT_LEVEL HIGH
  PROGRAM FIST
  PROJECT deca_ala3
  RUN_TYPE md
&END GLOBAL
&MOTION
  &MD
    ENSEMBLE NVE
    STEPS 10
    TIMESTEP 2.5
    TEMPERATURE 298
    RESTART INIT
  &END MD
&END MOTION
