
&FORCE_EVAL
  METHOD FIST
  &MM
    &FORCEFIELD
      parm_file_name ../sample_pot/deca_ala.pot
      parmtype CHM
    &END FORCEFIELD
    &POISSON
      &EWALD
        EWALD_TYPE ewald
        ALPHA .36
        GMAX 29
      &END EWALD
    &END POISSON
  &END MM
  &SUBSYS
    &CELL
      ABC 50.0 50.0 50.0
      UNIT ANGSTROM
    &END CELL
    &TOPOLOGY
      CHARGE_BETA
      COORD_FILE_NAME ../sample_pdb/deca_ala.pdb
      COORDINATE PDB
      PARA_RES
    &END TOPOLOGY
  &END SUBSYS
&END FORCE_EVAL
&GLOBAL
  FFTLIB FFTSG
  PRINT_LEVEL LOW
  PROJECT deca_ala_ref
  RUN_TYPE md
&END GLOBAL
&MOTION
  &MD
    ENSEMBLE REFTRAJ
    STEPS 11
    &REFTRAJ
     FILENAME deca_ala-pos-1.xyz
    &END
  &END MD
&END MOTION
