
&FORCE_EVAL
  &MM
    &FORCEFIELD
      parmfile charmm.pot
      parmtype CHM
      &CHARGE
        ATOM CE2
        CHARGE -0.42
      &END CHARGE
      &CHARGE
        ATOM HE2
        CHARGE 0.21
      &END CHARGE
    &END FORCEFIELD
    &POISSON_MM
      &EWALD
        EWALD_TYPE spme
        ALPHA .44
        GMAX 24
        O_SPLINE 6
      &END EWALD
    &END POISSON_MM
  &END MM
  &SUBSYS
    &CELL
      ABC 24.955 24.955 24.955
      UNIT ANGSTROM
    &END CELL
    &TOPOLOGY
      COORD_FILE ../sample_pdb/ethene.pdb
      COORDINATE pdb
    &END TOPOLOGY
  &END SUBSYS
&END FORCE_EVAL
&GLOBAL
  FFTLIB FFTW
  PROGRAM FIST
  PROJECT ethene
  RUN_TYPE md
&END GLOBAL
&MOTION
  &MD
    ENSEMBLE NVE
    STEPS 10
    TIMESTEP 0.5
    TEMPERATURE 298
    &NOSE
      LENGTH 3
      YOSHIDA 3
      TIMECON 1000
      MTS 2
    &END NOSE
  &END MD
&END MOTION
