
&FORCE_EVAL
  &MM
    &FORCEFIELD
      parmfile water_fake.pot
      parmtype CHM
      &CHARGE
        ATOM OT
        CHARGE -0.8476
      &END CHARGE
      &CHARGE
        ATOM HT
        CHARGE 0.4238
      &END CHARGE
    &END FORCEFIELD
    &POISSON
      &EWALD
        EWALD_TYPE spme
        ALPHA .44
        GMAX 24
        O_SPLINE 6
      &END EWALD
    &END POISSON
  &END MM
  &SUBSYS
    &CELL
      ABC 24.955 24.955 24.955
      UNIT ANGSTROM
    &END CELL
    &TOPOLOGY
      COORD_FILE ../sample_pdb/water_1.pdb
      COORDINATE pdb
    &END TOPOLOGY
  &END SUBSYS
&END FORCE_EVAL
&GLOBAL
  FFTLIB FFTW
  PROGRAM FIST
  PROJECT water_1
  RUN_TYPE md
&END GLOBAL
&MOTION
  &MD
    ENSEMBLE NVE
    STEPS 2
    TIMESTEP 2.5
    TEMPERATURE 298
    &NOSE
      LENGTH 3
      YOSHIDA 3
      TIMECON 1000
      MTS 2
    &END NOSE
  &END MD
  &RESTRAINT
    &DIST
      ATOMS 1 2
      K       [kcalmol*angstrom^-2] 450.0
      R0      [angstrom]              0.9572
    &END DIST
    &DIST
      ATOMS 1 3
      K       [kcalmol*angstrom^-2] 450.0
      R0      [angstrom]              0.9572
    &END DIST
    &ANGLE
      ATOMS 2 1 3
      K           [kcalmol*rad^-2]  55.0
      THETA0      [deg]            104.52
    &END ANGLE
  &END RESTRAINT
&END MOTION
