
&FORCE_EVAL
  &MM
    &FORCEFIELD
      parmfile h2po4.pot
      parmtype CHM
    &END FORCEFIELD
    &POISSON_MM
      &EWALD
        EWALD_TYPE spme
        ALPHA .44
        GMAX 64
        O_SPLINE 6
      &END EWALD
    &END POISSON_MM
  &END MM
  &SUBSYS
    &CELL
      ABC 24.1317 24.1317 24.1317
      UNIT ANGSTROM
    &END CELL
    &TOPOLOGY
      CONN_FILE h2po4.psf
      CONNECTIVITY PSF
      COORD_FILE h2po4.pdb
      COORDINATE pdb
    &END TOPOLOGY
  &END SUBSYS
&END FORCE_EVAL
&GLOBAL
  FFTLIB FFTSG
  PROGRAM FIST
  PROJECT res_h2po4
  RUN_TYPE md
&END GLOBAL
&MOTION
  &MD
    ENSEMBLE NVE
    STEPS 10
    TIMESTEP 1.0
    TEMPERATURE 300
    &NOSE
      LENGTH 3
      YOSHIDA 3
      TIMECON 1000
      MTS 2
    &END NOSE
  &END MD
&END MOTION
