
&FORCE_EVAL
  METHOD FIST
  &MM
    &FORCEFIELD
      parm_file_name ../sample_pot/h2po4.pot
      parmtype CHM
    &END FORCEFIELD
    &POISSON
      &EWALD
        EWALD_TYPE spme
        ALPHA .44
        GMAX 32
        O_SPLINE 6
      &END EWALD
    &END POISSON
  &END MM
  &SUBSYS
    &CELL
      ABC 24.1317 24.1317 24.1317
    &END CELL
    &TOPOLOGY
      CONN_FILE_NAME ../sample_psf/h2po4.psf
      CONNECTIVITY UPSF
      COORD_FILE_NAME ../sample_pdb/h2po4.pdb
      COORDINATE pdb
    &END TOPOLOGY
  &END SUBSYS
&END FORCE_EVAL
&GLOBAL

  PROJECT res_h2po4
  RUN_TYPE md
&END GLOBAL
&MOTION
  &MD
    ENSEMBLE NVE
    STEPS 2
    TIMESTEP 1.0
    TEMPERATURE 300
  &END MD
&END MOTION
