&FORCE_EVAL
  METHOD Fist
  &MM
    &FORCEFIELD
      &CHARGE
        ATOM O
        CHARGE -1.0
      &END CHARGE
      &CHARGE
        ATOM H
        CHARGE 0.5
      &END CHARGE
      &NONBONDED
        &LENNARD-JONES
          atoms O O
          EPSILON 0.0
          SIGMA 1.0
          RCUT 2.0
        &END LENNARD-JONES
        &LENNARD-JONES
          atoms O H
          EPSILON 0.0
          SIGMA 1.0
          RCUT 2.0
        &END LENNARD-JONES
        &LENNARD-JONES
          atoms H H
          EPSILON 0.0
          SIGMA 1.0
          RCUT 2.0
        &END LENNARD-JONES
      &END NONBONDED
    &END FORCEFIELD
    &POISSON
      &EWALD
        &MULTIPOLES
          MAX_MULTIPOLE_EXPANSION QUADRUPOLE
        &END
        EWALD_TYPE ewald
        ALPHA .03
        GMAX 31
      &END EWALD
    &END POISSON
  &END MM
  &SUBSYS
    &CELL
      ABC 9.865 9.865 9.865
    &END CELL
    &COORD
      O    -4.583   5.333   1.560   H2O
      H    -3.777   5.331   0.943   H2O
      H    -5.081   4.589   1.176   H2O
    &END COORD
    &TOPOLOGY
      CONNECTIVITY OFF
    &END
  &END SUBSYS
  &PRINT
    &FORCES
    &END
  &END
&END FORCE_EVAL
&GLOBAL
  PROJECT H2O
  RUN_TYPE DEBUG
&END GLOBAL
&DEBUG
&END
