
&FORCE_EVAL
  &MM
    &FORCEFIELD
      &CHARGE
        ATOM Na
        CHARGE +1.000
      &END CHARGE
      &CHARGE
        ATOM Cl
        CHARGE -1.000
      &END CHARGE
      &NONBONDED
        &BMHFT
          atoms NA NA
          RCUT 10.0
        &END BMHFT
        &BMHFT
          atoms NA CL
          RCUT 10.0
        &END BMHFT
        &BMHFT
          atoms CL CL
          RCUT 10.0
        &END BMHFT
      &END NONBONDED
    &END FORCEFIELD
    &POISSON
      &EWALD
        EWALD_TYPE spme
        ALPHA .5
        GMAX 40
        O_SPLINE 6
      &END EWALD
    &END POISSON
  &END MM
  &SUBSYS
    &CELL
      ABC 22.480 22.480 22.480
      UNIT ANGSTROM
    &END CELL
    &TOPOLOGY
      COORD_FILE_NAME ../sample_pdb/NaCl.pdb
      COORDINATE PDB
    &END TOPOLOGY
  &END SUBSYS
&END FORCE_EVAL
&GLOBAL
  FFTLIB FFTW
  PROGRAM Fist
  PROJECT NaCl
  RUN_TYPE MD
&END GLOBAL
&MOTION
  &MD
    ENSEMBLE NVT
    STEPS 10
    TIMESTEP 2.5
    TEMPERATURE 300.0
    &NOSE
      LENGTH 3
      YOSHIDA 3
      TIMECON 1000
      MTS 2
    &END NOSE
  &END MD
&END MOTION
