
&FORCE_EVAL
  &MM
    &FORCEFIELD
      &spline
       rcut_nb 6.9
      &end
      parmfile charmm.pot
      parmtype CHM
      &CHARGE
        ATOM NH3
        CHARGE -1.14
      &END CHARGE
      &CHARGE
        ATOM HC
        CHARGE 0.38
      &END CHARGE
    &END FORCEFIELD
    &POISSON
      &EWALD
        EWALD_TYPE ewald
        ALPHA .5
        GMAX 21
      &END EWALD
    &END POISSON
  &END MM
  &SUBSYS
    &CELL
      ABC 13.858 13.858 13.858
      UNIT ANGSTROM
    &END CELL
    &CONSTRAINT
      &COLLECTIVE
        TARGET 1.9275
        MOLECULE 1
        COLVAR 1
      &END COLLECTIVE
      &COLLECTIVE
        TARGET 1.9275
        MOLECULE 1
        COLVAR 2
      &END COLLECTIVE
      &COLLECTIVE
        TARGET 1.9275
        MOLECULE 1
        COLVAR 3
      &END COLLECTIVE
      &COLLECTIVE
        TARGET 3.1483
        MOLECULE 1
        COLVAR 4
      &END COLLECTIVE
      &COLLECTIVE
        TARGET 3.1483
        MOLECULE 1
        COLVAR 5
      &END COLLECTIVE
      &COLLECTIVE
        TARGET 3.1483
        MOLECULE 1
        COLVAR 6
      &END COLLECTIVE
    &END CONSTRAINT
    &COLVAR
      &DISTANCE
        ATOMS 1 2
      &END DISTANCE
    &END COLVAR
    &COLVAR
      &DISTANCE
        ATOMS 1 3
      &END DISTANCE
    &END COLVAR
    &COLVAR
      &DISTANCE
        ATOMS 1 4
      &END DISTANCE
    &END COLVAR
    &COLVAR
      &DISTANCE
        ATOMS 2 3
      &END DISTANCE
    &END COLVAR
    &COLVAR
      &DISTANCE
        ATOMS 2 4
      &END DISTANCE
    &END COLVAR
    &COLVAR
      &DISTANCE
        ATOMS 3 4
      &END DISTANCE
    &END COLVAR
    &TOPOLOGY
      COORD_FILE_NAME ../sample_pdb/NH3.pdb
      COORDINATE PDB
      NHCOPT MOLECULE
    &END TOPOLOGY
  &END SUBSYS
&END FORCE_EVAL
&GLOBAL
  FFTLIB FFTSG
  PRINT_LEVEL LOW
  PROGRAM FIST
  PROJECT NH3
  RUN_TYPE MD
&END GLOBAL
&MOTION
  &MD
    ENSEMBLE NVT
    STEPS 5
    TIMESTEP 2.5
    TEMPERATURE 298
    &NOSE
      LENGTH 1
      YOSHIDA 3
      TIMECON 500
      MTS 2
    &END NOSE
  &END MD
&END MOTION
