
&FORCE_EVAL
  &MM
    &FORCEFIELD
      rcut_nb 6.9
      parmfile charmm.pot
      parmtype CHM
      &CHARGE
        ATOM NH3
        CHARGE -1.14
      &END CHARGE
      &CHARGE
        ATOM HC
        CHARGE 0.38
      &END CHARGE
    &END FORCEFIELD
    &POISSON_MM
      &EWALD
        EWALD_TYPE ewald
        ALPHA .5
        GMAX 21
      &END EWALD
    &END POISSON_MM
  &END MM
  &SUBSYS
    &CELL
      ABC 13.858 13.858 13.858
      UNIT ANGSTROM
    &END CELL
    &CONSTRAINT
      &G4X6
        DISTANCES 1.9275 1.9275 1.9275 3.1483 3.1483
        MOLECULE 1
        ATOMS 1 2 3 4
      &END G4X6
    &END CONSTRAINT
    &TOPOLOGY
      COORD_FILE_NAME ../sample_pdb/NH3.pdb
      COORDINATE PDB
      NHCOPT MOLECULE
    &END TOPOLOGY
  &END SUBSYS
&END FORCE_EVAL
&GLOBAL
  FFTLIB FFTSG
  PRINT_LEVEL LOW
  PROGRAM FIST
  PROJECT NH3
  RUN_TYPE MD
&END GLOBAL
&MOTION
  &MD
    ENSEMBLE NPT_I
    STEPS 5
    TIMESTEP 2.5
    TEMPERATURE 298
    RESTART INIT
    &NOSE
      LENGTH 1
      YOSHIDA 3
      TIMECON 500
      MTS 2
    &END NOSE
  &END MD
&END MOTION
