
&FORCE_EVAL
  &MM
    &FORCEFIELD
      parmfile pot_onfo.pot
      parmtype CHM
      ei_scale14 1.0
    &END FORCEFIELD
    &POISSON
      &EWALD
        EWALD_TYPE spme
        ALPHA .44
        GMAX 24
        O_SPLINE 6
      &END EWALD
    &END POISSON
  &END MM
  &SUBSYS
    &CELL
      ABC 24.955 24.955 24.955
      UNIT ANGSTROM
    &END CELL
    &TOPOLOGY
      CHARGE_O
      COORD_FILE ../sample_pdb/butane.pdb
      COORDINATE pdb
    &END TOPOLOGY
  &END SUBSYS
&END FORCE_EVAL
&GLOBAL
  FFTLIB FFTW
  PROGRAM FIST
  PROJECT pot_onfo
  RUN_TYPE md
&END GLOBAL
&MOTION
  &MD
    ENSEMBLE NVE
    STEPS 1
    TIMESTEP 0.5
    TEMPERATURE 298
  &END MD
&END MOTION
