&GLOBAL
  FFTLIB FFTSG
  PROGRAM_NAME EIP
  PROJECT Silicon1000
  RUN_TYPE MD
  PRINT_LEVEL LOW
&END GLOBAL
&MOTION
  &MD
    ENSEMBLE NVE
    STEPS 10
    TIMESTEP 1.0
    TEMPERATURE 300.0
  &END MD
&END MOTION

&FORCE_EVAL
  &EIP
   EIP_MODEL BAZANT
  &END EIP
  &SUBSYS
    &CELL
      ABC 27.1550 27.1550 27.1550
      UNIT ANGSTROM
    &END CELL
    &COORD
Si      0.000000    0.000000    0.000000
Si      0.000000    2.715500    2.715500
Si      2.715500    0.000000    2.715500
Si      2.715500    2.715500    0.000000
Si      1.357750    1.357750    1.357750
Si      4.073250    4.073250    1.357750
Si      4.073250    1.357750    4.073250
Si      1.357750    4.073250    4.073250
Si      0.000000    0.000000    5.431000
Si      0.000000    2.715500    8.146500
Si      2.715500    0.000000    8.146500
Si      2.715500    2.715500    5.431000
Si      1.357750    1.357750    6.788750
Si      4.073250    4.073250    6.788750
Si      4.073250    1.357750    9.504250
Si      1.357750    4.073250    9.504250
Si      0.000000    0.000000   10.862000
Si      0.000000    2.715500   13.577500
Si      2.715500    0.000000   13.577500
Si      2.715500    2.715500   10.862000
Si      1.357750    1.357750   12.219750
Si      4.073250    4.073250   12.219750
Si      4.073250    1.357750   14.935250
Si      1.357750    4.073250   14.935250
Si      0.000000    0.000000   16.293000
Si      0.000000    2.715500   19.008500
Si      2.715500    0.000000   19.008500
Si      2.715500    2.715500   16.293000
Si      1.357750    1.357750   17.650750
Si      4.073250    4.073250   17.650750
Si      4.073250    1.357750   20.366250
Si      1.357750    4.073250   20.366250
Si      0.000000    0.000000   21.724000
Si      0.000000    2.715500   24.439500
Si      2.715500    0.000000   24.439500
Si      2.715500    2.715500   21.724000
Si      1.357750    1.357750   23.081750
Si      4.073250    4.073250   23.081750
Si      4.073250    1.357750   25.797250
Si      1.357750    4.073250   25.797250
Si      0.000000    5.431000    0.000000
Si      0.000000    8.146500    2.715500
Si      2.715500    5.431000    2.715500
Si      2.715500    8.146500    0.000000
Si      1.357750    6.788750    1.357750
Si      4.073250    9.504250    1.357750
Si      4.073250    6.788750    4.073250
Si      1.357750    9.504250    4.073250
Si      0.000000    5.431000    5.431000
Si      0.000000    8.146500    8.146500
Si      2.715500    5.431000    8.146500
Si      2.715500    8.146500    5.431000
Si      1.357750    6.788750    6.788750
Si      4.073250    9.504250    6.788750
Si      4.073250    6.788750    9.504250
Si      1.357750    9.504250    9.504250
Si      0.000000    5.431000   10.862000
Si      0.000000    8.146500   13.577500
Si      2.715500    5.431000   13.577500
Si      2.715500    8.146500   10.862000
Si      1.357750    6.788750   12.219750
Si      4.073250    9.504250   12.219750
Si      4.073250    6.788750   14.935250
Si      1.357750    9.504250   14.935250
Si      0.000000    5.431000   16.293000
Si      0.000000    8.146500   19.008500
Si      2.715500    5.431000   19.008500
Si      2.715500    8.146500   16.293000
Si      1.357750    6.788750   17.650750
Si      4.073250    9.504250   17.650750
Si      4.073250    6.788750   20.366250
Si      1.357750    9.504250   20.366250
Si      0.000000    5.431000   21.724000
Si      0.000000    8.146500   24.439500
Si      2.715500    5.431000   24.439500
Si      2.715500    8.146500   21.724000
Si      1.357750    6.788750   23.081750
Si      4.073250    9.504250   23.081750
Si      4.073250    6.788750   25.797250
Si      1.357750    9.504250   25.797250
Si      0.000000   10.862000    0.000000
Si      0.000000   13.577500    2.715500
Si      2.715500   10.862000    2.715500
Si      2.715500   13.577500    0.000000
Si      1.357750   12.219750    1.357750
Si      4.073250   14.935250    1.357750
Si      4.073250   12.219750    4.073250
Si      1.357750   14.935250    4.073250
Si      0.000000   10.862000    5.431000
Si      0.000000   13.577500    8.146500
Si      2.715500   10.862000    8.146500
Si      2.715500   13.577500    5.431000
Si      1.357750   12.219750    6.788750
Si      4.073250   14.935250    6.788750
Si      4.073250   12.219750    9.504250
Si      1.357750   14.935250    9.504250
Si      0.000000   10.862000   10.862000
Si      0.000000   13.577500   13.577500
Si      2.715500   10.862000   13.577500
Si      2.715500   13.577500   10.862000
Si      1.357750   12.219750   12.219750
Si      4.073250   14.935250   12.219750
Si      4.073250   12.219750   14.935250
Si      1.357750   14.935250   14.935250
Si      0.000000   10.862000   16.293000
Si      0.000000   13.577500   19.008500
Si      2.715500   10.862000   19.008500
Si      2.715500   13.577500   16.293000
Si      1.357750   12.219750   17.650750
Si      4.073250   14.935250   17.650750
Si      4.073250   12.219750   20.366250
Si      1.357750   14.935250   20.366250
Si      0.000000   10.862000   21.724000
Si      0.000000   13.577500   24.439500
Si      2.715500   10.862000   24.439500
Si      2.715500   13.577500   21.724000
Si      1.357750   12.219750   23.081750
Si      4.073250   14.935250   23.081750
Si      4.073250   12.219750   25.797250
Si      1.357750   14.935250   25.797250
Si      0.000000   16.293000    0.000000
Si      0.000000   19.008500    2.715500
Si      2.715500   16.293000    2.715500
Si      2.715500   19.008500    0.000000
Si      1.357750   17.650750    1.357750
Si      4.073250   20.366250    1.357750
Si      4.073250   17.650750    4.073250
Si      1.357750   20.366250    4.073250
Si      0.000000   16.293000    5.431000
Si      0.000000   19.008500    8.146500
Si      2.715500   16.293000    8.146500
Si      2.715500   19.008500    5.431000
Si      1.357750   17.650750    6.788750
Si      4.073250   20.366250    6.788750
Si      4.073250   17.650750    9.504250
Si      1.357750   20.366250    9.504250
Si      0.000000   16.293000   10.862000
Si      0.000000   19.008500   13.577500
Si      2.715500   16.293000   13.577500
Si      2.715500   19.008500   10.862000
Si      1.357750   17.650750   12.219750
Si      4.073250   20.366250   12.219750
Si      4.073250   17.650750   14.935250
Si      1.357750   20.366250   14.935250
Si      0.000000   16.293000   16.293000
Si      0.000000   19.008500   19.008500
Si      2.715500   16.293000   19.008500
Si      2.715500   19.008500   16.293000
Si      1.357750   17.650750   17.650750
Si      4.073250   20.366250   17.650750
Si      4.073250   17.650750   20.366250
Si      1.357750   20.366250   20.366250
Si      0.000000   16.293000   21.724000
Si      0.000000   19.008500   24.439500
Si      2.715500   16.293000   24.439500
Si      2.715500   19.008500   21.724000
Si      1.357750   17.650750   23.081750
Si      4.073250   20.366250   23.081750
Si      4.073250   17.650750   25.797250
Si      1.357750   20.366250   25.797250
Si      0.000000   21.724000    0.000000
Si      0.000000   24.439500    2.715500
Si      2.715500   21.724000    2.715500
Si      2.715500   24.439500    0.000000
Si      1.357750   23.081750    1.357750
Si      4.073250   25.797250    1.357750
Si      4.073250   23.081750    4.073250
Si      1.357750   25.797250    4.073250
Si      0.000000   21.724000    5.431000
Si      0.000000   24.439500    8.146500
Si      2.715500   21.724000    8.146500
Si      2.715500   24.439500    5.431000
Si      1.357750   23.081750    6.788750
Si      4.073250   25.797250    6.788750
Si      4.073250   23.081750    9.504250
Si      1.357750   25.797250    9.504250
Si      0.000000   21.724000   10.862000
Si      0.000000   24.439500   13.577500
Si      2.715500   21.724000   13.577500
Si      2.715500   24.439500   10.862000
Si      1.357750   23.081750   12.219750
Si      4.073250   25.797250   12.219750
Si      4.073250   23.081750   14.935250
Si      1.357750   25.797250   14.935250
Si      0.000000   21.724000   16.293000
Si      0.000000   24.439500   19.008500
Si      2.715500   21.724000   19.008500
Si      2.715500   24.439500   16.293000
Si      1.357750   23.081750   17.650750
Si      4.073250   25.797250   17.650750
Si      4.073250   23.081750   20.366250
Si      1.357750   25.797250   20.366250
Si      0.000000   21.724000   21.724000
Si      0.000000   24.439500   24.439500
Si      2.715500   21.724000   24.439500
Si      2.715500   24.439500   21.724000
Si      1.357750   23.081750   23.081750
Si      4.073250   25.797250   23.081750
Si      4.073250   23.081750   25.797250
Si      1.357750   25.797250   25.797250
Si      5.431000    0.000000    0.000000
Si      5.431000    2.715500    2.715500
Si      8.146500    0.000000    2.715500
Si      8.146500    2.715500    0.000000
Si      6.788750    1.357750    1.357750
Si      9.504250    4.073250    1.357750
Si      9.504250    1.357750    4.073250
Si      6.788750    4.073250    4.073250
Si      5.431000    0.000000    5.431000
Si      5.431000    2.715500    8.146500
Si      8.146500    0.000000    8.146500
Si      8.146500    2.715500    5.431000
Si      6.788750    1.357750    6.788750
Si      9.504250    4.073250    6.788750
Si      9.504250    1.357750    9.504250
Si      6.788750    4.073250    9.504250
Si      5.431000    0.000000   10.862000
Si      5.431000    2.715500   13.577500
Si      8.146500    0.000000   13.577500
Si      8.146500    2.715500   10.862000
Si      6.788750    1.357750   12.219750
Si      9.504250    4.073250   12.219750
Si      9.504250    1.357750   14.935250
Si      6.788750    4.073250   14.935250
Si      5.431000    0.000000   16.293000
Si      5.431000    2.715500   19.008500
Si      8.146500    0.000000   19.008500
Si      8.146500    2.715500   16.293000
Si      6.788750    1.357750   17.650750
Si      9.504250    4.073250   17.650750
Si      9.504250    1.357750   20.366250
Si      6.788750    4.073250   20.366250
Si      5.431000    0.000000   21.724000
Si      5.431000    2.715500   24.439500
Si      8.146500    0.000000   24.439500
Si      8.146500    2.715500   21.724000
Si      6.788750    1.357750   23.081750
Si      9.504250    4.073250   23.081750
Si      9.504250    1.357750   25.797250
Si      6.788750    4.073250   25.797250
Si      5.431000    5.431000    0.000000
Si      5.431000    8.146500    2.715500
Si      8.146500    5.431000    2.715500
Si      8.146500    8.146500    0.000000
Si      6.788750    6.788750    1.357750
Si      9.504250    9.504250    1.357750
Si      9.504250    6.788750    4.073250
Si      6.788750    9.504250    4.073250
Si      5.431000    5.431000    5.431000
Si      5.431000    8.146500    8.146500
Si      8.146500    5.431000    8.146500
Si      8.146500    8.146500    5.431000
Si      6.788750    6.788750    6.788750
Si      9.504250    9.504250    6.788750
Si      9.504250    6.788750    9.504250
Si      6.788750    9.504250    9.504250
Si      5.431000    5.431000   10.862000
Si      5.431000    8.146500   13.577500
Si      8.146500    5.431000   13.577500
Si      8.146500    8.146500   10.862000
Si      6.788750    6.788750   12.219750
Si      9.504250    9.504250   12.219750
Si      9.504250    6.788750   14.935250
Si      6.788750    9.504250   14.935250
Si      5.431000    5.431000   16.293000
Si      5.431000    8.146500   19.008500
Si      8.146500    5.431000   19.008500
Si      8.146500    8.146500   16.293000
Si      6.788750    6.788750   17.650750
Si      9.504250    9.504250   17.650750
Si      9.504250    6.788750   20.366250
Si      6.788750    9.504250   20.366250
Si      5.431000    5.431000   21.724000
Si      5.431000    8.146500   24.439500
Si      8.146500    5.431000   24.439500
Si      8.146500    8.146500   21.724000
Si      6.788750    6.788750   23.081750
Si      9.504250    9.504250   23.081750
Si      9.504250    6.788750   25.797250
Si      6.788750    9.504250   25.797250
Si      5.431000   10.862000    0.000000
Si      5.431000   13.577500    2.715500
Si      8.146500   10.862000    2.715500
Si      8.146500   13.577500    0.000000
Si      6.788750   12.219750    1.357750
Si      9.504250   14.935250    1.357750
Si      9.504250   12.219750    4.073250
Si      6.788750   14.935250    4.073250
Si      5.431000   10.862000    5.431000
Si      5.431000   13.577500    8.146500
Si      8.146500   10.862000    8.146500
Si      8.146500   13.577500    5.431000
Si      6.788750   12.219750    6.788750
Si      9.504250   14.935250    6.788750
Si      9.504250   12.219750    9.504250
Si      6.788750   14.935250    9.504250
Si      5.431000   10.862000   10.862000
Si      5.431000   13.577500   13.577500
Si      8.146500   10.862000   13.577500
Si      8.146500   13.577500   10.862000
Si      6.788750   12.219750   12.219750
Si      9.504250   14.935250   12.219750
Si      9.504250   12.219750   14.935250
Si      6.788750   14.935250   14.935250
Si      5.431000   10.862000   16.293000
Si      5.431000   13.577500   19.008500
Si      8.146500   10.862000   19.008500
Si      8.146500   13.577500   16.293000
Si      6.788750   12.219750   17.650750
Si      9.504250   14.935250   17.650750
Si      9.504250   12.219750   20.366250
Si      6.788750   14.935250   20.366250
Si      5.431000   10.862000   21.724000
Si      5.431000   13.577500   24.439500
Si      8.146500   10.862000   24.439500
Si      8.146500   13.577500   21.724000
Si      6.788750   12.219750   23.081750
Si      9.504250   14.935250   23.081750
Si      9.504250   12.219750   25.797250
Si      6.788750   14.935250   25.797250
Si      5.431000   16.293000    0.000000
Si      5.431000   19.008500    2.715500
Si      8.146500   16.293000    2.715500
Si      8.146500   19.008500    0.000000
Si      6.788750   17.650750    1.357750
Si      9.504250   20.366250    1.357750
Si      9.504250   17.650750    4.073250
Si      6.788750   20.366250    4.073250
Si      5.431000   16.293000    5.431000
Si      5.431000   19.008500    8.146500
Si      8.146500   16.293000    8.146500
Si      8.146500   19.008500    5.431000
Si      6.788750   17.650750    6.788750
Si      9.504250   20.366250    6.788750
Si      9.504250   17.650750    9.504250
Si      6.788750   20.366250    9.504250
Si      5.431000   16.293000   10.862000
Si      5.431000   19.008500   13.577500
Si      8.146500   16.293000   13.577500
Si      8.146500   19.008500   10.862000
Si      6.788750   17.650750   12.219750
Si      9.504250   20.366250   12.219750
Si      9.504250   17.650750   14.935250
Si      6.788750   20.366250   14.935250
Si      5.431000   16.293000   16.293000
Si      5.431000   19.008500   19.008500
Si      8.146500   16.293000   19.008500
Si      8.146500   19.008500   16.293000
Si      6.788750   17.650750   17.650750
Si      9.504250   20.366250   17.650750
Si      9.504250   17.650750   20.366250
Si      6.788750   20.366250   20.366250
Si      5.431000   16.293000   21.724000
Si      5.431000   19.008500   24.439500
Si      8.146500   16.293000   24.439500
Si      8.146500   19.008500   21.724000
Si      6.788750   17.650750   23.081750
Si      9.504250   20.366250   23.081750
Si      9.504250   17.650750   25.797250
Si      6.788750   20.366250   25.797250
Si      5.431000   21.724000    0.000000
Si      5.431000   24.439500    2.715500
Si      8.146500   21.724000    2.715500
Si      8.146500   24.439500    0.000000
Si      6.788750   23.081750    1.357750
Si      9.504250   25.797250    1.357750
Si      9.504250   23.081750    4.073250
Si      6.788750   25.797250    4.073250
Si      5.431000   21.724000    5.431000
Si      5.431000   24.439500    8.146500
Si      8.146500   21.724000    8.146500
Si      8.146500   24.439500    5.431000
Si      6.788750   23.081750    6.788750
Si      9.504250   25.797250    6.788750
Si      9.504250   23.081750    9.504250
Si      6.788750   25.797250    9.504250
Si      5.431000   21.724000   10.862000
Si      5.431000   24.439500   13.577500
Si      8.146500   21.724000   13.577500
Si      8.146500   24.439500   10.862000
Si      6.788750   23.081750   12.219750
Si      9.504250   25.797250   12.219750
Si      9.504250   23.081750   14.935250
Si      6.788750   25.797250   14.935250
Si      5.431000   21.724000   16.293000
Si      5.431000   24.439500   19.008500
Si      8.146500   21.724000   19.008500
Si      8.146500   24.439500   16.293000
Si      6.788750   23.081750   17.650750
Si      9.504250   25.797250   17.650750
Si      9.504250   23.081750   20.366250
Si      6.788750   25.797250   20.366250
Si      5.431000   21.724000   21.724000
Si      5.431000   24.439500   24.439500
Si      8.146500   21.724000   24.439500
Si      8.146500   24.439500   21.724000
Si      6.788750   23.081750   23.081750
Si      9.504250   25.797250   23.081750
Si      9.504250   23.081750   25.797250
Si      6.788750   25.797250   25.797250
Si     10.862000    0.000000    0.000000
Si     10.862000    2.715500    2.715500
Si     13.577500    0.000000    2.715500
Si     13.577500    2.715500    0.000000
Si     12.219750    1.357750    1.357750
Si     14.935250    4.073250    1.357750
Si     14.935250    1.357750    4.073250
Si     12.219750    4.073250    4.073250
Si     10.862000    0.000000    5.431000
Si     10.862000    2.715500    8.146500
Si     13.577500    0.000000    8.146500
Si     13.577500    2.715500    5.431000
Si     12.219750    1.357750    6.788750
Si     14.935250    4.073250    6.788750
Si     14.935250    1.357750    9.504250
Si     12.219750    4.073250    9.504250
Si     10.862000    0.000000   10.862000
Si     10.862000    2.715500   13.577500
Si     13.577500    0.000000   13.577500
Si     13.577500    2.715500   10.862000
Si     12.219750    1.357750   12.219750
Si     14.935250    4.073250   12.219750
Si     14.935250    1.357750   14.935250
Si     12.219750    4.073250   14.935250
Si     10.862000    0.000000   16.293000
Si     10.862000    2.715500   19.008500
Si     13.577500    0.000000   19.008500
Si     13.577500    2.715500   16.293000
Si     12.219750    1.357750   17.650750
Si     14.935250    4.073250   17.650750
Si     14.935250    1.357750   20.366250
Si     12.219750    4.073250   20.366250
Si     10.862000    0.000000   21.724000
Si     10.862000    2.715500   24.439500
Si     13.577500    0.000000   24.439500
Si     13.577500    2.715500   21.724000
Si     12.219750    1.357750   23.081750
Si     14.935250    4.073250   23.081750
Si     14.935250    1.357750   25.797250
Si     12.219750    4.073250   25.797250
Si     10.862000    5.431000    0.000000
Si     10.862000    8.146500    2.715500
Si     13.577500    5.431000    2.715500
Si     13.577500    8.146500    0.000000
Si     12.219750    6.788750    1.357750
Si     14.935250    9.504250    1.357750
Si     14.935250    6.788750    4.073250
Si     12.219750    9.504250    4.073250
Si     10.862000    5.431000    5.431000
Si     10.862000    8.146500    8.146500
Si     13.577500    5.431000    8.146500
Si     13.577500    8.146500    5.431000
Si     12.219750    6.788750    6.788750
Si     14.935250    9.504250    6.788750
Si     14.935250    6.788750    9.504250
Si     12.219750    9.504250    9.504250
Si     10.862000    5.431000   10.862000
Si     10.862000    8.146500   13.577500
Si     13.577500    5.431000   13.577500
Si     13.577500    8.146500   10.862000
Si     12.219750    6.788750   12.219750
Si     14.935250    9.504250   12.219750
Si     14.935250    6.788750   14.935250
Si     12.219750    9.504250   14.935250
Si     10.862000    5.431000   16.293000
Si     10.862000    8.146500   19.008500
Si     13.577500    5.431000   19.008500
Si     13.577500    8.146500   16.293000
Si     12.219750    6.788750   17.650750
Si     14.935250    9.504250   17.650750
Si     14.935250    6.788750   20.366250
Si     12.219750    9.504250   20.366250
Si     10.862000    5.431000   21.724000
Si     10.862000    8.146500   24.439500
Si     13.577500    5.431000   24.439500
Si     13.577500    8.146500   21.724000
Si     12.219750    6.788750   23.081750
Si     14.935250    9.504250   23.081750
Si     14.935250    6.788750   25.797250
Si     12.219750    9.504250   25.797250
Si     10.862000   10.862000    0.000000
Si     10.862000   13.577500    2.715500
Si     13.577500   10.862000    2.715500
Si     13.577500   13.577500    0.000000
Si     12.219750   12.219750    1.357750
Si     14.935250   14.935250    1.357750
Si     14.935250   12.219750    4.073250
Si     12.219750   14.935250    4.073250
Si     10.862000   10.862000    5.431000
Si     10.862000   13.577500    8.146500
Si     13.577500   10.862000    8.146500
Si     13.577500   13.577500    5.431000
Si     12.219750   12.219750    6.788750
Si     14.935250   14.935250    6.788750
Si     14.935250   12.219750    9.504250
Si     12.219750   14.935250    9.504250
Si     10.862000   10.862000   10.862000
Si     10.862000   13.577500   13.577500
Si     13.577500   10.862000   13.577500
Si     13.577500   13.577500   10.862000
Si     12.219750   12.219750   12.219750
Si     14.935250   14.935250   12.219750
Si     14.935250   12.219750   14.935250
Si     12.219750   14.935250   14.935250
Si     10.862000   10.862000   16.293000
Si     10.862000   13.577500   19.008500
Si     13.577500   10.862000   19.008500
Si     13.577500   13.577500   16.293000
Si     12.219750   12.219750   17.650750
Si     14.935250   14.935250   17.650750
Si     14.935250   12.219750   20.366250
Si     12.219750   14.935250   20.366250
Si     10.862000   10.862000   21.724000
Si     10.862000   13.577500   24.439500
Si     13.577500   10.862000   24.439500
Si     13.577500   13.577500   21.724000
Si     12.219750   12.219750   23.081750
Si     14.935250   14.935250   23.081750
Si     14.935250   12.219750   25.797250
Si     12.219750   14.935250   25.797250
Si     10.862000   16.293000    0.000000
Si     10.862000   19.008500    2.715500
Si     13.577500   16.293000    2.715500
Si     13.577500   19.008500    0.000000
Si     12.219750   17.650750    1.357750
Si     14.935250   20.366250    1.357750
Si     14.935250   17.650750    4.073250
Si     12.219750   20.366250    4.073250
Si     10.862000   16.293000    5.431000
Si     10.862000   19.008500    8.146500
Si     13.577500   16.293000    8.146500
Si     13.577500   19.008500    5.431000
Si     12.219750   17.650750    6.788750
Si     14.935250   20.366250    6.788750
Si     14.935250   17.650750    9.504250
Si     12.219750   20.366250    9.504250
Si     10.862000   16.293000   10.862000
Si     10.862000   19.008500   13.577500
Si     13.577500   16.293000   13.577500
Si     13.577500   19.008500   10.862000
Si     12.219750   17.650750   12.219750
Si     14.935250   20.366250   12.219750
Si     14.935250   17.650750   14.935250
Si     12.219750   20.366250   14.935250
Si     10.862000   16.293000   16.293000
Si     10.862000   19.008500   19.008500
Si     13.577500   16.293000   19.008500
Si     13.577500   19.008500   16.293000
Si     12.219750   17.650750   17.650750
Si     14.935250   20.366250   17.650750
Si     14.935250   17.650750   20.366250
Si     12.219750   20.366250   20.366250
Si     10.862000   16.293000   21.724000
Si     10.862000   19.008500   24.439500
Si     13.577500   16.293000   24.439500
Si     13.577500   19.008500   21.724000
Si     12.219750   17.650750   23.081750
Si     14.935250   20.366250   23.081750
Si     14.935250   17.650750   25.797250
Si     12.219750   20.366250   25.797250
Si     10.862000   21.724000    0.000000
Si     10.862000   24.439500    2.715500
Si     13.577500   21.724000    2.715500
Si     13.577500   24.439500    0.000000
Si     12.219750   23.081750    1.357750
Si     14.935250   25.797250    1.357750
Si     14.935250   23.081750    4.073250
Si     12.219750   25.797250    4.073250
Si     10.862000   21.724000    5.431000
Si     10.862000   24.439500    8.146500
Si     13.577500   21.724000    8.146500
Si     13.577500   24.439500    5.431000
Si     12.219750   23.081750    6.788750
Si     14.935250   25.797250    6.788750
Si     14.935250   23.081750    9.504250
Si     12.219750   25.797250    9.504250
Si     10.862000   21.724000   10.862000
Si     10.862000   24.439500   13.577500
Si     13.577500   21.724000   13.577500
Si     13.577500   24.439500   10.862000
Si     12.219750   23.081750   12.219750
Si     14.935250   25.797250   12.219750
Si     14.935250   23.081750   14.935250
Si     12.219750   25.797250   14.935250
Si     10.862000   21.724000   16.293000
Si     10.862000   24.439500   19.008500
Si     13.577500   21.724000   19.008500
Si     13.577500   24.439500   16.293000
Si     12.219750   23.081750   17.650750
Si     14.935250   25.797250   17.650750
Si     14.935250   23.081750   20.366250
Si     12.219750   25.797250   20.366250
Si     10.862000   21.724000   21.724000
Si     10.862000   24.439500   24.439500
Si     13.577500   21.724000   24.439500
Si     13.577500   24.439500   21.724000
Si     12.219750   23.081750   23.081750
Si     14.935250   25.797250   23.081750
Si     14.935250   23.081750   25.797250
Si     12.219750   25.797250   25.797250
Si     16.293000    0.000000    0.000000
Si     16.293000    2.715500    2.715500
Si     19.008500    0.000000    2.715500
Si     19.008500    2.715500    0.000000
Si     17.650750    1.357750    1.357750
Si     20.366250    4.073250    1.357750
Si     20.366250    1.357750    4.073250
Si     17.650750    4.073250    4.073250
Si     16.293000    0.000000    5.431000
Si     16.293000    2.715500    8.146500
Si     19.008500    0.000000    8.146500
Si     19.008500    2.715500    5.431000
Si     17.650750    1.357750    6.788750
Si     20.366250    4.073250    6.788750
Si     20.366250    1.357750    9.504250
Si     17.650750    4.073250    9.504250
Si     16.293000    0.000000   10.862000
Si     16.293000    2.715500   13.577500
Si     19.008500    0.000000   13.577500
Si     19.008500    2.715500   10.862000
Si     17.650750    1.357750   12.219750
Si     20.366250    4.073250   12.219750
Si     20.366250    1.357750   14.935250
Si     17.650750    4.073250   14.935250
Si     16.293000    0.000000   16.293000
Si     16.293000    2.715500   19.008500
Si     19.008500    0.000000   19.008500
Si     19.008500    2.715500   16.293000
Si     17.650750    1.357750   17.650750
Si     20.366250    4.073250   17.650750
Si     20.366250    1.357750   20.366250
Si     17.650750    4.073250   20.366250
Si     16.293000    0.000000   21.724000
Si     16.293000    2.715500   24.439500
Si     19.008500    0.000000   24.439500
Si     19.008500    2.715500   21.724000
Si     17.650750    1.357750   23.081750
Si     20.366250    4.073250   23.081750
Si     20.366250    1.357750   25.797250
Si     17.650750    4.073250   25.797250
Si     16.293000    5.431000    0.000000
Si     16.293000    8.146500    2.715500
Si     19.008500    5.431000    2.715500
Si     19.008500    8.146500    0.000000
Si     17.650750    6.788750    1.357750
Si     20.366250    9.504250    1.357750
Si     20.366250    6.788750    4.073250
Si     17.650750    9.504250    4.073250
Si     16.293000    5.431000    5.431000
Si     16.293000    8.146500    8.146500
Si     19.008500    5.431000    8.146500
Si     19.008500    8.146500    5.431000
Si     17.650750    6.788750    6.788750
Si     20.366250    9.504250    6.788750
Si     20.366250    6.788750    9.504250
Si     17.650750    9.504250    9.504250
Si     16.293000    5.431000   10.862000
Si     16.293000    8.146500   13.577500
Si     19.008500    5.431000   13.577500
Si     19.008500    8.146500   10.862000
Si     17.650750    6.788750   12.219750
Si     20.366250    9.504250   12.219750
Si     20.366250    6.788750   14.935250
Si     17.650750    9.504250   14.935250
Si     16.293000    5.431000   16.293000
Si     16.293000    8.146500   19.008500
Si     19.008500    5.431000   19.008500
Si     19.008500    8.146500   16.293000
Si     17.650750    6.788750   17.650750
Si     20.366250    9.504250   17.650750
Si     20.366250    6.788750   20.366250
Si     17.650750    9.504250   20.366250
Si     16.293000    5.431000   21.724000
Si     16.293000    8.146500   24.439500
Si     19.008500    5.431000   24.439500
Si     19.008500    8.146500   21.724000
Si     17.650750    6.788750   23.081750
Si     20.366250    9.504250   23.081750
Si     20.366250    6.788750   25.797250
Si     17.650750    9.504250   25.797250
Si     16.293000   10.862000    0.000000
Si     16.293000   13.577500    2.715500
Si     19.008500   10.862000    2.715500
Si     19.008500   13.577500    0.000000
Si     17.650750   12.219750    1.357750
Si     20.366250   14.935250    1.357750
Si     20.366250   12.219750    4.073250
Si     17.650750   14.935250    4.073250
Si     16.293000   10.862000    5.431000
Si     16.293000   13.577500    8.146500
Si     19.008500   10.862000    8.146500
Si     19.008500   13.577500    5.431000
Si     17.650750   12.219750    6.788750
Si     20.366250   14.935250    6.788750
Si     20.366250   12.219750    9.504250
Si     17.650750   14.935250    9.504250
Si     16.293000   10.862000   10.862000
Si     16.293000   13.577500   13.577500
Si     19.008500   10.862000   13.577500
Si     19.008500   13.577500   10.862000
Si     17.650750   12.219750   12.219750
Si     20.366250   14.935250   12.219750
Si     20.366250   12.219750   14.935250
Si     17.650750   14.935250   14.935250
Si     16.293000   10.862000   16.293000
Si     16.293000   13.577500   19.008500
Si     19.008500   10.862000   19.008500
Si     19.008500   13.577500   16.293000
Si     17.650750   12.219750   17.650750
Si     20.366250   14.935250   17.650750
Si     20.366250   12.219750   20.366250
Si     17.650750   14.935250   20.366250
Si     16.293000   10.862000   21.724000
Si     16.293000   13.577500   24.439500
Si     19.008500   10.862000   24.439500
Si     19.008500   13.577500   21.724000
Si     17.650750   12.219750   23.081750
Si     20.366250   14.935250   23.081750
Si     20.366250   12.219750   25.797250
Si     17.650750   14.935250   25.797250
Si     16.293000   16.293000    0.000000
Si     16.293000   19.008500    2.715500