
&FORCE_EVAL
  &MM
    &FORCEFIELD
      parmfile ../sample_pot/water.pot
      parmtype CHM
      &CHARGE
        ATOM OT
        CHARGE -0.8476
      &END CHARGE
      &CHARGE
        ATOM HT
        CHARGE 0.4238
      &END CHARGE
    &END FORCEFIELD
    &POISSON
      &EWALD
        EWALD_TYPE pme
        ALPHA .44
        NS_MAX 25
      &END EWALD
    &END POISSON
  &END MM
  &SUBSYS
    &CELL
      ABC 24.955 24.955 24.955
      UNIT ANGSTROM
    &END CELL
    &CONSTRAINT
      &COLLECTIVE
        TARGET 1.8897268
        MOLECULE 1
        COLVAR 1
      &END COLLECTIVE
      &COLLECTIVE
        TARGET 1.8897268
        MOLECULE 1
        COLVAR 2
      &END COLLECTIVE
      &COLLECTIVE
        TARGET 3.0859239
        MOLECULE 1
        COLVAR 3
      &END COLLECTIVE
    &END CONSTRAINT
    &COLVAR
      &DISTANCE
        ATOMS 1 2
      &END DISTANCE
    &END COLVAR
    &COLVAR
      &DISTANCE
        ATOMS 1 3
      &END DISTANCE
    &END COLVAR
    &COLVAR
      &DISTANCE
        ATOMS 2 3
      &END DISTANCE
    &END COLVAR
    &TOPOLOGY
      COORD_FILE ../sample_pdb/water_2.pdb
      COORDINATE pdb
    &END TOPOLOGY
  &END SUBSYS
&END FORCE_EVAL
&GLOBAL
  FFTLIB FFTSG
  PROGRAM FIST
  PROJECT water_3
  RUN_TYPE MD
&END GLOBAL
&MOTION
  &MD
    ENSEMBLE NVE
    STEPS 10
    TIMESTEP 2.5
    TEMPERATURE 298
    &NOSE
      LENGTH 3
      YOSHIDA 3
      TIMECON 1000
      MTS 2
    &END NOSE
  &END MD
&END MOTION
