
&FORCE_EVAL
  &MM
    &FORCEFIELD
      parmfile ../sample_pot/water.pot
      parmtype CHM
      &CHARGE
        ATOM OT
        CHARGE -0.8476
      &END CHARGE
      &CHARGE
        ATOM HT
        CHARGE 0.4238
      &END CHARGE
    &END FORCEFIELD
    &POISSON_MM
      &EWALD
        EWALD_TYPE spme
        ALPHA .44
        GMAX 24
        O_SPLINE 6
      &END EWALD
    &END POISSON_MM
  &END MM
  &SUBSYS
    &CELL
      ABC 24.955 24.955 24.955
      UNIT ANGSTROM
    &END CELL
    &TOPOLOGY
      COORD_FILE ../sample_pdb/water_1.pdb
      COORDINATE pdb
    &END TOPOLOGY
  &END SUBSYS
&END FORCE_EVAL
&GLOBAL
  FFTLIB FFTW
  PROGRAM FIST
  PROJECT water_1
  RUN_TYPE md
&END GLOBAL
&MOTION
  &MD
    ENSEMBLE NVE
    STEPS 10
    TIMESTEP 2.5
    TEMPERATURE 298
    &NOSE
      LENGTH 3
      YOSHIDA 3
      TIMECON 1000
      MTS 2
    &END NOSE
    PV_AVA
  &END MD
&END MOTION
&EXT_RESTART
  EXTERNAL_FILE water_1-1.restart
  RESTART_BAROSTAT .FALSE.
  RESTART_BAROSTAT_NOSE .FALSE.
  RESTART_CELL .FALSE.
  RESTART_KG_COEFF_POS .FALSE.
  RESTART_KG_COEFF_VEL .FALSE.
  RESTART_KG_NOSE .FALSE.
  RESTART_NOSE .FALSE.
  RESTART_POS
  RESTART_RANDOMG .FALSE.
  RESTART_VEL  FALSE
&END
