&GLOBAL
  PRINT_LEVEL LOW
  PROJECT N2
  RUN_TYPE ENERGY_FORCE
&END GLOBAL

&FORCE_EVAL
  METHOD Quickstep
  &DFT
    BASIS_SET_FILE_NAME BASIS_MOLOPT_UZH
    BASIS_SET_FILE_NAME BASIS_ADMM_UZH
    POTENTIAL_FILE_NAME POTENTIAL_UZH
    &ENERGY_CORRECTION ON 
      ENERGY_FUNCTIONAL DCDFT
      DEBUG_FORCES
      &XC
        &XC_FUNCTIONAL LDA
        &END XC_FUNCTIONAL
      &END XC
      &RESPONSE_SOLVER
        EPS 1.0E-6
        METHOD MO_SOLVER
        PRECONDITIONER FULL_SINGLE_INVERSE
      &END RESPONSE_SOLVER
    &END ENERGY_CORRECTION
    &MGRID
      CUTOFF 100
      REL_CUTOFF 30
    &END MGRID
    &POISSON
      PERIODIC NONE
      POISSON_SOLVER MT
    &END POISSON
    &QS
      METHOD GAPW
    &END QS
    &SCF
      EPS_SCF 1.0E-8
      SCF_GUESS ATOMIC
      MAX_SCF 100
      &MIXING
        ALPHA 0.5
      &END MIXING
    &END SCF
    &XC
      &XC_FUNCTIONAL LDA
      &END XC_FUNCTIONAL
    &END XC
    &PRINT
      &DERIVATIVES ON
      &END DERIVATIVES
    &END PRINT
  &END DFT
  &PRINT
    &FORCES ON
    &END FORCES
  &END PRINT
  &SUBSYS
    &CELL
      ABC 5.0 5.0 5.0
      PERIODIC NONE
    &END CELL
    &COORD
      N     0.000000     0.000000     0.650000
      N     0.000000     0.000000    -0.650000
    &END COORD
    &KIND N
      BASIS_SET ORB DZVP-MOLOPT-GGA-GTH-q5
      BASIS_SET AUX_FIT admm-dzp-q5
      POTENTIAL GTH-GGA-q5
    &END KIND
  &END SUBSYS
&END FORCE_EVAL
