&GLOBAL
  PRINT_LEVEL LOW
  PROJECT N2
  RUN_TYPE GEO_OPT
&END GLOBAL

&MOTION
  &GEO_OPT
    MAX_ITER 2
  &END GEO_OPT
&END MOTION

&FORCE_EVAL
  METHOD Quickstep
  &DFT
    #    &PRINT
    #       &DERIVATIVES
    #       &END
    #    &END
    BASIS_SET_FILE_NAME GTH_BASIS_SETS
    POTENTIAL_FILE_NAME GTH_POTENTIALS
    &ENERGY_CORRECTION
      ENERGY_FUNCTIONAL HARRIS
      HARRIS_BASIS HARRIS
      &RESPONSE_SOLVER
        METHOD MO_SOLVER
        PRECONDITIONER FULL_SINGLE_INVERSE
      &END RESPONSE_SOLVER
      &XC
        &XC_FUNCTIONAL PADE
        &END XC_FUNCTIONAL
      &END XC
    &END ENERGY_CORRECTION
    &MGRID
      CUTOFF 400
    &END MGRID
    &POISSON
      PERIODIC NONE
      POISSON_SOLVER MT
    &END POISSON
    &QS
      EPS_DEFAULT 1.E-14
    &END QS
    &SCF
      EPS_SCF 1.0E-8
      SCF_GUESS ATOMIC
    &END SCF
    &XC
      &XC_FUNCTIONAL PADE
      &END XC_FUNCTIONAL
    &END XC
  &END DFT
  &SUBSYS
    &CELL
      ABC 4.0 4.0 4.0
      PERIODIC NONE
    &END CELL
    &COORD
      N     0.400000     0.000000     0.500000
      N    -0.400000     0.000000    -0.500000
    &END COORD
    &KIND N
      BASIS_SET ORB SZV-GTH
      BASIS_SET HARRIS DZVP-GTH
      POTENTIAL GTH-PADE-q5
    &END KIND
  &END SUBSYS
&END FORCE_EVAL
