&FORCE_EVAL
  METHOD Quickstep
  &DFT
#    &PRINT
#       &DERIVATIVES
#       &END
#    &END
    BASIS_SET_FILE_NAME GTH_BASIS_SETS
    POTENTIAL_FILE_NAME GTH_POTENTIALS
    BASIS_SET_FILE_NAME BASIS_ADMM
    &AUXILIARY_DENSITY_MATRIX_METHOD
      ADMM_PURIFICATION_METHOD NONE
      EXCH_CORRECTION_FUNC DEFAULT
      EXCH_SCALING_MODEL NONE
      METHOD BASIS_PROJECTION
    &END
    &MGRID
      CUTOFF 300
    &END MGRID
    &QS
      EPS_DEFAULT 1.E-12
    &END QS
    &ENERGY_CORRECTION
      ENERGY_FUNCTIONAL HARRIS
      HARRIS_BASIS HARRIS
      &XC
        &XC_FUNCTIONAL PBE
        &END
      &END XC
    &END ENERGY_CORRECTION
    &SCF
      EPS_SCF 1.0E-7
      SCF_GUESS ATOMIC 
    &END
    &XC
       &XC_FUNCTIONAL  PBE0
       &END
    &END XC
  &END DFT
  &SUBSYS
    &CELL
      ABC 6.0 6.0 6.0
    &END CELL
    &COORD
    N     0.400000     0.000000     0.500000    
    N    -0.400000     0.000000    -0.500000   
    &END COORD
    &KIND N
      BASIS_SET ORB DZVP-GTH
      BASIS_SET AUX_FIT FIT3
      BASIS_SET HARRIS TZV2P-GTH
      POTENTIAL GTH-PADE-q5
    &END KIND
  &END SUBSYS
&END FORCE_EVAL
&GLOBAL
  PROJECT N2 
  RUN_TYPE DEBUG
##  RUN_TYPE ENERGY_FORCE
  PRINT_LEVEL LOW
&END GLOBAL
&DEBUG
   DEBUG_FORCES T
   DEBUG_STRESS_TENSOR F
   STOP_ON_MISMATCH F
   DX 0.0001
&END
