&GLOBAL                                                                                           
  PROJECT  CH3_br89_mp2
  PRINT_LEVEL LOW
  RUN_TYPE ENERGY_FORCE
  &TIMINGS
     THRESHOLD 0.01
  &END
&END GLOBAL
&FORCE_EVAL
  METHOD Quickstep
  STRESS_TENSOR  ANALYTICAL
  &PRINT
    &FORCES
    &END FORCES
    &STRESS_TENSOR
     COMPONENTS
    &END STRESS_TENSOR
  &END
  &DFT
    BASIS_SET_FILE_NAME  GTH_BASIS_SETS
    BASIS_SET_FILE_NAME  HFX_BASIS
    POTENTIAL_FILE_NAME  POTENTIAL
    &MGRID
      CUTOFF  50
      REL_CUTOFF  20
    &END MGRID
    &QS
      METHOD GPW
      EPS_DEFAULT 1.0E-10
    &END QS
    &SCF
      SCF_GUESS ATOMIC
      EPS_SCF 1.0E-5
      MAX_SCF 100
    &END SCF
    &XC
      # Not a very useful functional, just for testing
      &XC_FUNCTIONAL
        &MGGA_X_BR89
        &END
      &END XC_FUNCTIONAL
      &WF_CORRELATION
        &RI_MP2
          BLOCK_SIZE  1
          EPS_CANONICAL 0.1
          FREE_HFX_BUFFER .TRUE.
        &END RI_MP2
        &INTEGRALS
        &WFC_GPW
          CUTOFF  20
          REL_CUTOFF 6
        &END WFC_GPW
        &END INTEGRALS
        MEMORY  500.0
        NUMBER_PROC  1
      &END
    &END XC
    UKS
    MULTIPLICITY  2
  &END DFT
  &SUBSYS
    &CELL
      ABC [angstrom] 5.0 5.0 5.0
    &END CELL
    &KIND H
      BASIS_SET  SZV-GTH
      BASIS_SET RI_AUX  RI_DZVP-GTH
      POTENTIAL  GTH-HF-q1
    &END KIND
    &KIND C
      BASIS_SET  SZV-GTH
      BASIS_SET RI_AUX  RI_DZVP-GTH
      POTENTIAL  GTH-HF-q4
    &END KIND
    &COORD 
        C     0.000     0.000     0.300
        H     0.000     1.173     0.000
        H     0.929    -0.536     0.000
        H    -0.929    -0.536     0.000
    &END COORD
    &TOPOLOGY
      &CENTER_COORDINATES
      &END
    &END TOPOLOGY
  &END SUBSYS
&END FORCE_EVAL
