
&FORCE_EVAL
  &DFT
    BASIS_SET_FILE_NAME BASIS_SET
    POTENTIAL_FILE_NAME POTENTIAL
    &MGRID
      COMMENSURATE
      CUTOFF 50
    &END MGRID
    &QS
    &END QS
    &SCF
      SCF_GUESS atomic
    &END SCF
    &XC
      &XC_FUNCTIONAL BLYP
      &END XC_FUNCTIONAL
      &XC_GRID
        XC_DERIV SPLINE2_smooth
        XC_SMOOTH_RHO NN10
      &END XC_GRID
    &END XC
  &END DFT
  &MM
    &FORCEFIELD
      parmfile 2H2O.pot
      parmtype CHM
      &spline
        rcut_nb 5.2917720830
      &end
    &END FORCEFIELD
    &POISSON
      &EWALD
        EWALD_TYPE spme
        ALPHA .44
        GMAX 64
        O_SPLINE 6
      &END EWALD
    &END POISSON
  &END MM
  &QMMM
    &CELL
      ABC 7.0 7.0 7.0
      UNIT ANGSTROM
    &END CELL
    ECOUPL GAUSS
    NOCOMPATIBILITY
    MM_POTENTIAL_FILE_NAME MM_POTENTIAL
    &INTERPOLATOR
      EPS_R 1.0e-14
      EPS_X 1.0e-14
      MAXITER 100
    &END INTERPOLATOR
    &MM_KIND HW
      RADIUS 0.44
    &END MM_KIND
    &MM_KIND OW
      RADIUS 0.78
    &END MM_KIND
    &QM_KIND H
      MM_INDEX 5 6
    &END QM_KIND
    &QM_KIND O
      MM_INDEX 4
    &END QM_KIND
  # 
  # QM_KINDS
  # 
  # 
  # MM_KINDS
  # 
  # 
  &END QMMM
  &SUBSYS
    &CELL
      ABC 20.00 20.00 20.00
      UNIT ANGSTROM
    &END CELL
    &KIND H
      BASIS_SET DZVP-GTH-BLYP
      POTENTIAL GTH-BLYP-q1
    &END KIND
    &KIND O
      BASIS_SET DZVP-GTH-BLYP
      POTENTIAL GTH-BLYP-q6
    &END KIND
    &TOPOLOGY
      CONN_FILE 2H2O.psf
      CONNECTIVITY PSF
      COORD_FILE 2H2O.pdb
      COORDINATE pdb
    &END TOPOLOGY
  &END SUBSYS
&END FORCE_EVAL
&GLOBAL
  FFTLIB FFTSG
  PROGRAM QMMM
  PROJECT 2H2O
  RUN_TYPE GEO_OPT
&END GLOBAL
&MOTION
  &GEOOPT
    MAX_ITER 3
    OPTIMIZER BFGS
  &END GEOOPT
&END MOTION
