&GLOBAL
  PRINT_LEVEL MEDIUM
  PROJECT c8_gapw_xc
  RUN_TYPE ENERGY_FORCE
&END GLOBAL

&FORCE_EVAL
  METHOD QS
  &DFT
    BASIS_SET_FILE_NAME BASIS_SET
    POTENTIAL_FILE_NAME POTENTIAL
    &MGRID
      CUTOFF 200
    &END MGRID
    &QS
      METHOD GAPW_XC
    &END QS
    &SCF
      ADDED_MOS 20
      EPS_SCF 1.0e-4
      MAX_SCF 50
      SCF_GUESS ATOMIC
      &MIXING
        GMIX_P
      &END MIXING
      &SMEAR
        ELECTRONIC_TEMPERATURE 500.
        METHOD FERMI_DIRAC
      &END SMEAR
    &END SCF
    &XC
      &XC_FUNCTIONAL PBE
      &END XC_FUNCTIONAL
    &END XC
  &END DFT
  &PRINT
    &FORCES ON
    &END FORCES
  &END PRINT
  &SUBSYS
    &CELL
      ABC 5.42858871335 5.42858871335 5.42858871335
    &END CELL
    &KIND C
      BASIS_SET DZVP-GTH-PADE
      POTENTIAL GTH-PADE-q4
    &END KIND
    &TOPOLOGY
      CONNECTIVITY OFF
      COORDINATE XYZ
      COORD_FILE_NAME ../sample_xyz/C_8.xyz
    &END TOPOLOGY
  &END SUBSYS
&END FORCE_EVAL
