&GLOBAL
  PROJECT  c8_pmix_gapw_xc 
  PRINT_LEVEL MEDIUM
  RUN_TYPE ENERGY_FORCE
  FLUSH_SHOULD_FLUSH
&END GLOBAL

&FORCE_EVAL
  METHOD QS
  &PRINT
    &FORCES ON
    &END
  &END
  &DFT
    BASIS_SET_FILE_NAME BASIS_SET
    POTENTIAL_FILE_NAME POTENTIAL
    &MGRID
      NGRIDS 4
      CUTOFF 100
    &END MGRID
    &QS
      METHOD GAPW_XC
    &END QS
    &SCF
      SCF_GUESS ATOMIC
      MAX_SCF   500
      EPS_SCF 1.0e-2
      &MIXING
          METHOD DIRECT_P_MIXING
          ALPHA 0.25
      &END
      ADDED_MOS   20 
    &END SCF
    &XC
      &XC_FUNCTIONAL PADE
      &END XC_FUNCTIONAL
    &END XC
  &END DFT

  &SUBSYS
    &CELL
      ABC 3.56683 3.56683 3.56683
    &END CELL
    &COORD
     SCALED
     C     0.000000    0.000000    0.000000
     C     0.500000    0.500000    0.000000
     C     0.500000    0.000000    0.500000
     C     0.000000    0.500000    0.500000
     C     0.250000    0.250000    0.250000
     C     0.250000    0.750000    0.750000
     C     0.750000    0.250000    0.750000
     C     0.750000    0.750000    0.250000
    &END COORD
    &KIND  C
      BASIS_SET  SZV-GTH-PADE
      POTENTIAL  GTH-PADE-q4
    &END
  &END SUBSYS
&END FORCE_EVAL

