&GLOBAL
  PRINT_LEVEL LOW
  PROJECT H2O_allnopaw
  RUN_TYPE ENERGY
&END GLOBAL

&FORCE_EVAL
  METHOD Quickstep
  &DFT
    BASIS_SET_FILE_NAME BASIS_MOLOPT
    POTENTIAL_FILE_NAME POTENTIAL
    &MGRID
      CUTOFF 280
    &END MGRID
    &POISSON
      PERIODIC NONE
      POISSON_SOLVER MT
    &END POISSON
    &QS
      METHOD GAPW_XC
    &END QS
    &SCF
      EPS_SCF 1.0E-4
      MAX_SCF 30
      SCF_GUESS atomic
      &OT
        MINIMIZER DIIS
        N_DIIS 7
        PRECONDITIONER FULL_ALL
        STEPSIZE 0.1
      &END OT
    &END SCF
    &XC
      &XC_FUNCTIONAL PADE
      &END XC_FUNCTIONAL
    &END XC
  &END DFT
  &SUBSYS
    &CELL
      ABC 5.0 5.0 5.0
      PERIODIC NONE
    &END CELL
    &COORD
      O  0.000000    0.000000    0.117226
      H  0.000000    0.757136   -0.468906
      H  0.000000   -0.757136   -0.468906
    &END COORD
    &KIND H
      BASIS_SET DZVP-MOLOPT-GTH
      GPW_TYPE
      POTENTIAL GTH-BLYP-q1
    &END KIND
    &KIND O
      BASIS_SET DZVP-MOLOPT-GTH
      GPW_TYPE
      POTENTIAL GTH-BLYP-q6
    &END KIND
  &END SUBSYS
&END FORCE_EVAL
