&GLOBAL
  FLUSH_SHOULD_FLUSH
  PRINT_LEVEL MEDIUM
  PROJECT Na_atom
  RUN_TYPE ENERGY
&END GLOBAL

&FORCE_EVAL
  METHOD QS
  &DFT
    BASIS_SET_FILE_NAME BASIS_SET
    CHARGE 0
    LSD
    POTENTIAL_FILE_NAME POTENTIAL
    &MGRID
      CUTOFF 100
    &END MGRID
    &QS
      EPS_DEFAULT 1.0E-12
      METHOD GAPW_XC
    &END QS
    &SCF
      EPS_SCF 1.0E-6
      IGNORE_CONVERGENCE_FAILURE
      MAX_SCF 1
      SCF_GUESS ATOMIC
      &OT
      &END OT
    &END SCF
    &XC
      &XC_FUNCTIONAL BLYP
      &END XC_FUNCTIONAL
    &END XC
  &END DFT
  &SUBSYS
    &CELL
      ABC 5 5 5
    &END CELL
    &COORD
      Na 0.0 0.0 0.0
    &END COORD
    &KIND Na
      BASIS_SET DZVP-GTH-PADE
      # Old, unreliable GTH pseudopotential for Na-q9
      # only retained for compatibility reasons
      POTENTIAL GTH-PADE-q9_old
    &END KIND
  &END SUBSYS
&END FORCE_EVAL
