&GLOBAL
  PRINT_LEVEL LOW
  PROJECT refH2O
  RUN_TYPE ENERGY
&END GLOBAL

&FORCE_EVAL
  METHOD Quickstep
  &DFT
    BASIS_SET_FILE_NAME BASIS_MOLOPT
    POTENTIAL_FILE_NAME POTENTIAL
    &MGRID
      CUTOFF 100
    &END MGRID
    &QS
      EPS_DEFAULT 1.0E-12
      EXTRAPOLATION PS
      EXTRAPOLATION_ORDER 3
    &END QS
    &SCF
      EPS_SCF 1.0E-6
      IGNORE_CONVERGENCE_FAILURE
      MAX_SCF 5
      SCF_GUESS ATOMIC
      &OT
      &END OT
    &END SCF
    &XC
      &XC_FUNCTIONAL Pade
      &END XC_FUNCTIONAL
    &END XC
  &END DFT
  &SUBSYS
    &CELL
      ABC 8.0 8.0 8.0
    &END CELL
    &COORD
      O   0.000000    0.000000   -0.065587
      H   0.000000   -0.757136    0.520545
      H   0.000000    0.757136    0.520545
    &END COORD
    &KIND H
      BASIS_SET TZV2P-MOLOPT-GTH
      POTENTIAL GTH-PADE-q1
    &END KIND
    &KIND O
      BASIS_SET TZV2P-MOLOPT-GTH
      POTENTIAL GTH-PADE-q6
    &END KIND
  &END SUBSYS
&END FORCE_EVAL
