&FORCE_EVAL
  METHOD Quickstep
  &DFT
    BASIS_SET_FILE_NAME BASIS_SET
    POTENTIAL_FILE_NAME POTENTIAL
    &MGRID
      CUTOFF 200
    &END MGRID
    &QS
      EPS_DEFAULT 1.0E-14
    &END QS
    &SCF
      EPS_SCF 1.0E-6
      SCF_GUESS ATOMIC
    &END SCF
    &XC
      &XC_FUNCTIONAL Pade
      &END XC_FUNCTIONAL
    &END XC
  &END DFT
  &SUBSYS
    &CELL
      ABC 4.0 4.0 4.0
    &END CELL
# Optimized geometry
    &COORD
  H         0.0022991020       -0.3925186128        0.4957643536
  H         0.0024731120        0.4014984823        0.4968605045
    &END COORD
    &KIND H
      BASIS_SET DZVP-GTH-PADE
      POTENTIAL GTH-PADE-q1
    &END KIND
  &END SUBSYS
&END FORCE_EVAL
&GLOBAL
  PROJECT H2-vib
#  RUN_TYPE GEO_OPT
  RUN_TYPE VIBRATIONAL_ANALYSIS
  PRINT_LEVEL MEDIUM
&END GLOBAL
&VIBRATIONAL_ANALYSIS
 DX 0.01
&END
