&GLOBAL
  PRINT_LEVEL medium
  PROJECT_NAME Pt_capacitor
  RUN_TYPE ENERGY
&END GLOBAL

&FORCE_EVAL
  METHOD QS
  &DFT
    BASIS_SET_FILE_NAME BASIS_MOLOPT
    POTENTIAL_FILE_NAME GTH_POTENTIALS
    &HAIRY_PROBES
      ATOM_IDS 1
      EPS_HP 1.0E-5
      MU 0.0
      T 300
    &END HAIRY_PROBES
    &HAIRY_PROBES
      ATOM_IDS 2
      EPS_HP 1.0E-5
      MU 0.0
      T 300
    &END HAIRY_PROBES
    &MGRID
      CUTOFF 250
      NGRIDS 4
      REL_CUTOFF 50
    &END MGRID
    &QS
      EPS_DEFAULT 1.0E-14
    &END QS
    &SCF
      ADDED_MOS -1
      CHOLESKY INVERSE
      EPS_DIIS 1.0E-01
      EPS_SCF 1.0E-05
      MAX_SCF 500
      SCF_GUESS ATOMIC
      &DIAGONALIZATION
        ALGORITHM STANDARD
      &END DIAGONALIZATION
      &MIXING
        ALPHA 0.1
        BETA 0.5
        METHOD BROYDEN_MIXING
        NBROYDEN 8
      &END MIXING
      &OUTER_SCF
        EPS_SCF 1.0E-05
        MAX_SCF 60
      &END OUTER_SCF
    &END SCF
    &XC
      &XC_FUNCTIONAL PBE
      &END XC_FUNCTIONAL
    &END XC
  &END DFT
  &SUBSYS
    &CELL
      ABC 2.807213921310594 2.807213921310594 20.0
      ALPHA_BETA_GAMMA 90 90 60
      PERIODIC XY
    &END CELL
    &COORD
      Pt 0.00000000 0.00000000 5.00
      Pt 1.40360696 0.81037286 15.0
    &END COORD
    &KIND Pt
      BASIS_SET SZV-MOLOPT-SR-GTH
      ELEMENT Pt
      POTENTIAL GTH-PBE-q18
    &END KIND
  &END SUBSYS
&END FORCE_EVAL
