&FORCE_EVAL
  METHOD Quickstep
  &DFT
    &PRINT
      &MOMENTS
      &END
    &END
    BASIS_SET_FILE_NAME GTH_BASIS_SETS
    POTENTIAL_FILE_NAME POTENTIAL
    &MGRID
      CUTOFF 200
    &END MGRID
    &PERIODIC_EFIELD
       POLARISATION 1 0 0
       INTENSITY 0.001
    &END    
    &QS
      EPS_DEFAULT 1.0E-12
      EXTRAPOLATION PS 
      EXTRAPOLATION_ORDER 2
      MAP_CONSISTENT
    &END QS
    &SCF
      EPS_SCF 1.0E-6
      SCF_GUESS ATOMIC
      MAX_SCF 6
      &OT
      &END
    &END SCF
    &XC
      &XC_FUNCTIONAL PADE
      &END XC_FUNCTIONAL
    &END XC
  &END DFT
  &SUBSYS
    &CELL
      ABC 6.0 6.0 6.0
    &END CELL
    &COORD
    O   0.000000    0.000000   -0.065587 H2O
    H   0.000000   -0.757136    0.520545 H2O
    H   0.000000    0.757136    0.520545 H2O
    &END COORD
    &KIND H
      BASIS_SET DZVP-GTH
      POTENTIAL GTH-BLYP-q1
    &END KIND
    &KIND O
      BASIS_SET DZVP-GTH
      POTENTIAL GTH-BLYP-q6
    &END KIND
  &END SUBSYS
&END FORCE_EVAL
&GLOBAL
  PROJECT H2O-field-gopt
  PRINT_LEVEL MEDIUM
  RUN_TYPE GEO_OPT
&END GLOBAL
&MOTION
   &GEO_OPT
      MAX_ITER 3
   &END
&END
      
