&GLOBAL
  PRINT_LEVEL LOW
  PROJECT HF
  RUN_TYPE DEBUG
&END GLOBAL

&DEBUG
  DEBUG_FORCES T
  DEBUG_STRESS_TENSOR F
  DX 0.001
  STOP_ON_MISMATCH T
&END DEBUG

&FORCE_EVAL
  METHOD Quickstep
  &DFT
    BASIS_SET_FILE_NAME GTH_BASIS_SETS
    POTENTIAL_FILE_NAME POTENTIAL
    &EFIELD
      INTENSITY 0.01
      POLARISATION 1 2 5
    &END EFIELD
    &MGRID
      CUTOFF 300
      NGRIDS 1
    &END MGRID
    &PRINT
      &MOMENTS
        PERIODIC T
      &END MOMENTS
    &END PRINT
    &QS
      EPS_DEFAULT 1.0E-10
    &END QS
    &SCF
      EPS_SCF 1.0E-7
      MAX_SCF 10
      SCF_GUESS ATOMIC
      &OT
        MINIMIZER DIIS
        PRECONDITIONER FULL_ALL
      &END OT
      &OUTER_SCF
        EPS_SCF 1.0E-7
        MAX_SCF 50
      &END OUTER_SCF
    &END SCF
    &XC
      &XC_FUNCTIONAL PADE
      &END XC_FUNCTIONAL
    &END XC
  &END DFT
  &SUBSYS
    &CELL
      A 7.0 0.0 0.0
      B 0.0 7.0 0.0
      C 0.0 0.0 7.0
    &END CELL
    &COORD
      H   0.000000    0.000000    0.000000
      F   0.940000    0.000000    0.000000
    &END COORD
    &KIND H
      BASIS_SET DZVP-GTH
      POTENTIAL GTH-BLYP-q1
    &END KIND
    &KIND F
      BASIS_SET DZVP-GTH
      POTENTIAL GTH-BLYP-q7
    &END KIND
  &END SUBSYS
&END FORCE_EVAL
