&GLOBAL
  PROJECT H
  PROGRAM_NAME ATOM
&END GLOBAL
&ATOM
  ATOMIC_NUMBER 1
  ELECTRON_CONFIGURATION  CORE 1s1
  CORE none

  MAX_ANGULAR_MOMENTUM 1
  CALCULATE_STATES 2 2
  &METHOD
     METHOD_TYPE  KOHN-SHAM
     &XC
       &XC_FUNCTIONAL BLYP
       &END XC_FUNCTIONAL
     &END XC
  &END METHOD
  &POTENTIAL
    PSEUDO_TYPE GTH
    POTENTIAL_FILE_NAME DUMMY_POTENTIAL
    POTENTIAL_NAME GTH-pot3
  &END POTENTIAL
  &PP_BASIS
     BASIS_TYPE CONTRACTED_GTO
     BASIS_SET_FILE_NAME DUMMY_BASIS
     BASIS_SET QZV2P-GTH
  &END PP_BASIS
&END ATOM

