&GLOBAL
  PROJECT C
  PROGRAM_NAME ATOM
&END GLOBAL
&ATOM
  ELEMENT C
  ELECTRON_CONFIGURATION  1s2 2s2 2p2
  &METHOD
     METHOD_TYPE  KOHN-SHAM
     &XC
       &XC_FUNCTIONAL BLYP
       &END XC_FUNCTIONAL
     &END XC
  &END METHOD
  &POTENTIAL
     CONFINEMENT_TYPE  BARRIER
     CONFINEMENT  200. 4.0 8.0
  &END POTENTIAL
&END ATOM
