&GLOBAL
  PROJECT Hg
  PROGRAM_NAME ATOM
&END GLOBAL
&ATOM
  ELEMENT Hg
  ELECTRON_CONFIGURATION [Xe] 4f14 5d10 6s2
  &METHOD
     METHOD_TYPE  Hartree-Fock
     RELATIVISTIC scZORA(MP)
  &END METHOD
&END ATOM
