&GLOBAL
  PROJECT Ru
  PROGRAM_NAME ATOM
&END GLOBAL
&ATOM
  ELEMENT Ru
  RUN_TYPE BASIS_OPTIMIZATION
  ELECTRON_CONFIGURATION  CORE 4d7 5s1
  CORE [Kr]
  MAX_ANGULAR_MOMENTUM 2
  &METHOD
     METHOD_TYPE  KOHN-SHAM
     &XC
       &XC_FUNCTIONAL 
         &PBE
         &END
       &END XC_FUNCTIONAL
     &END XC
  &END METHOD
  &OPTIMIZATION
    EPS_SCF 1.e-8
  &END 
  &PP_BASIS
      NUM_GTO  6 6 6
      S_EXPONENTS 3.73260507 1.83419039 0.80906390 0.34515101 0.13836655 0.04967010
      P_EXPONENTS 3.73260507 1.83419039 0.80906390 0.34515101 0.13836655 0.04967010
      D_EXPONENTS 3.73260507 1.83419039 0.80906390 0.34515101 0.13836655 0.04967010
     EPS_EIGENVALUE 1.E-14
  &END PP_BASIS
  &POTENTIAL
    PSEUDO_TYPE GTH
    &GTH_POTENTIAL
   1     0    7
    0.61211332     1     5.04489332
   3
    0.64215040     2     4.62556355    -1.80334903
                                        2.32811359
    0.67936654     2     3.23395238    -2.42101064
                                        2.86457842
    0.38059720     2   -15.53165455    13.58045054
                                      -15.39878349
    &END 
    CONFINEMENT   0.5  20.00  4.5
  &END POTENTIAL
  &POWELL
     ACCURACY   1.e-8
     STEP_SIZE  1.0
  &END
&END ATOM
