@SET PRM01   0.1
@SET PRM02   0.2
@SET PRM03   0.3
@SET PRM04   0.4
@SET PRM05   0.5
@SET PRM06   0.6
@SET PRM07   0.7
@SET PRM08   0.8
@SET PRM09   0.9
&FORCE_EVAL
  METHOD FIST
  &MM
    &NEIGHBOR_LISTS
      GEO_CHECK .FALSE.
    &END
    &PRINT
     !&FF_INFO
     !  SPLINE_DATA .TRUE.
     !&END
    &END
    &FORCEFIELD
      MULTIPLE_POTENTIAL
      &CHARGE
        ATOM Ar
        CHARGE 0.0
      &END
      &SPLINE
         EPS_SPLINE      0.000001
         R0_NB [bohr]    1.0
         RCUT_NB [bohr] 19.0
         NPOINTS        150
         EMAX_SPLINE   1000000
      &END
      &NONBONDED
         &GENPOT
           atoms Ar Ar
           FUNCTION  A1*cos(1*acos(A/r-B))+A2*cos(2*acos(A/r-B))+A3*cos(3*acos(A/r-B))+A4*cos(4*acos(A/r-B))+A5*cos(5*acos(A/r-B))+A6*cos(6*acos(A/r-B))+A7*cos(7*acos(A/r-B))+A8*cos( 8*acos(A/r-B))+A9*cos(9*acos(A/r-B))
           VARIABLES   r
           PARAMETERS  A B A1 A2 A3 A4 A5 A6 A7 A8 A9
           VALUES      10.0/1.0 3.0/2.0 $PRM01  $PRM02  $PRM03  $PRM04  $PRM05  $PRM06  $PRM07   $PRM08  $PRM09
           RMIN [bohr]      5.0
           RMAX [bohr]     20.0
         &END GENPOT
         &GENPOT
           atoms Ar Ar
            FUNCTION    -0.2*(r-5.0)+(A1*cos(3.14/3*1)+A2*cos(3.14/3*2)+A3*cos(3.14/3*3)+A4*cos(3.14/3*4)+A5*cos(3.14/3*5)+A6*cos(3.14/3*6)+A7*cos(3.14/3*7)+A8*cos(3.14/3*8)+A9*cos(3.14/3*9))
           VARIABLES   r
           PARAMETERS  A1 A2 A3 A4 A5 A6 A7 A8 A9
           VALUES      $PRM01  $PRM02  $PRM03  $PRM04  $PRM05  $PRM06  $PRM07    $PRM08   $PRM09
           RMIN [bohr]      0.0
           RMAX [bohr]      5.0
         &END GENPOT
      &END NONBONDED
    &END FORCEFIELD
    &POISSON
      &EWALD
        EWALD_TYPE none
      &END EWALD
    &END POISSON
  &END MM
  &SUBSYS
     &CELL
       A     9.6310875301855674E+00    0.0000000000000000E+00    0.0000000000000000E+00
       B     0.0000000000000000E+00    9.6310875301855674E+00    0.0000000000000000E+00
       C     0.0000000000000000E+00    0.0000000000000000E+00    9.6310875301855674E+00
     &END CELL
     &COORD
Ar   -2.9801516326320010E-01   -1.3601907871663195E+00    5.5171130487752702E+00
Ar    3.4149510515239569E+00    1.0652576364029100E+00    5.5460851143546490E+00
Ar   -4.8038262016805466E-01    4.9219660245739698E+00    5.4531759530226092E+00
Ar    4.3899163615664634E+00    6.3696825498493626E+00    4.7705625410379264E+00
Ar   -5.2621394328845272E-01    1.1638196685656448E+00   -5.1719754234841919E-01
Ar    3.9341474087017749E+00   -1.1516822001738987E+00   -3.0662688763800350E-01
Ar    1.4455908175038696E+00    4.1262301758627968E+00   -4.7434313907940118E-01
Ar    7.3821811477948271E+00    4.1270919924567533E+00   -7.2659402775337623E-01
     &END COORD
  &END SUBSYS
&END FORCE_EVAL
&GLOBAL
  PROJECT  REF
  RUN_TYPE ENERGY
  IOLEVEL MEDIUM
&END GLOBAL
