&FORCE_EVAL
    METHOD Quickstep
    &DFT
        BASIS_SET_FILE_NAME BASIS_pob
        POTENTIAL_FILE_NAME POTENTIAL
        AUTO_BASIS RI_HFX SMALL
        SORT_BASIS EXP
        &QS
           METHOD GAPW
           PW_GRID_BLOCKED FALSE
        &END
        &MGRID
            CUTOFF 120
            REL_CUTOFF 30
        &END MGRID
        &SCF
            SCF_GUESS ATOMIC
            MAX_SCF 2
        &END SCF
        &XC
            &XC_FUNCTIONAL
               &HYB_GGA_XC_B3LYP
               &END HYB_GGA_XC_B3LYP
            &END XC_FUNCTIONAL
            &HF
                FRACTION 0.2
                &RI
                   RI_METRIC TRUNCATED
                   CUTOFF_RADIUS 1.5
                   NGROUPS 2
                   MEMORY_CUT 2
                   EPS_FILTER 1.0E-10
                   USE_DELTA_P FALSE
                &END
                &INTERACTION_POTENTIAL
                    !this is too small for a real calculation. The only requirement is that it is
                    !smaller than N_kp * L/2 in each direction. Potential range has a drastic effect
                    !on efficiency, as it greatly increses the number of periodic images to consider
                    POTENTIAL_TYPE TRUNCATED
                    CUTOFF_RADIUS 1.5
                &END
            &END
        &END XC 
        &KPOINTS
           SCHEME  MONKHORST-PACK  2 2 2
        &END KPOINTS
    &END DFT
    &SUBSYS
        &CELL
            !this is not a realistic cell, but denser systems would be too expensive for a test
            ABC 7.5 7.5 7.5
            ALPHA_BETA_GAMMA 60.0 60.0 60.0
        &END CELL
        &TOPOLOGY
        &END
        &COORD
           SCALED
           C   0.00000000  0.00000000  0.00000000  
           C   0.25000000  0.25000000  0.25000000  
        &END COORD
        &KIND C
            BASIS_SET pob-DZVP-rev2
            POTENTIAL ALL
        &END KIND
    &END SUBSYS
&END FORCE_EVAL
&GLOBAL
    PROJECT diamond_gapw_tc
    PRINT_LEVEL MEDIUM
    RUN_TYPE ENERGY
&END GLOBAL
