
&FORCE_EVAL
  &DFT
    LSD
    &MGRID
      CUTOFF 150
    &END MGRID
    &QS
    &END QS
    &SCF
      MAX_SCF 2
      SCF_GUESS ATOMIC
    &END SCF
    &XC
      &XC_FUNCTIONAL Pade
      &END XC_FUNCTIONAL
    &END XC
    &PRINT
      &LOWDIN
      &END
    &END
  &END DFT
  &SUBSYS
    &CELL
      ABC 8.0 5.0 5.0
      UNIT ANGSTROM
    &END CELL
    &COORD
    N 0.0 0.0 0.0
    C 2.0 0.0 0.0
    &END COORD
    &KIND C
      BASIS_SET DZVP-GTH-PADE
      POTENTIAL GTH-PADE-q4
    &END KIND
    &KIND N
      BASIS_SET DZVP-GTH-PADE
      POTENTIAL GTH-PADE-q5
    &END KIND
  &END SUBSYS
&END FORCE_EVAL
&GLOBAL
  FFTLIB FFTSG
  PROGRAM Quickstep
  PROJECT H2O
  PRINT_LEVEL MEDIUM
&END GLOBAL
