
&FORCE_EVAL
  &DFT
    &MGRID
      CUTOFF 100
    &END MGRID
    &QS
    &END QS
    &SCF
      EPS_SCF 0.00001
      SCF_GUESS ATOMIC
    &END SCF
    &XC
      &XC_FUNCTIONAL Pade
      &END XC_FUNCTIONAL
    &END XC
  &END DFT
  &SUBSYS
    &CELL
      ABC 4.0 4.0 4.0
      UNIT ANGSTROM
    &END CELL
    &COORD
    H   0.0 0.0 0.0
    H   0.9 0.0 0.0
    &END COORD
    &KIND H
      BASIS_SET DZVP-GTH-PADE
      POTENTIAL GTH-PADE-q1
    &END KIND
    &KIND O
      BASIS_SET DZVP-GTH-PADE
      POTENTIAL GTH-PADE-q6
    &END KIND
  &END SUBSYS
&END FORCE_EVAL
&GLOBAL
  FFTLIB FFTSG
  PROGRAM Quickstep
  PROJECT H2O
  RUN_TYPE GEO_OPT
&END GLOBAL
&MOTION
  &GEOOPT
    MAX_ITER 2
    MAX_STEEP_STEPS 1
    OPTIMIZER CG
    USE_FIT_LINE_SEARCH
  &END GEOOPT
&END MOTION
