&FORCE_EVAL
  METHOD Quickstep
  &BSSE
    &FRAGMENT
      LIST 1 2 3
    &END FRAGMENT
    &FRAGMENT
      LIST 4 5 6
    &END FRAGMENT
    &FRAGMENT
      LIST 7 8 9
    &END FRAGMENT
  &END BSSE
  &DFT
    BASIS_SET_FILE_NAME ../../../data/BASIS_SET
    POTENTIAL_FILE_NAME ../../../data/POTENTIAL
    &MGRID
      CUTOFF 20
    &END MGRID
    &QS
      EPS_DEFAULT 1.0E-4
      EPS_FILTER_MATRIX 0.0e0
    &END QS
    &SCF
      EPS_SCF 1.0E-3
      MAX_SCF 2
      SCF_GUESS ATOMIC
    &END SCF
    &XC
      &XC_FUNCTIONAL Pade
      &END XC_FUNCTIONAL
    &END XC
  &END DFT
  &SUBSYS
    &CELL
      ABC 10.0 10.0 10.0
    &END CELL
    &COORD
   O     0.000000     0.000000     0.000000    H2O1
   H     0.000000     0.000000     1.000000    H2O1
   H     0.942809     0.000000    -0.333333    H2O1
   O    -1.617979    -0.948062    -2.341650    H2O2
   H    -2.529195    -1.296822    -2.122437    H2O2
   H    -1.534288    -0.833088    -3.331486    H2O2
   O    -1.447990     2.117783     1.555094    H2O3
   H    -1.501128     2.645178     2.403050    H2O3
   H    -2.090603     1.352766     1.597519    H2O3
    &END COORD
    &KIND H_ghost
      BASIS_SET DZVP-GTH-PADE
      GHOST
    &END KIND
    &KIND O_ghost
      BASIS_SET DZVP-GTH-PADE
      GHOST
    &END KIND
    &KIND H
      BASIS_SET DZVP-GTH-PADE
      POTENTIAL GTH-PADE-q1
    &END KIND
    &KIND O
      BASIS_SET DZVP-GTH-PADE
      POTENTIAL GTH-PADE-q6
    &END KIND
  &END SUBSYS
&END FORCE_EVAL
&GLOBAL
  PROJECT 3H2O_bsse
  RUN_TYPE BSSE
  PRINT_LEVEL LOW
&END GLOBAL
