&GLOBAL
  PRINT_LEVEL medium
  PROJECT CeO2
  RUN_TYPE ENERGY
&END GLOBAL

&FORCE_EVAL
  METHOD Quickstep
  &DFT
    BASIS_SET_FILE_NAME BASIS_MOLOPT_LnPP2
    BASIS_SET_FILE_NAME BASIS_MOLOPT
    LSD
    POTENTIAL_FILE_NAME LnPP2_POTENTIALS
    &MGRID
      CUTOFF 200
    &END MGRID
    &QS
      EPS_DEFAULT 1.0E-10
    &END QS
    &SCF
      EPS_DIIS 0.4
      EPS_SCF 1.0E-6
      IGNORE_CONVERGENCE_FAILURE
      MAX_SCF 1
      SCF_GUESS ATOMIC
      &MIXING
        ALPHA 0.4
        METHOD DIRECT_P_MIXING
      &END MIXING
    &END SCF
    &XC
      &XC_FUNCTIONAL PADE
      &END XC_FUNCTIONAL
    &END XC
  &END DFT
  &SUBSYS
    &CELL
      ABC 5.0 5.0 5.0
    &END CELL
    &COORD
      O         4.0228803491        2.7977916410        2.5000000000
      O         1.3169288336        3.4299242970        2.5000000000
      Ce         2.5013534637        2.1910810483        2.5000000000
    &END COORD
    &KIND O
      BASIS_SET DZVP-MOLOPT-GTH-q6
      POTENTIAL_TYPE GTH
      &POTENTIAL
        2    4
        0.24762086    2   -16.58031797     2.39570092
        2
        0.22178614    1    18.26691718
        0.25682890    0
      &END POTENTIAL
    &END KIND
    &KIND Ce
      BASIS_SET DZVP-MOLOPT-GTH-q11
      POTENTIAL GTH-PBE-q11
    &END KIND
  &END SUBSYS
&END FORCE_EVAL
