&GLOBAL
  PRINT_LEVEL medium
  PROJECT CeO2
  RUN_TYPE energy
&END GLOBAL
&FORCE_EVAL
  METHOD Quickstep
  &DFT
    BASIS_SET_FILE_NAME BASIS_MOLOPT_LnPP2
    BASIS_SET_FILE_NAME BASIS_MOLOPT
    POTENTIAL_FILE_NAME POTENTIAL
    POTENTIAL_FILE_NAME LnPP2_POTENTIAL
    &MGRID
      CUTOFF 280
    &END MGRID
    &QS
      EPS_DEFAULT 1.0E-12
    &END QS
    &SCF
      EPS_DIIS 0.4
      EPS_SCF 1.0E-8
      MAX_SCF 15
      &MIXING
        METHOD DIRECT_P_MIXING
        ALPHA 0.4
      &END
      SCF_GUESS ATOMIC
    &END SCF
    &XC
      &XC_FUNCTIONAL PADE
      &END XC_FUNCTIONAL
    &END XC
  &END DFT
  &SUBSYS
    &CELL
      ABC 5.0 5.0 5.0
    &END CELL
    &COORD
   O  3.71590        2.5        2.5
   O  1.65536    3.37465        2.5
   Ce  2.5 2.5 2.5
    &END COORD
    &KIND O
      BASIS_SET DZVP-MOLOPT-GTH-q6
      POTENTIAL GTH-PADE-q6
    &END KIND
    &KIND Ce
      BASIS_SET DZVP-MOLOPT-GTH-q11
      POTENTIAL GTH-PBE-q11
    &END KIND
  &END SUBSYS
&END FORCE_EVAL
