&GLOBAL
  PROJECT dynamics-2
 PRINT_LEVEL    MEDIUM
 RUN_TYPE       md
 ECHO_INPUT     yes
&END GLOBAL
&MOTION
 &MD
  ENSEMBLE	nve
  STEPS		2
  TIMESTEP	1.0 ! fs
 &END MD
&END MOTION
&FORCE_EVAL
 METHOD         qs
 &DFT
    BASIS_SET_FILE_NAME ../../../data/BASIS_SET
    POTENTIAL_FILE_NAME ../../../data/POTENTIAL
  &MGRID
   CUTOFF 300
  &END
  &XC
   &XC_FUNCTIONAL blyp
   &END XC_FUNCTIONAL
  &END XC
  &SCF
   MAX_SCF      2
   EPS_SCF      1.e-1
  &END SCF
  &PRINT
  &END PRINT
 &END DFT
 &SUBSYS
  &CELL
   ABC [angstrom] 6.0 6.0 6.0
  &END CELL
  &COORD
    O   0.000000    0.000000   -0.065587
    H   0.000000   -0.757136    0.520545
    H   0.000000    0.757136    0.520545
    He   6.929   6.929   6.929
  &END COORD
  &KIND O
   BASIS_SET    DZVP-GTH-BLYP
   MASS         18.0855
   POTENTIAL    GTH-BLYP-q6
  &END KIND
  &KIND H
   BASIS_SET    DZVP-GTH-BLYP
   MASS         2.
   POTENTIAL    GTH-BLYP-q1
  &END KIND
  &KIND He
   BASIS_SET	DZVP-GTH-BLYP
   GHOST	t
   MASS 7
  &END KIND
  &PRINT
    &ATOMIC_COORDINATES
    &END
  &END
 &END SUBSYS
 &PRINT
  &FORCES LOW
  &END
 &END
&END FORCE_EVAL
