&GLOBAL
  PRINT_LEVEL LOW
  PROJECT H2O-bloechl-force-ortho
  RUN_TYPE DEBUG
&END GLOBAL

&DEBUG
  CHECK_ATOM_FORCE 2 Y
  DEBUG_FORCES T
  DEBUG_STRESS_TENSOR F
  DX 0.001
  EPS_NO_ERROR_CHECK 5.0E-5
  STOP_ON_MISMATCH T
&END DEBUG

&FORCE_EVAL
  METHOD Quickstep
  &DFT
    BASIS_SET_FILE_NAME BASIS_SET
    POTENTIAL_FILE_NAME POTENTIAL
    &MGRID
      CUTOFF 200
    &END MGRID
    &POISSON
      PERIODIC NONE
      POISSON_SOLVER MULTIPOLE
      &MULTIPOLE
        ANALYTICAL_GTERM
        EWALD_PRECISION 0.00000001
        RCUT 3.0
      &END MULTIPOLE
    &END POISSON
    &QS
      EPS_DEFAULT 1.0E-8
    &END QS
    &SCF
      EPS_SCF 1.0E-6
      MAX_SCF 100
      SCF_GUESS ATOMIC
    &END SCF
    &XC
      &XC_FUNCTIONAL Pade
      &END XC_FUNCTIONAL
    &END XC
  &END DFT
  &SUBSYS
    &CELL
      ABC 8.0 8.0 8.0
      PERIODIC NONE
    &END CELL
    &COORD
      O   4.000000    4.000000    4.000000
      H   4.000000    3.250000    4.520000
      H   4.000000    4.750000    4.520000
    &END COORD
    &KIND H
      BASIS_SET DZVP-GTH-PADE
      POTENTIAL GTH-PADE-q1
    &END KIND
    &KIND O
      BASIS_SET DZVP-GTH-PADE
      POTENTIAL GTH-PADE-q6
    &END KIND
  &END SUBSYS
&END FORCE_EVAL
