 # Version information for this restart file 
 # current date 2011-01-10 13:01:59.062
 # current working dir /data04/urban/cp2k.merge/TEST-opt4-g95-popt-2011-01-10T12:58:23+0100/tests/QS/regtest-gpw-3
 # Program compiled at                              Mon Jan 10 12:58:23 CET 2011
 # Program compiled on                                                  pcihopt4
 # Program compiled for                                                 opt4-g95
 # Last CVS entry             cp_dbcsr_interface.F/1.23/Mon Jan 10 11:31:30 2011
 &GLOBAL
   PRINT_LEVEL  LOW
   PROJECT_NAME H2O
   RUN_TYPE  BSSE
 &END GLOBAL
 &FORCE_EVAL
   METHOD  QS
   &DFT
     BASIS_SET_FILE_NAME ../BASIS_SET
     POTENTIAL_FILE_NAME ../POTENTIAL
     MULTIPLICITY               0
     CHARGE               0
     &SCF
       MAX_SCF               3
       EPS_SCF     1.0000000000000000E-04
       SCF_GUESS  ATOMIC
     &END SCF
     &QS
       EPS_DEFAULT     1.0000000000000000E-08
     &END QS
     &MGRID
       CUTOFF     5.0000000000000000E+01
     &END MGRID
     &XC
       DENSITY_CUTOFF     1.0000000000000000E-10
       GRADIENT_CUTOFF     1.0000000000000000E-10
       TAU_CUTOFF     1.0000000000000000E-10
       &XC_FUNCTIONAL  NO_SHORTCUT
         &PADE  T
         &END PADE
       &END XC_FUNCTIONAL
     &END XC
     &REAL_TIME_PROPAGATION
       INITIAL_WFN  SCF_WFN
     &END REAL_TIME_PROPAGATION
   &END DFT
   &BSSE
     &FRAGMENT
       LIST               1              2              3
     &END FRAGMENT
     &FRAGMENT
       LIST               4              5              6
     &END FRAGMENT
     &FRAGMENT_ENERGIES
          -1.4446253650561758E+01
          -1.7917514638750568E+01
          -2.2086186477565661E-04
     &END FRAGMENT_ENERGIES
   &END BSSE
   &SUBSYS
     &CELL
       ABC     1.0000000000000004E+01    1.0000000000000004E+01    1.0000000000000004E+01
     &END CELL
     &COORD
O     0.000000     0.000000     0.000000    H2O1
H     0.000000     0.000000     1.000000    H2O1
H     0.942809     0.000000    -0.333333    H2O1
O    -1.617979    -0.948062    -2.341650    H2O2
H    -2.529195    -1.296822    -2.122437    H2O2
H    -1.534288    -0.833088    -3.331486    H2O2
     &END COORD
     &KIND H_ghost
       BASIS_SET DZVP-GTH-PADE
       GHOST  T
       &BASIS
 2
 1 0 0 4 2
  0.8374435000900000E+01 -0.2389437320000000E-01  0.0000000000000000E+00
  0.1805868146000000E+01 -0.1397943259000000E+00  0.0000000000000000E+00
  0.4852531032000000E+00 -0.2530970874000000E+00  0.0000000000000000E+00
  0.1658235797000000E+00 -0.6955307423000000E+00  0.1000000000000000E+01
 2 1 1 1 1
  0.7000000000000000E+00  0.1000000000000000E+01
         # Basis set name:  DZVP-GTH-PADE  for symbol:  H
         # Basis set read from the basis set filename: ../BASIS_SET
       &END BASIS
     &END KIND
     &KIND O_ghost
       BASIS_SET DZVP-GTH-PADE
       GHOST  T
       &BASIS
 2
 2 0 1 4 2 2
  0.8304404230499999E+01  0.1510163077000000E+00  0.0000000000000000E+00 -0.9956780470000000E-01  0.0000000000000000E+00
  0.2457945246100000E+01 -0.3931938740000000E-01  0.0000000000000000E+00 -0.3011430914000000E+00  0.0000000000000000E+00
  0.7597363524000000E+00 -0.6971729792000000E+00  0.0000000000000000E+00 -0.4750852730000000E+00  0.0000000000000000E+00
  0.2136387585000000E+00 -0.3841125601000000E+00  0.1000000000000000E+01 -0.3798775565000000E+00  0.1000000000000000E+01
 3 2 2 1 1
  0.8000000000000000E+00  0.1000000000000000E+01
         # Basis set name:  DZVP-GTH-PADE  for symbol:  O
         # Basis set read from the basis set filename: ../BASIS_SET
       &END BASIS
     &END KIND
     &KIND H
       BASIS_SET DZVP-GTH-PADE
       POTENTIAL GTH-PADE-q1
       &BASIS
 2
 1 0 0 4 2
  0.8374435000900000E+01 -0.2389437320000000E-01  0.0000000000000000E+00
  0.1805868146000000E+01 -0.1397943259000000E+00  0.0000000000000000E+00
  0.4852531032000000E+00 -0.2530970874000000E+00  0.0000000000000000E+00
  0.1658235797000000E+00 -0.6955307423000000E+00  0.1000000000000000E+01
 2 1 1 1 1
  0.7000000000000000E+00  0.1000000000000000E+01
         # Basis set name:  DZVP-GTH-PADE  for symbol:  H
         # Basis set read from the basis set filename: ../BASIS_SET
       &END BASIS
       &POTENTIAL
 1
  0.2000000000000000E+00 2 -0.4180236800000000E+01  0.7250748200000000E+00
 0
         # Potential name:  GTH-PADE-Q1  for symbol:  H
         # Potential read from the potential filename: ../POTENTIAL
       &END POTENTIAL
     &END KIND
     &KIND O
       BASIS_SET DZVP-GTH-PADE
       POTENTIAL GTH-PADE-q6
       &BASIS
 2
 2 0 1 4 2 2
  0.8304404230499999E+01  0.1510163077000000E+00  0.0000000000000000E+00 -0.9956780470000000E-01  0.0000000000000000E+00
  0.2457945246100000E+01 -0.3931938740000000E-01  0.0000000000000000E+00 -0.3011430914000000E+00  0.0000000000000000E+00
  0.7597363524000000E+00 -0.6971729792000000E+00  0.0000000000000000E+00 -0.4750852730000000E+00  0.0000000000000000E+00
  0.2136387585000000E+00 -0.3841125601000000E+00  0.1000000000000000E+01 -0.3798775565000000E+00  0.1000000000000000E+01
 3 2 2 1 1
  0.8000000000000000E+00  0.1000000000000000E+01
         # Basis set name:  DZVP-GTH-PADE  for symbol:  O
         # Basis set read from the basis set filename: ../BASIS_SET
       &END BASIS
       &POTENTIAL
 2 4
  0.2476208600000000E+00 2 -0.1658031797000000E+02  0.2395700920000000E+01
 2
  0.2217861400000000E+00 1  0.1826691718000000E+02
  0.2568289000000000E+00 0
         # Potential name:  GTH-PADE-Q6  for symbol:  O
         # Potential read from the potential filename: ../POTENTIAL
       &END POTENTIAL
     &END KIND
     &TOPOLOGY
       MULTIPLE_UNIT_CELL               1              1              1
     &END TOPOLOGY
   &END SUBSYS
 &END FORCE_EVAL
 &EXT_RESTART
   RESTART_FILE_NAME 
   RESTART_COUNTERS  T
   RESTART_POS  T
   RESTART_VEL  T
   RESTART_RANDOMG  T
   RESTART_SHELL_POS  T
   RESTART_CORE_POS  T
   RESTART_OPTIMIZE_INPUT_VARIABLES  T
   RESTART_SHELL_VELOCITY  T
   RESTART_CORE_VELOCITY  T
   RESTART_BAROSTAT  T
   RESTART_BAROSTAT_THERMOSTAT  T
   RESTART_SHELL_THERMOSTAT  T
   RESTART_THERMOSTAT  T
   RESTART_CELL  T
   RESTART_METADYNAMICS  T
   RESTART_WALKERS  T
   RESTART_BAND  T
   RESTART_QMMM  T
   RESTART_CONSTRAINT  T
   RESTART_BSSE  T
   RESTART_DIMER  T
   RESTART_AVERAGES  T
   RESTART_RTP  T
   RESTART_PINT_POS  T
   RESTART_PINT_VEL  T
   RESTART_PINT_NOSE  T
   RESTART_PINT_GLE  T
   RESTART_HELIUM_POS  T
   RESTART_HELIUM_PERMUTATION  T
   RESTART_HELIUM_FORCE  T
   RESTART_HELIUM_RNG  T
 &END EXT_RESTART
