&GLOBAL
  PRINT_LEVEL LOW
  PROJECT N-ROKS
&END GLOBAL

&FORCE_EVAL
  METHOD Quickstep
  &DFT
    BASIS_SET_FILE_NAME BASIS_SET
    MULTIPLICITY 4
    POTENTIAL_FILE_NAME POTENTIAL
    ROKS
    &MGRID
      CUTOFF 200
    &END MGRID
    &POISSON
      PERIODIC NONE
      POISSON_SOLVER MT
      #      &MT
      #        ALPHA 7.0
      #        REL_CUTOFF 1.4
      #      &END MT
    &END POISSON
    &PRINT
      &AO_MATRICES
        #       CORE_HAMILTONIAN
        #       DENSITY
        #       KOHN_SHAM_MATRIX
        #       ORTHO
        #       OVERLAP
      &END AO_MATRICES
      &MO
        #       EIGENVALUES
        #       EIGENVECTORS
        #       OCCUPATION_NUMBERS
      &END MO
    &END PRINT
    &QS
      EPS_DEFAULT 1.0E-8
    &END QS
    &SCF
      # let's fool around a bit ...
      EPS_SCF: 1.0E-6
      ROKS_PARAMETERS 1/3,2/3; 1/3,1/3; 2/3,1/3  # McWeeny & Diercksen (default is Roothaan)
      ROKS_SCHEME high-spin
      SCF_GUESS=CORE
      # ... the parser should digest it ;-)
      &PRINT
        #        &DIIS_INFO
        #        &END DIIS_INFO
      &END PRINT
    &END SCF
    &XC
      &XC_FUNCTIONAL Pade
      &END XC_FUNCTIONAL
    &END XC
  &END DFT
  &SUBSYS
    &CELL
      ABC 4.0 4.0 4.0
      PERIODIC NONE
    &END CELL
    &COORD
      N   0.000000  0.000000  0.000000
    &END COORD
    &KIND N
      BASIS_SET DZVP-GTH-PADE
      POTENTIAL GTH-PADE-q5
    &END KIND
    &PRINT
      &KINDS
        BASIS_SET
        POTENTIAL
      &END KINDS
    &END PRINT
  &END SUBSYS
&END FORCE_EVAL
