&GLOBAL
  EPS_CHECK_DIAG 1.0E-14
  PRINT_LEVEL medium
  PROJECT NO2
  RUN_TYPE energy
&END GLOBAL

&FORCE_EVAL
  METHOD Quickstep
  &DFT
    BASIS_SET_FILE_NAME BASIS_SET
    LSD
    POTENTIAL_FILE_NAME POTENTIAL
    &KPOINTS
      FULL_GRID ON
      PARALLEL_GROUP_SIZE 0
      SCHEME MONKHORST-PACK 2 2 2
      SYMMETRY ON
      VERBOSE F
      WAVEFUNCTIONS COMPLEX
    &END KPOINTS
    &MGRID
      CUTOFF 160
    &END MGRID
    &PRINT
      &LOWDIN ON
        PRINT_ALL
      &END LOWDIN
      &MULLIKEN OFF
      &END MULLIKEN
    &END PRINT
    &QS
      EPS_DEFAULT 1.0E-10
    &END QS
    &SCF
      EPS_DIIS 0.1
      EPS_SCF 1.0E-6
      MAX_SCF 250
      SCF_GUESS ATOMIC
      &MIXING
        ALPHA 0.2
        METHOD DIRECT_P_MIXING
      &END MIXING
    &END SCF
    &XC
      &XC_FUNCTIONAL Pade
      &END XC_FUNCTIONAL
    &END XC
  &END DFT
  &SUBSYS
    &CELL
      ABC 5.0 5.0 5.0
    &END CELL
    &COORD
      O  3.71590        2.5        2.5
      O  1.65536    3.37465        2.5
      N  2.5 2.5 2.5
    &END COORD
    &KIND O
      BASIS_SET DZVP-GTH-PADE
      POTENTIAL GTH-PADE-q6
    &END KIND
    &KIND N
      BASIS_SET DZVP-GTH-PADE
      POTENTIAL GTH-PADE-q5
    &END KIND
  &END SUBSYS
&END FORCE_EVAL
