&GLOBAL
  PRINT_LEVEL MEDIUM
  PROJECT NO2-mulliken
  RUN_TYPE energy
&END GLOBAL

&FORCE_EVAL
  METHOD Quickstep
  &DFT
    BASIS_SET_FILE_NAME BASIS_SET
    LSD
    POTENTIAL_FILE_NAME POTENTIAL
    &MGRID
      CUTOFF 280
    &END MGRID
    &PRINT
      &EEQ_CHARGES ON
      &END EEQ_CHARGES
      &LOWDIN OFF
      &END LOWDIN
      &MULLIKEN ON
        PRINT_ALL
      &END MULLIKEN
    &END PRINT
    &QS
      EPS_DEFAULT 1.0E-12
    &END QS
    &SCF
      EPS_DIIS 0.4
      EPS_SCF 1.0E-4
      MAX_SCF 15
      SCF_GUESS ATOMIC
      &MIXING
        ALPHA 0.4
        METHOD DIRECT_P_MIXING
      &END MIXING
    &END SCF
    &XC
      &XC_FUNCTIONAL Pade
      &END XC_FUNCTIONAL
    &END XC
  &END DFT
  &SUBSYS
    &CELL
      ABC 5.0 5.0 5.0
    &END CELL
    &COORD
      O  3.71590        2.5        2.5
      O  1.65536    3.37465        2.5
      N  2.5 2.5 2.5
    &END COORD
    &KIND O
      BASIS_SET DZVP-GTH-PADE
      POTENTIAL GTH-PADE-q6
    &END KIND
    &KIND N
      BASIS_SET DZVP-GTH-PADE
      POTENTIAL GTH-PADE-q5
    &END KIND
  &END SUBSYS
&END FORCE_EVAL
