&FORCE_EVAL
 METHOD Quickstep
 &BSSE
   &FRAGMENT
     LIST 1 3
   &END FRAGMENT
   &FRAGMENT
     LIST 2 4 5
   &END FRAGMENT
   &CONFIGURATION
     GLB_CONF 1 0
     SUB_CONF 1 0
     CHARGE 0
     MULTIPLICITY 2
   &END
   &CONFIGURATION
     GLB_CONF 1 1
     SUB_CONF 1 0
     CHARGE 0
     MULTIPLICITY 2
   &END
   &CONFIGURATION
     GLB_CONF 1 1
     SUB_CONF 0 1
     CHARGE 0 
     MULTIPLICITY 0
   &END
   &CONFIGURATION
     GLB_CONF 1 1
     SUB_CONF 1 1
     CHARGE 0 
     MULTIPLICITY 2
   &END
 &END BSSE
 &DFT
    BASIS_SET_FILE_NAME BASIS_SET
    POTENTIAL_FILE_NAME POTENTIAL
   LSD
   ROKS
   &MGRID
     CUTOFF 100
   &END MGRID
   &QS
     EPS_DEFAULT 1.0E-8
   &END QS
   &SCF
     SCF_GUESS ATOMIC
     &OUTER_SCF
        EPS_SCF 2.0E-2
        MAX_SCF 20
     &END
     EPS_SCF 2.0E-2
     MAX_SCF 50
     &OT
       ROTATION
       MINIMIZER DIIS
       N_DIIS 7
     &END
   &END SCF
   &XC
     &XC_FUNCTIONAL PADE
     &END XC_FUNCTIONAL
   &END XC
   &POISSON
     PSOLVER MT
     PERIODIC NONE
   &END
 &END DFT
 &SUBSYS
   &CELL
     ABC 6.0 6.0 6.0
     PERIODIC NONE
   &END CELL
   &COORD
 O         0.0229908305        0.0248611316        0.0482607864
 O         1.4785534514        1.0974446263        2.2134787531
 H         0.5145304498        0.3553708493        0.8491675034
 H         1.3627441609        2.0634117325        2.2436795075
 H         2.4403299774        0.9530333832        2.2102801042
   &END COORD
    &KIND H_ghost
      BASIS_SET DZVP-GTH-PADE
      GHOST
    &END KIND
    &KIND O_ghost
      BASIS_SET DZVP-GTH-PADE
      GHOST
    &END KIND
    &KIND H
      BASIS_SET DZVP-GTH-PADE
      POTENTIAL GTH-PADE-q1
    &END KIND
    &KIND O
      BASIS_SET DZVP-GTH-PADE
      POTENTIAL GTH-PADE-q6
    &END KIND
 &END SUBSYS
 &END FORCE_EVAL
 &GLOBAL
  PROJECT OH-H2O-bsse
    RUN_TYPE BSSE
    PRINT_LEVEL LOW
 &END GLOBAL
