&GLOBAL
  PRINT_LEVEL MEDIUM
  PROJECT dftd2_t4
  RUN_TYPE ENERGY
&END GLOBAL

&FORCE_EVAL
  METHOD QS
  &DFT
    BASIS_SET_FILE_NAME GTH_BASIS_SETS
    POTENTIAL_FILE_NAME POTENTIAL
    &MGRID
      CUTOFF 100
      NGRIDS 1
    &END MGRID
    &QS
      METHOD GPW
    &END QS
    &SCF
      EPS_SCF 1.0e-0
      MAX_SCF 1
      SCF_GUESS ATOMIC
    &END SCF
    &XC
      &VDW_POTENTIAL
        DISPERSION_FUNCTIONAL PAIR_POTENTIAL
        &PAIR_POTENTIAL
          R_CUTOFF 20.e0
          SCALING 1.20e0
          TYPE DFTD2
        &END PAIR_POTENTIAL
      &END VDW_POTENTIAL
      &XC_FUNCTIONAL BLYP
      &END XC_FUNCTIONAL
    &END XC
  &END DFT
  &SUBSYS
    &CELL
      ABC 15.0 15.0 15.0
      PERIODIC NONE
    &END CELL
    &COORD
      UNIT bohr
      C   -1.98010325431824     -2.68657445907593      0.00000000000000
      C   -2.74861383438110     -1.61655890941620      2.27939748764038
      C   -2.74861383438110     -1.61655890941620     -2.27939748764038
      C   -4.28362655639648      0.52375853061676      2.28081297874451
      C   -5.04836320877075      1.59685885906219      0.00000000000000
      C   -4.28362655639648      0.52375853061676     -2.28081297874451
      C    1.98010325431824      2.68657445907593      0.00000000000000
      C    2.74861383438110      1.61655890941620     -2.27939748764038
      C    2.74861383438110      1.61655890941620      2.27939748764038
      C    4.28362655639648     -0.52375853061676     -2.28081297874451
      C    5.04836320877075     -1.59685885906219      0.00000000000000
      C    4.28362655639648     -0.52375853061676      2.28081297874451
      H   -2.14267301559448     -2.44163894653320     -4.04838991165161
      H   -4.88020849227905      1.35362362861633     -4.05119180679321
      H   -6.24184703826904      3.25650930404663      0.00000000000000
      H   -4.88020849227905      1.35362362861633      4.05119180679321
      H   -2.14267301559448     -2.44163894653320      4.04838991165161
      H   -0.76727682352066     -4.33107376098633      0.00000000000000
      H    0.76727682352066      4.33107376098633      0.00000000000000
      H    2.14267301559448      2.44163894653320      4.04838991165161
      H    4.88020849227905     -1.35362362861633      4.05119180679321
      H    6.24184703826904     -3.25650930404663      0.00000000000000
      H    4.88020849227905     -1.35362362861633     -4.05119180679321
      H    2.14267301559448      2.44163894653320     -4.04838991165161
    &END COORD
    &KIND H
      BASIS_SET DZV-GTH
      POTENTIAL GTH-PBE-q1
    &END KIND
    &KIND C
      BASIS_SET DZVP-GTH
      POTENTIAL GTH-PBE-q4
    &END KIND
  &END SUBSYS
&END FORCE_EVAL
