&GLOBAL
  PROJECT dftd3_t3
  PRINT_LEVEL MEDIUM
  RUN_TYPE ENERGY_FORCE
&END GLOBAL
&FORCE_EVAL
  METHOD QS
  STRESS_TENSOR ANALYTICAL
  &PRINT
     &FORCES
     &END
  &END
  &DFT
    BASIS_SET_FILE_NAME ../../../data/BASIS_MOLOPT
    POTENTIAL_FILE_NAME ../../../data/POTENTIAL
    &MGRID
      NGRIDS 1
      CUTOFF 10
    &END MGRID
    &QS
      METHOD GPW
    &END QS
    &SCF
      SCF_GUESS ATOMIC
      MAX_SCF 1
      EPS_SCF 1.0e-0
    &END SCF
    &XC
      &XC_FUNCTIONAL PBE 
      &END XC_FUNCTIONAL
      &vdW_POTENTIAL
         DISPERSION_FUNCTIONAL PAIR_POTENTIAL
         &PAIR_POTENTIAL
            TYPE DFTD3
            PARAMETER_FILE_NAME ../../../data/dftd3.dat
            REFERENCE_FUNCTIONAL PBE
            CALCULATE_C9_TERM T
            R_CUTOFF 7.
         &END PAIR_POTENTIAL
      &END vdW_POTENTIAL
    &END XC
  &END DFT
  &SUBSYS
    &CELL
      ABC 3.0 3.0 3.0
    &END
    &COORD
       SCALED
       He    0.5 0.5 0.5
    &END COORD
    &KIND He
      BASIS_SET SZV-MOLOPT-SR-GTH
      POTENTIAL GTH-PBE-q2
    &END
  &END SUBSYS
&END
