
&FORCE_EVAL
  METHOD QUICKSTEP
  &DFT
    &AUXILIARY_DENSITY_MATRIX_METHOD
      METHOD BASIS_PROJECTION
      ADMM_PURIFICATION_METHOD NONE
    &END
    &REAL_TIME_PROPAGATION
       MAX_ITER 7 
       MAT_EXP ARNOLDI
       PROPAGATOR ETRS
       EXP_ACCURACY 1.0E-11
       EPS_ITER 1.0E-2
       INITIAL_WFN SCF_WFN
    &END
    BASIS_SET_FILE_NAME BASIS_MOLOPT
    BASIS_SET_FILE_NAME BASIS_ADMM
    POTENTIAL_FILE_NAME POTENTIAL
    &MGRID
      CUTOFF 100
    &END MGRID
    &QS
      EPS_DEFAULT 1.0E-10
      MAP_CONSISTENT
    &END QS
    &POISSON
      PERIODIC NONE
      PSOLVER MT
    &END

    &SCF
      MAX_SCF 5
      EPS_SCF 1.0E-6
      SCF_GUESS ATOMIC
      &OT ON
        ROTATION
      &END OT
    &END SCF
    &XC
      &XC_FUNCTIONAL NONE
      &END XC_FUNCTIONAL
      &HF
        &SCREENING
          EPS_SCHWARZ 1.0E-10
          EPS_SCHWARZ_FORCES 1.0E-10
          SCREEN_ON_INITIAL_P FALSE
        &END
        &INTERACTION_POTENTIAL
          POTENTIAL_TYPE COULOMB
        &END
        &MEMORY
          MAX_MEMORY 50
          EPS_STORAGE_SCALING 0.1
          TREAT_FORCES_IN_CORE TRUE
        &END
      &END
    &END XC
  &END DFT
  &SUBSYS
    &CELL
      ABC 8.0 8.0 8.0
      PERIODIC NONE
    &END CELL
    &COORD
    O   0.000000    0.000000   -0.065587
    H   0.000000   -0.757136    0.520545
    H   0.000000    0.757136    0.520545
    &END COORD
    &KIND H
      BASIS_SET DZVP-MOLOPT-GTH
      POTENTIAL GTH-PBE-q1
      AUX_FIT_BASIS_SET cFIT3
    &END KIND
    &KIND O
      BASIS_SET DZVP-MOLOPT-GTH
      POTENTIAL GTH-PBE-q6
      AUX_FIT_BASIS_SET cFIT3
    &END KIND
  &END SUBSYS
&END FORCE_EVAL
&GLOBAL
  PROJECT H2O-hybrid-EMD
  RUN_TYPE EHRENFEST_DYN
  PRINT_LEVEL MEDIUM
&END GLOBAL
&MOTION
  &MD
    ENSEMBLE NVE
    STEPS 2
    TIMESTEP [au_t] 0.25
    TEMPERATURE 300.0
  &END MD
&END MOTION
