&FORCE_EVAL
  &DFT
    BASIS_SET_FILE_NAME GTH_BASIS_SETS
    POTENTIAL_FILE_NAME POTENTIAL
    &MGRID
      CUTOFF 120
      REL_CUTOFF 30
    &END MGRID
    &QS
      METHOD GPW
      EPS_DEFAULT 1.0E-14
      EXTRAPOLATION LINEAR_P
    &END QS
    &SCF
      EPS_SCF 1.0E-4
      SCF_GUESS ATOMIC
      MAX_SCF  20
      &MIXING
          METHOD BROYDEN_MIXING
          ALPHA   0.50
      &END
      CHOLESKY OFF
      EPS_EIGVAL 1.e-5
    &END SCF
    &XC
      &XC_FUNCTIONAL PADE
      &END XC_FUNCTIONAL
    &END XC
    &KPOINTS
       SCHEME  MONKHORST-PACK  2 2 2
       SYMMETRY ON
       WAVEFUNCTIONS COMPLEX
       EPS_GEO 1.e-8
       FULL_GRID ON
       VERBOSE F
       PARALLEL_GROUP_SIZE  0
    &END KPOINTS
  &END DFT
  &SUBSYS
    &CELL
      ABC 3.56683 3.56683 3.56683
    &END CELL
    &COORD
     SCALED
     C     0.100000    0.000000    0.000000
     C     0.500000    0.500000    0.000000
     C     0.500000    0.000000    0.500000
     C     0.000000    0.500000    0.500000
     C     0.250000    0.250000    0.250000
     C     0.250000    0.750000    0.750000
     C     0.750000    0.250000    0.750000
     C     0.750000    0.750000    0.250000
    &END COORD
    &KIND C
      BASIS_SET SZV-GTH
      POTENTIAL GTH-PADE-q4
    &END KIND
  &END SUBSYS
&END FORCE_EVAL
&GLOBAL
  PROJECT C
  RUN_TYPE GEO_OPT
  PRINT_LEVEL LOW
&END GLOBAL
&MOTION
   &GEO_OPT
      OPTIMIZER LBFGS
      MAX_ITER  2
   &END
&END

