# Reference energy -45.2700189877
&GLOBAL
  PRINT_LEVEL LOW
  PROJECT C
  RUN_TYPE ENERGY
&END GLOBAL

&FORCE_EVAL
  &DFT
    BASIS_SET_FILE_NAME GTH_BASIS_SETS
    POTENTIAL_FILE_NAME POTENTIAL
    &KPOINTS
      EPS_GEO 1.e-8
      FULL_GRID OFF
      PARALLEL_GROUP_SIZE 0
      SCHEME MONKHORST-PACK 2 2 2
      SYMMETRY ON
      VERBOSE T
    &END KPOINTS
    &MGRID
      CUTOFF 280
      REL_CUTOFF 50
    &END MGRID
    &QS
      EPS_DEFAULT 1.0E-14
      METHOD GPW
    &END QS
    &SCF
      CHOLESKY OFF
      EPS_EIGVAL 1.e-8
      EPS_SCF 1.0E-8
      MAX_SCF 20
      SCF_GUESS ATOMIC
      &MIXING
        ALPHA 0.50
        METHOD BROYDEN_MIXING
      &END MIXING
      &PRINT
        &RESTART off
        &END RESTART
      &END PRINT
    &END SCF
    &XC
      &XC_FUNCTIONAL PADE
      &END XC_FUNCTIONAL
    &END XC
  &END DFT
  &SUBSYS
    &CELL
      ABC 3.56683 3.56683 3.56683
    &END CELL
    &COORD
      SCALED
      C     0.100000    0.000000    0.000000
      C     0.500000    0.500000    0.000000
      C     0.500000    0.000000    0.500000
      C     0.000000    0.500000    0.500000
      C     0.250000    0.250000    0.250000
      C     0.250000    0.750000    0.750000
      C     0.750000    0.250000    0.750000
      C     0.750000    0.750000    0.250000
    &END COORD
    &KIND C
      BASIS_SET SZV-GTH
      POTENTIAL GTH-PADE-q4
    &END KIND
  &END SUBSYS
&END FORCE_EVAL
