 # Version information for this restart file 
 # current date 2022-12-20 17:51:29.015
 # current working dir /data/gtocci/scratch/projects/cp2k/tests/Fist/regtest-nequip
 # Program compiled at                           Tue 20 Dec 2022 11:57:58 AM CET
 # Program compiled on                                                   tcopt12
 # Program compiled for                                                    local
 # Source code revision number                                       git:049a8fa
 &GLOBAL
   PROJECT_NAME water
   RUN_TYPE  MD
   &PRINT  DEBUG
   &END PRINT
 &END GLOBAL
 &MOTION
   &MD
     ENSEMBLE  NVT
     STEPS  10
     TIMESTEP     4.9999999999999994E-01
     STEP_START_VAL  10
     TIME_START_VAL     4.9999999999999982E+00
     ECONS_START_VAL    -5.5043949773439374E+02
     TEMPERATURE     2.9800000000000000E+02
     &THERMOSTAT
       REGION  MASSIVE
       &NOSE
         LENGTH  3
         YOSHIDA  3
         TIMECON     9.9999999999999989E-01
         MTS  2
         &COORD
               1.6784864739004930E+00   -4.8948019695596914E+00    3.4976617347607477E+00    6.5384009087173833E-01 \
              -1.9591416591517223E+00    8.3805399136761927E-01   -1.3430937793789854E+00    1.0371531107263758E+00   -3.3660241508692279E-01 \
              -6.7387890112177340E-01    3.2596783226654567E+00   -3.0475479704633974E+00   -7.0503155842480264E-02   -2.6774226697506354E+00 \
               2.1434766682578652E+00   -4.0536662992200858E+00    5.2221196935969316E-01    2.0653765651115741E+00    1.5656592203664330E-01 \
               3.4476275924555075E+00   -1.4071333219595197E+00   -6.8158223091825998E-01    1.2697488427847501E+00   -1.1451388788377423E+00 \
              -3.5932352375255858E+00    4.4963640377074769E+00   -2.5786041403036775E+00    3.6217080446912324E+00    6.5778689422170711E-01 \
              -2.8659018773450216E+00   -6.5755010185873530E-01    4.9296846720666423E+00   -3.9210163721360565E+00    8.0861448326642504E-01 \
              -6.1206948313065013E-01    1.3151961775195758E-02    2.4857009524440534E+00    1.8343875434938257E+00   -2.1624896567122569E+00 \
               1.0986823945902888E+00   -8.8710342881313586E-01   -1.6446030864329046E+00    4.7400035878562136E-01    1.0146085408034100E+00 \
              -1.1248643749273326E+00   -4.6100580306274763E-01    2.5557396709043423E+00   -1.9176174188758310E+00    1.2235871134551957E+00 \
              -3.2163355181110065E+00    6.5677372798968314E-01    1.2865258585486037E+00   -2.4299991276638107E+00    6.5863906584488841E-01 \
               3.7191460779368262E+00    3.7327236977494860E-01   -3.6926327211861758E+00   -1.4791190429562264E+00   -2.3878276157102918E-01 \
               7.1664099295633088E-01    2.8816919312561389E+00   -3.3142179886624707E+00    1.2118213120548647E+00    1.8282217886975858E+00 \
              -1.6721962168870166E+00   -2.8434150406613861E+00    6.9430375678507225E-02   -2.4698923710801240E-01    1.2826930198075830E+00 \
              -7.0446087877294405E-01    3.8893110248967542E+00   -2.5757410578026736E+00   -3.2310161958488277E+00    2.9758291370751464E+00 \
              -2.2873338078128680E+00   -1.1818116208486555E+00    1.9874957627510517E+00   -2.9863472099013078E-01   -1.1708887110890798E+00 \
              -1.6012476886232238E-01   -7.7604763886010597E-01    1.1493601900531960E+00   -1.2580281368036004E+00   -2.0941758524742173E+00 \
               1.7715741446927937E+00    1.3422626670903428E+00   -4.1557381970325746E+00   -3.1928493642770528E+00    3.1735548415754979E+00 \
              -3.5544499060909911E+00    1.7221307419244734E+00   -3.9799981788479672E+00    2.3112127730448955E+00    5.6031169589073149E-01 \
              -2.4783649927272022E+00    5.3245857284747744E-01    2.2064028372271274E+00   -1.3471941298223662E+00    1.7103345822387568E+00 \
              -1.0143483679703975E+00    9.7493485080431430E-02    1.1188343345404284E+00   -4.0063797128616374E-01    2.0456074767350363E+00 \
              -1.6716628034258032E+00    4.8629719954783124E-01    1.1307495315075744E+00   -2.5221590012714832E+00   -3.7259789517770123E+00 \
               3.9301284538962018E+00   -1.6540397126130513E+00   -2.0672220070785396E+00    3.0958717184107667E+00   -1.9101475483989199E+00 \
              -1.5318535595516130E+00    1.5419511211651749E+00   -9.2401661632136789E-01    1.6322746065267535E+00    1.6722858888606233E+00 \
              -2.3745665124595527E+00   -5.4675716080868488E+00    9.2594936584913956E-01    1.5236824143841019E+00    2.8357730801013248E+00 \
              -4.4219723590686382E+00   -7.9592624843436510E-01   -5.8178833610936707E+00    2.9866668280321327E+00    1.3921697422650239E+00 \
               2.3546540951954209E+00   -4.6824517602585161E+00   -1.3596070601669457E+00   -1.3601096599622817E+00    9.6953697174794962E-01 \
              -1.6141233529185386E+00    8.3246368990018538E-01   -3.9793934980816497E+00    1.1580775535473580E+00   -6.4533010633343153E+00 \
               1.5550428075690694E+00    3.3796258060843383E+00    6.2751348997967116E-01   -3.7640682210646281E-01   -3.1186803637317317E-01 \
               2.3366686890378796E-01    2.0507998406333807E+00   -2.0800751928344985E+00    4.5329692326781421E+00   -4.1469233448421372E+00 \
              -2.2611615016999034E+00    1.2356952227560050E+00   -2.2438283291090904E+00    1.3251419790172754E+00    1.1141577582410830E-01 \
              -9.2281919879577401E-03    2.2117940995957280E-01    1.0481687448555714E+00   -1.8515638466106132E+00    9.6143498218302048E-01 \
              -3.1507967624229805E+00    1.1793589626997716E+00   -1.5191173588864890E+00    1.0485734764154946E+00    2.4744516527460805E+00 \
              -9.0293736766195309E-01   -3.3041439175115546E+00    6.0683814408888159E-01   -1.9903468949485941E+00    2.3455592666692531E+00 \
              -4.5200914605619031E+00    3.3864188617101152E+00    1.0103452546697733E+00    1.7053375599639470E-01   -3.4673924651402721E-01 \
              -1.0899330261119935E+00   -2.3933278750230684E+00    2.8134332135218481E+00   -8.0752134206519888E-01    7.8330342257094232E-01 \
              -4.0349527667390267E-01    9.9494547267999256E-01    1.4379353492310807E+00   -1.9597034729818188E+00   -4.4412184601698518E-01 \
              -1.6344905047856634E-01    7.6045378359126692E-01   -3.1772109504475565E-01    3.6665393602727634E+00   -3.7808346113477120E+00 \
              -5.1238803797757875E+00    9.5198824730987641E-01    3.2132915013597412E+00   -4.3045688682745249E+00    4.3396160637082577E+00 \
              -1.6895943535671116E+00   -1.9735439726051440E+00   -8.6210517099187589E-02    6.7597779732696414E-02    1.4865576597821484E+00 \
              -2.0202656831546220E+00    2.1001061594541795E-01   -3.8051194162498386E-01    2.2179474988789889E+00    1.0347935398104378E+00 \
              -1.3556580997126182E+00    8.5072179645727986E-01   -2.2680961890095714E+00   -6.4766579523748979E-01   -5.5977772682145610E-01 \
               2.8538398621224531E-01   -1.0733120357175883E+00   -5.9970080601949260E-01    2.6173352609870126E-01    9.0659430875600855E-01 \
              -4.7785063474256599E+00    2.1112728885579304E+00   -1.1079212900983080E+00   -4.2733487287041555E-01    1.0284264914854335E+00 \
              -2.5769928173186907E-01   -2.9764140985563317E+00    1.8042945428381483E+00    5.7239211349889807E-01   -2.7957275157564765E+00 \
              -1.4785009518256662E-01   -2.8267737789843830E+00   -9.1189991332367515E-01    1.3882687936104094E+00   -1.6343313455190112E+00 \
               1.6076904235164071E+00   -2.5798507303943130E+00   -1.3861347575972498E+00    1.6075382195982639E+00   -5.0314853423383132E-01 \
              -1.1589231420517185E+00    2.2727586256019960E-01    2.5644625009591271E-01   -2.6549057518696551E-01    4.9205609844345268E+00 \
              -2.7358597245966507E+00   -4.4628465959894701E+00    2.8011252828643953E+00    1.8469259099391286E-01   -2.5188078597831578E+00 \
               4.6780299683152089E+00   -3.4517750008521588E+00    1.6834103619392675E+00   -2.4964557610250804E-01    1.3997268501571150E+00 \
              -2.1731486808915781E+00    2.9555822252959523E+00   -3.9169205982805283E-01    5.0879024733787115E-01   -7.3137663183192925E-01 \
              -9.9817310501953249E-01   -3.4683738402592006E+00    1.6190336805230068E+00   -4.0281855129506922E-01    2.3471746288321271E+00 \
               1.3239346970530457E+00   -2.3344124270473370E+00    4.2446769271961600E+00   -4.3492623469569995E+00    8.0195622142036949E-01 \
              -9.8929395889963678E-01    5.1045926663625876E+00   -2.4259672035618465E+00    6.9439054144207724E-01    9.8665161068060558E-02 \
              -8.6147733614330224E-01   -4.6291046045300610E-01   -2.3024891390793356E+00   -1.6738946504454413E+00   -9.7791850247981105E-01 \
               1.2648708374397561E+00    1.0820709929190240E+00   -2.3786026207704203E+00    1.7050330684234565E+00    1.9144846939244975E+00 \
               7.6435478159281789E-01   -1.3874789703331392E+00   -2.5071231812896583E-01   -4.6335744477776242E+00    3.5060315445387951E+00 \
              -8.8168851688346583E-01    3.4850762673084543E+00   -2.5248868997274925E+00    2.0251549959802415E+00    5.5631342566932451E-01 \
              -1.7750067635191580E+00    7.5668279947475536E-01    1.5740451447975807E+00   -3.1748843375058700E+00    1.5435572154186776E+00 \
               3.2978413962755249E+00   -1.5683470242057249E+00   -2.8043048507255914E+00   -5.6210953591455026E-01    6.3529636758054731E-01 \
              -3.7672855386624077E-01    1.0461728382648368E+00    3.4769493756869896E-01   -3.6390233092318383E+00    2.3273671324944509E-01 \
               3.5735677937761370E+00   -4.8201937603503566E+00    1.3275523152854380E+00    2.8368376660572725E+00   -3.8081884571802429E+00 \
               1.0116989372367939E+00   -3.1650316245650707E+00    1.3286751998132889E+00    1.6519944952961549E+00    1.1410181093769298E+00 \
              -5.0336652085486744E+00    3.7650224950136497E+00   -2.7406141847554641E+00   -4.0226776855440418E+00    6.4731912593607210E-01 \
              -2.3772304646241844E+00    9.2295842305788356E-01   -1.2898902551226186E+00    8.8078807154599548E-01   -2.8086331564869664E+00 \
               4.3612912625361986E+00   -3.6778047313854745E+00    5.2409656900054136E-01   -2.0097544978936952E+00   -8.7768128876370935E-02 \
               2.1114097390478843E+00    6.1189906868223520E+00   -2.6702912284218026E+00   -2.2052420218695485E+00    1.4680545387967361E+00 \
              -4.1377502615301998E-01    1.8582556021573321E-01    3.9011692828207911E+00   -1.1169069475360760E+00   -2.5147530867931027E+00 \
               3.0473492933200088E+00   -4.5475808115327983E+00    2.5267715435885191E-01   -4.2762589892627167E-01    1.4527669987275851E+00 \
              -1.7786378736500472E+00    1.1887172095833751E+00   -1.3352613647190461E+00    2.3429410935319748E+00   -1.0446501820224492E+00 \
               1.0450039725980003E+00   -1.2090731389364824E+00   -2.7522699753855240E-01    5.3226324747414594E-02   -1.0117589475568221E+00 \
               4.4303816904705429E-01   -1.8466372167389147E+00    1.1305937312218457E+00   -2.1147202275542676E-01   -8.1376422155819550E-01 \
               2.2941556683451196E+00    1.0935387824672456E+00   -4.8807345130582052E+00    3.0356077320933239E+00    3.2018017425895900E-01 \
              -7.6137110083171144E-01   -2.6174892062167028E+00    2.8014375468677608E+00   -5.1908660898884849E+00    2.0372424160880520E-01 \
              -1.1070351988867524E+00    3.9002785203762445E+00   -2.2499944975784292E+00   -1.0931835568761705E+00   -3.7942154743786460E+00 \
               1.5144776982156056E+00    1.2697846955486707E+00    5.4772191448731677E-01   -5.1725086129905717E-01   -3.4027909432560788E-02 \
              -2.2837821893652355E+00   -8.9759228586666906E-01    4.8607289756098404E-02    1.1519869460120374E-01    1.4732923090795097E-01 \
               9.6420501011443072E-01   -5.0787235146247189E+00    4.0929367235387488E+00    4.0820235826891094E-02    6.6581334605960174E-01 \
              -6.3745778434647093E-01   -1.4207110969769599E+00    3.3657657054211567E+00   -2.2842977310859722E+00   -2.3471014342002788E-01 \
              -4.9293169551495863E-01   -9.9670915514030001E-01   -1.3395706035463708E+00    4.9229306405523907E+00   -2.7775982824279803E+00 \
               1.2687577130932577E+00   -1.4811764236473564E+00   -1.6289032560023728E-01    7.6098099719735468E-01   -1.5616217649724342E+00 \
               5.3709130747455347E-01    2.9469117607834341E+00   -4.8350204409632500E+00    1.3146737493467892E-01    3.7908328144423553E-01 \
              -3.4056513342512580E+00   -1.8450856193236613E+00   -1.9922986545738743E+00    1.2825203792339017E+00   -3.3998618482434451E-01 \
               1.4653932426471488E+00   -3.1075392906104304E+00    1.7706789786490396E+00    4.8260828262541200E-01    2.4472290876555161E-01 \
              -9.1431059976907259E-01   -1.8261815635204146E+00    1.5895276144251107E+00   -1.1503942911697032E+00   -2.2472708604777658E+00 \
               1.7095715179993718E+00   -1.1937121139548321E+00    2.2073128403701263E+00   -1.8386622666976637E+00    1.4149719480232228E+00 \
              -1.0069156938693864E+00   -6.9167726334561341E-01    1.6420264963954057E-01    6.9985171381107047E-01    1.8228994733875521E+00 \
              -2.2494419350471162E+00    7.2647681500983885E-01    3.6758737779977058E-01   -1.5667050709557617E+00    1.2143400972129650E+00 \
              -2.2353633655929035E+00    1.3805055797355743E+00    4.3862497630996744E-01   -8.8539103907502459E-01   -2.3015902324545245E+00 \
              -3.2879537940826575E-01    7.8126382204798528E-01    1.7792555400479260E-01    1.1668801114111564E+00    3.6440535360575015E+00 \
              -3.6643979056936420E+00   -1.2012041324846692E+00    3.2541385479751335E+00   -3.5507398863825674E+00   -1.2883980860170596E+00 \
               1.5783413366471961E+00   -1.0072216227980439E+00    1.6655717706938145E+00   -3.1161282707574185E+00   -3.2681653354102784E+00 \
              -4.6730231945908871E+00    2.1586374024524626E+00    1.5068379965038794E+00    1.3681875345333290E+00   -4.1363645319709521E+00 \
               6.0533073413074878E-01   -2.5198731475033007E+00   -9.1330458594340713E-01    2.2256165559591730E+00    4.5725771414534122E-01 \
              -2.1980457198136696E+00    8.2591152072102481E-01   -1.3545594312935652E+00    2.2441820759894400E+00   -1.9679032767098990E+00 \
               9.7962421490426344E-01   -4.7796746904534526E+00    3.6068457946217132E+00    7.9639724957705071E-01   -1.8600436647477456E+00 \
               8.1769674948583915E-01    1.9999350238150972E+00   -9.2773381235614383E-01    1.3269343007721932E+00   -1.4889891101208677E+00 \
               4.0593034988699044E+00   -3.9548030333122384E+00    7.0988724781072077E-01   -4.1247717452292996E+00    3.0830583541411851E+00 \
              -2.0158013827035259E+00    3.7425754971432212E+00   -4.0139384814218451E+00   -3.6622428447311908E+00    1.1320327015685194E+00 \
              -1.0905686538360844E-01    2.5016486927665751E+00   -3.7006390911978144E+00    4.8492390941397562E-01   -4.3396034803124955E-01 \
              -2.9700440294921351E+00    2.2282520027754829E+00    1.9554629384415489E+00    1.0376417200855133E+00   -3.7054267956190667E+00 \
              -9.0990875701599427E-01   -1.1218787923711937E+00    3.5943383346465017E+00    2.3276209204420129E+00   -3.5064913091456313E+00 \
              -1.0315061422336820E+00   -3.4628209301082342E+00   -1.3202077759550932E+00    2.4390552793659187E-01   -5.7480092463505965E+00 \
               4.2598583141875777E+00    9.7966672077623695E-01    1.2856994972484342E-01   -6.3038731663050296E-01    2.9809372274058188E-01 \
               5.3066456547255543E+00   -3.4012965901758978E+00   -1.0091768442149172E+00   -1.0275536443544397E+00    5.0953303726490846E+00 \
              -2.8955586518258092E+00   -2.0526546932246474E+00   -1.8924583639274444E+00    3.1384049967697529E+00    1.3341336039255294E+00 \
               2.3630679659833714E-02    8.3514735999746359E-01    1.9790382729559635E+00   -1.1986955827866317E+00   -7.6376917835913427E-01 \
               3.0671069034093961E+00   -4.2220595560242324E-01   -2.2350961154636457E+00   -1.9378224124892065E+00    3.7847541417043611E+00 \
              -2.9711336986062755E+00    1.6655739214223186E+00   -4.0389771829690826E+00    1.8306295844376175E+00   -6.3703296688970290E-01 \
               1.6673789372069150E-01   -5.3354983423840679E-02   -2.1279014279458877E+00    5.3992133451040991E-01    3.7314137863346653E-01 \
               9.5107676237733019E-01    2.1795596095317246E-01   -1.5411765054586741E+00   -6.5550783047335381E-01    4.7942158184408559E+00 \
              -3.0446032379080177E+00    2.0138551493036032E+00   -3.1863870739880711E+00    1.2435213721090492E+00    7.8947963727746406E-01 \
               4.0559306976113705E+00   -4.5576300572611625E+00    6.9535938045053469E-01   -1.1180058643420102E-01    9.2784676361264140E-01 \
              -2.2196550164257578E-01   -1.0185225427489170E-01   -8.8114720583011052E-01   -2.6860318270486344E-01    3.0677112210975915E-01 \
              -2.3788763520346135E+00    2.4042457966876376E+00    4.5958132566532521E+00   -3.1805200064966281E+00    5.5023635610915933E-01 \
              -2.7559563499348823E+00    1.7855391140210355E+00   -5.5140464470671724E-01    3.4641805379085047E+00   -2.6929220984584386E+00 \
               1.6947175896584188E-01    2.3669658336271460E+00   -2.1887119993186457E+00    3.4485035515497353E+00   -1.3256610401357038E+00 \
              -2.3710546423572891E+00   -1.4600486604273668E+00    1.6684862447123041E+00   -1.4547836157233593E+00   -2.1398043815544038E-01 \
               9.7662698048993279E-01   -4.2018563745612447E-01    8.9681867901629697E-01   -4.7604572827098037E+00    3.8535652023410174E+00 \
              -6.5738229243196744E-01    2.0472681979033807E+00   -5.5256564517451812E-01    7.8309702725587171E-01   -2.0278758875123604E+00 \
               8.0361305333131727E-01   -1.2387104544076524E-01    3.2900763544762412E+00   -1.3937548684162402E+00   -6.6151494381283060E-01 \
               1.3021459549304932E+00   -7.1490926806735644E-01   -7.2125455106293901E-01    1.7389444341200284E+00    2.0598427884617590E-01 \
              -1.6639400073770940E+00    2.0785687014476648E-01   -1.4763939051542177E-01   -9.7258376885424802E-01    3.3235296716629810E+00 \
              -2.3670898722731701E+00   -7.6448600929915109E-02   -3.1747128568510181E+00    2.7851084989909149E+00    9.3352598857014313E-01 \
              -5.0710238957064586E+00    4.1780309951255283E+00    1.2971789660464896E+00   -1.4589088195067657E+00    8.4281686666934275E-01 \
               6.0403392585059323E-01   -7.7358767255366412E-01   -8.9521110632348033E-01    7.0246773115940309E-01   -6.8327754772081778E-02 \
               1.0592271337172365E-01   -3.6142089840312308E-01    8.7596703778317686E-02   -3.5262054882168377E+00    5.5833327284763301E-01 \
              -4.5827065269819975E+00    2.9799046571820216E+00    1.6638475074728167E+00   -3.5439595580364003E+00   -1.2322921119354152E-01 \
               1.3588935427135045E+00   -4.1366685305580528E+00    1.1696647432509157E+00    6.1300322082973105E-02   -4.0963365427477179E+00 \
               3.3495811056820459E+00    6.2498540238031441E-01   -4.9362844992448531E+00    4.2776778087024558E+00    2.3030743792068251E+00 \
              -1.3225388316180964E+00   -7.6036351576880190E-01    5.1420402656637254E-01   -8.9874079654915617E-01    2.7296695862541942E-01 \
               2.1496783175117580E+00   -3.3540612516973209E+00    1.5546506043047263E+00    3.3792710208602768E+00    5.2012212412400194E-01 \
              -3.3434686152428910E+00    4.9941367219781494E+00   -2.4381300864483033E+00   -8.3785075210054216E-01   -7.1364298183665775E-01 \
               2.5348475633262439E+00   -1.8533092323913194E+00    5.5884533480900012E-01   -1.0942798623025707E+00    8.7135615151352641E-01 \
              -1.3604304663505182E+00    3.7353997261343457E+00   -2.7554529493059281E+00    1.1927469195850815E+00   -2.2571131390202113E+00 \
               1.1825562913314311E+00   -3.7984599927879448E-01    1.0376049114277068E+00    4.5062319950437613E-01   -4.3524791447841621E-01 \
               5.1042207148100394E-01   -1.4079163077122128E+00    2.4856005575248248E+00   -2.3002481749655681E+00   -3.3281013880551691E+00 \
               1.5437130331456017E-01    1.8161238398824040E+00   -3.2750857305943990E+00   -6.8616674751169482E-01   -2.8029013704415213E+00 \
               2.9455201258651234E+00    5.1940823616535658E-01    2.9773623267009706E+00   -2.7822887328523502E+00    9.7592956925055951E-01 \
              -4.3008982032857510E+00    2.3056545943951687E+00    4.3021610062836907E-01   -2.7565979518067034E+00    1.3907296082008731E+00 \
               1.9990427705113514E-02    7.2530861246480471E-01   -1.2161925273095280E+00   -7.4078957401932333E-01   -1.8217222832365343E+00 \
               2.0679348520659020E+00    1.5313214692048500E+00   -1.3278655264098898E+00   -2.2685503521995085E+00    3.1657878046336982E+00 \
              -4.7424153535847502E+00    1.3305885954808154E+00    1.5142966880214337E-01   -8.3867539370601249E-02    8.4690444963213307E-01 \
               2.3781502336543495E-01    2.2613754513464621E+00   -6.5656636517860099E+00   -4.9410010814754268E-01    2.4889303095655486E+00 \
              -4.7212005386840872E-01    2.0896685383279148E+00   -4.0807318157616579E-01   -1.5747878234114341E+00    1.5963598835117094E+00 \
              -2.8043986309197941E+00    6.2619408871433979E-01    4.6802767658589124E+00   -3.4189128250557164E+00    1.6559663612349929E-01 \
               8.8495521898680485E-01   -2.6780750532450983E+00    3.6224071988411810E-01    2.5884054814706317E+00    8.1739620852588579E-01 \
              -2.7065760887720094E+00    1.1423166939191132E+00   -2.0603521172143440E+00    1.0029107229269714E+00   -7.2495335028219887E-01 \
               7.1410876303507509E-01   -5.4111055018839926E-01   -1.4786006270419898E+00    3.8418315292089154E+00   -3.4458780411103218E+00 \
              -1.6307755935621440E+00    1.1563827724250313E+00   -5.8063705126579532E-02    5.1727741316087328E-01   -4.7325354345056398E+00 \
               2.7242252806044376E+00   -2.7504723311396075E+00    3.2933004383535219E-01   -7.0626241092639863E-01    1.2156556754740336E-01 \
              -4.2530729828495755E+00    3.6940334737074583E+00    1.5020224947742347E-01    4.3054906868378353E+00   -4.0459018540571030E+00 \
              -1.1331033939181914E+00    2.3728742760620718E+00   -1.4526288571210673E+00    7.9167486551184385E-01   -1.2910106521521667E+00 \
               6.1380488813781964E-01    4.0998121764330769E-01   -2.2756063037993624E+00    1.3213123862489635E+00    9.1208494596567402E-01 \
               9.5939735784316149E-01   -2.4200208463272435E+00    8.8397417423526337E-01   -1.8053726652990487E+00    8.5084895147871553E-01 \
               5.8800043306123484E-01    3.1671945023178334E+00   -2.8254971202825820E+00    1.8788372174140702E+00   -4.9022968306163142E+00 \
               2.2640641735817968E+00   -3.2678147969473265E-01    1.4815545734461477E+00   -1.5322727692784327E-01   -1.5858252599942793E+00 \
               2.2315013262369146E+00   -1.9142475666864451E+00    1.0361888961815715E+00   -1.1226401329722497E+00    4.6902207022999087E-01 \
               2.3507072320723552E-01   -4.4618831453300167E-01    2.0061887785390120E-01    2.5065700360136414E+00   -3.0272476317229873E+00 \
              -1.3454224554371488E+00   -1.6768432263974349E+00   -1.9675469546845519E+00    3.4282696455322839E+00   -3.9315640156863023E+00 \
               4.5733934484366774E+00   -1.2214174299213665E+00   -1.0986358475995002E+00    2.3791317760532316E+00   -4.2143985480029640E+00 \
               9.1602786248354912E-02    1.6635037862459425E+00   -2.0322314257426566E+00    9.9339059036967836E-01   -3.4664803503055612E+00 \
               1.4455526036379602E+00    1.4140573428494669E+00    2.6651562905047617E+00   -3.0623963025247880E+00    1.7686770688891651E+00 \
              -3.2175499017364526E+00   -6.0645297959979527E-01   -1.9176415934182058E+00   -1.7045052261611175E+00    3.3828900334818055E+00 \
               9.4298864610416855E-01   -2.3736838226229389E+00    1.8462588579309953E+00    5.0530060940318533E-01   -4.8301581482175271E+00 \
               4.3586515048084387E+00   -1.9108278774774221E-01   -1.0820266046728018E+00    1.0732279314689278E-01    3.6416533589152076E+00 \
              -3.2565067526436207E+00   -8.0185694911090399E-01   -1.5840496188091586E+00    1.2161127998267200E+00   -1.2360015431958500E+00 \
              -9.4791377753446837E-01   -1.5656164186300625E+00    2.1685631628153654E+00    9.8995518421791204E-02   -1.0195751319220105E+00 \
               5.8013623333271092E-01   -3.8718546050501241E+00    2.4623539629409044E-01    2.8365203465361097E+00    1.2326953753036758E+00 \
              -6.7675850813738425E-01   -5.0010391158725787E+00    4.9609944910006198E-01    1.2196050030538619E+00   -1.9937568148968712E+00 \
              -1.8687978395109570E-01   -3.8518963100614432E+00    2.9000877281961834E+00    1.0152562791304953E+00   -1.5807943065503578E+00 \
               7.6890882282075024E-01    1.1336907886475700E+00   -4.5026574004513726E+00    2.3703271503503958E+00   -3.0987920970563643E+00 \
               1.4519268059057380E+00    7.0419902455981709E-01    2.5279138687002833E-01   -1.6370273755862146E+00   -2.3264794631346848E+00
         &END COORD
         &VELOCITY
               3.7953908921025306E-02   -2.8620186533457742E-03    9.9264904624779132E-03   -1.1878706863332837E-02 \
              -2.3090217580539157E-03   -2.1482935921082191E-02   -3.8061371579766690E-02    1.4459199952831287E-02    1.0032431060646423E-03 \
              -5.0992743240671284E-04    1.4308783357092285E-02    5.5287249063553416E-02    2.4566111043996180E-02    4.9956244386318909E-03 \
              -8.8462594789926186E-03   -6.8046971622025727E-03   -1.6424302336826613E-02   -9.5574201874820530E-03    1.4383308280647577E-02 \
               3.4214970162423551E-02    6.6735853848037853E-03   -3.5189378256768045E-02    1.5440301858548718E-02   -8.8851119421265168E-03 \
              -1.0405329487459505E-02    1.5281449342000908E-02   -1.8544637210425190E-02   -2.4624826880489405E-03    1.5367139464201551E-02 \
               1.3013209607564353E-02    3.1446902580963103E-03    9.4480518369707625E-03    1.3729423727398214E-02   -1.5089978009682693E-02 \
               8.7656429366350236E-03   -1.2506063397433506E-02    3.1335752551995937E-02    2.0801386395368979E-02   -3.8514267956533635E-02 \
              -1.9640913316730142E-02    3.7617025815515014E-03   -3.4354339322141110E-02    4.2633948266210331E-03    1.4452710707921436E-02 \
               3.5066338493356768E-02    8.7793998991385330E-03    3.6519451765768735E-03    3.1388168092453726E-02   -1.7437078992128614E-02 \
              -3.8923071556587661E-02   -2.5233546306471968E-02   -1.7606761141372402E-02   -1.9036301406572947E-02   -1.4023150505814291E-02 \
              -1.4759710740978234E-02    2.6605676910215977E-02   -1.1134218772070612E-02    1.7317966449248060E-02   -3.0818024683506012E-03 \
               3.6898475536565813E-02    4.4966541760979566E-03   -3.8447650373617762E-02   -1.7220915900798116E-02   -2.1723949488139226E-02 \
              -2.9969181346546140E-02   -4.0192126631785056E-02   -3.4181377277306174E-04   -3.1128823174902689E-03    5.0479396055496317E-04 \
              -1.7100502690559412E-02    3.6517179662768330E-02   -1.1498447758003015E-02   -2.3156492421175295E-03   -2.9551785152634572E-02 \
              -2.3715510312765507E-02    2.7283909404149614E-03   -4.2556638280088358E-03   -9.5941756350356160E-03   -1.6760842932728320E-02 \
              -1.7176338713239694E-03   -4.4038936500317302E-02    1.2873506539849823E-02    2.2138415226536267E-02   -2.3046643700750595E-02 \
              -9.6594668550878497E-03    4.4997280666299051E-02   -1.8700912589516925E-03   -2.7260353838248746E-02    1.4113762623657359E-02 \
              -4.0828212645220893E-02   -1.1629403429704484E-02   -2.4562523239111241E-02    1.6209982896530712E-02    1.9981298099429694E-03 \
              -1.2291901781612963E-03   -5.7225742755714027E-03    1.8867989752408573E-03    1.6380229513688917E-03    5.6047931671601194E-03 \
               5.1168752225553794E-03   -1.7758655119835313E-02   -2.1685032317745569E-02   -4.3086186447586043E-03   -7.5210902280492733E-03 \
               3.7153799481854807E-02   -2.0034695102833417E-02    1.3015824475209263E-02   -2.4884889058512786E-03    3.5704151628694904E-03 \
              -7.2968040604585466E-03   -3.2448983546117915E-02   -5.9072654488983170E-03   -2.1629566169127201E-02   -3.0335505400283427E-02 \
              -2.4254379919433022E-02   -1.9121914577331523E-02   -1.5572952851099645E-02   -2.0321634841514316E-03   -1.2088730419279992E-02 \
              -1.9659163164166549E-02   -2.7965615487663187E-02    2.1317804933469218E-02    3.7954441228403163E-03    2.6410665621190398E-02 \
              -2.0478825820200358E-02    5.8567306995607693E-02   -1.2701124256035394E-02    1.2747254122763493E-02   -4.1796053925291206E-04 \
              -5.6608903283140062E-02    2.0552360155469979E-03    4.4858815039040635E-02   -3.0532300655661201E-02   -4.6843560417966272E-02 \
              -4.4949052803860906E-03   -5.3023502986290091E-02   -1.2988057318564167E-03   -5.4019349607098144E-03   -2.4891923909287059E-02 \