 # Version information for this restart file 
 # current date 2022-12-20 17:17:11.565
 # current working dir /data/gtocci/scratch/projects/cp2k/tests/Fist/regtest-nequip
 # Program compiled at                           Tue 20 Dec 2022 11:57:58 AM CET
 # Program compiled on                                                   tcopt12
 # Program compiled for                                                    local
 # Source code revision number                                       git:049a8fa
 &GLOBAL
   PROJECT_NAME water
   RUN_TYPE  MD
   &PRINT  DEBUG
   &END PRINT
 &END GLOBAL
 &MOTION
   &MD
     ENSEMBLE  NVT
     STEPS  2
     TIMESTEP     4.9999999999999994E-01
     STEP_START_VAL  2
     TIME_START_VAL     9.9999999999999989E-01
     ECONS_START_VAL    -5.5043949773439374E+02
     TEMPERATURE     2.9800000000000000E+02
     &THERMOSTAT
       REGION  MASSIVE
       &NOSE
         LENGTH  3
         YOSHIDA  3
         TIMECON     9.9999999999999989E-01
         MTS  2
         &COORD
               7.2225950797421246E-01   -8.5301198561263658E-01   -3.6171516631833273E-01    1.1442006881106204E-01 \
              -8.6567826010047355E-01   -5.1163137737454367E-01   -9.4168503328964159E-01   -8.7549563407472353E-01   -7.4977825834819845E-01 \
               1.5591655364363843E+00    1.2317533510527140E-02    1.0370180000432491E-01    8.3247022044134245E-01   -5.0335884318287416E-01 \
              -2.0492267741715522E-01   -4.5808751306199713E-03   -6.9660259721604689E-01    5.4034288820905796E-01    1.5780373952527773E+00 \
               4.0524010038517055E-01    1.9983752129061627E-01   -1.2517966727006897E+00   -6.0220527598144469E-01   -6.9577471914469313E-01 \
              -7.7371320256143172E-01    5.8786775587891638E-01   -8.6460477796167301E-01   -2.3277973347061190E-01    9.1261957931518012E-01 \
              -3.2357053545230474E-01   -4.4079560671704765E-01    7.6895778267006420E-01   -5.1354875696456248E-01    6.6737479606939348E-03 \
              -5.5271353874782136E-01    3.8479710269108730E-01    1.3001217717258871E+00    8.8794007912830564E-01   -9.3723917356717856E-01 \
              -7.5931640137700884E-01   -3.5583430549658973E-01    1.2729112260484465E-01    4.1908770523413491E-01    6.6247732557292216E-01 \
              -1.1805796196708841E-01    9.7752843394473166E-01    5.2816479509879921E-01   -1.5887657537719807E-01   -3.4980210117614491E-01 \
              -9.9512812900747771E-01    6.6681514301975831E-01   -4.3815917202707821E-01   -1.8492247791390737E-01   -2.2072663727946146E-01 \
               6.8971922899922689E-01   -3.3838589345076786E-01   -5.5501755680022591E-01    6.4509091097671500E-01    2.2498563148088283E-01 \
              -1.2539404534815640E-01    1.5214327538818986E-01   -4.0079985676430008E-01    8.2836386601867062E-01   -2.3108494321914969E-01 \
              -4.4753762599304014E-01   -6.6417972737439657E-01    5.3208974383570129E-01   -2.9440740531620235E-01   -7.8413952220971161E-01 \
               3.0971086528848801E-01   -5.7538390082575566E-02   -3.6975539081051478E-01   -8.7043913007074480E-01    4.6191865836724427E-01 \
              -7.5317585102246576E-01    2.9650395780689187E-01    1.6177165563121765E-01    3.8961213281897039E-01   -9.9786225109902649E-02 \
              -1.1689368029291114E+00    4.2457634853803866E-01   -1.8768653730203805E-01   -4.8824068358076034E-01   -3.7689127953191837E-01 \
              -4.7949531526149825E-01   -3.2123948163468002E-01   -7.6747834647898652E-02   -1.1502727272961151E+00    1.1782373217489973E-01 \
              -6.9982136631123149E-01   -1.7401030328391097E-02    1.9755737835036724E-01    1.8903415684049379E-01   -5.0827502848222450E-01 \
              -4.9024454660070202E-02    1.5591980650014647E-01    5.5571003823228038E-01    3.7111448082530279E-01    3.9689142451097348E-01 \
              -3.9295881899628149E-01   -1.2069696243268284E+00   -3.5656873915285348E-01    4.9910602483680672E-01    3.6283435276210979E-01 \
              -7.8054690229850499E-01   -1.1615781505162270E+00   -5.6953814697434646E-01   -1.7371100872759515E-01   -1.0849996713509777E+00 \
               7.6006422567807397E-01   -5.2689501907071623E-01   -5.8558126371745900E-01    6.1283192671770570E-01    1.3651919722931255E-01 \
              -5.9482025550208018E-01   -6.3679904643009755E-01   -3.5446823197651206E-01   -3.7150391818485778E-01   -2.9843883971269636E-01 \
              -3.6831166439437302E-01   -3.4445376102960712E-01   -5.9359170903098413E-01   -1.3258035366021528E+00    4.9038683558342377E-01 \
              -1.1940294084577114E+00   -2.3665571915456712E-01   -1.0280632901752000E+00   -5.4653339808182055E-01   -5.8234355934690263E-01 \
               5.9150201683395642E-01   -8.3106575663340887E-01   -2.7621428706137585E-01   -1.7318016306989485E+00   -1.4939413041683858E-01 \
              -2.3693333298978775E-01   -1.5189509904575607E-01   -1.0660186227951016E+00   -6.9030705111065116E-01   -1.5608241869371134E-01 \
              -4.8520362263938926E-01   -1.6310687482158948E+00    9.6021920501283733E-02    4.4452638468860844E-01   -2.8554924630750067E-01 \
              -3.0652952407828910E-01   -4.4162816593153759E-01   -6.5035108055116975E-01    7.3812020570520143E-01   -5.7880046550584230E-01 \
              -1.5798512770517370E-01   -4.1611025659727623E-02   -5.8217493129172415E-01   -4.0232697622850094E-01    3.6689519656742309E-01 \
              -7.8794015992233646E-01    4.6233009869509950E-01   -6.2447856201072696E-02    5.5087927777204515E-01    4.6941113987743022E-01 \
              -4.1054603132053069E-01   -4.0924110141028391E-01   -2.8971617958858836E-01   -1.1651236620039229E+00   -2.0491111306156939E-02 \
              -1.4923775866739992E+00   -1.2395923482278211E+00   -6.1219807400745951E-01   -3.7005574630659466E-01    4.4489469324243408E-01 \
              -6.0302285075826423E-01   -6.9740428787632602E-01    1.1972880819718525E+00    3.6556105843336406E-02    3.3608893509384330E-01 \
               5.9881011092887904E-01   -3.5513984551937300E-01    3.9572685427633048E-01   -3.4441733131937141E-01   -8.6968943229581530E-01 \
              -4.4361537401724971E-01   -6.8722238954867387E-01    5.9421541284119611E-02    1.9063316693656013E-01    1.4888782392820482E-01 \
              -1.0969841701852487E+00    6.8124041906145849E-02    1.1840703079722019E+00    2.7253872393582357E-01   -6.8330156646028861E-01 \
               2.3722355206526993E-01   -8.0041004998148346E-01    2.3306410071900610E-01   -8.2697961803160158E-01    6.6444276053681328E-01 \
              -1.1311365363269144E+00   -5.3231560388038901E-01   -7.0669748699989099E-01    5.3740372443217621E-01   -5.9362566810696460E-01 \
               5.8064477608248503E-02    2.9962334802304980E-01    2.5697625395420426E-01   -1.7473679157368208E-02    5.1408133362711983E-01 \
               1.4025525859570454E-02   -3.7409975734639017E-01   -3.2747407627714420E-01    1.0918020938773149E-01   -3.6841699430089248E-01 \
              -1.8366402981028542E+00    3.5848359240663030E-01    3.1462779406306443E-02    9.0393220803458085E-01    1.2109209348559506E-01 \
              -1.2088516799402902E+00   -2.5635624459764450E-01    1.1375366879573356E-02   -1.2119199919525996E+00    6.0215664529908086E-01 \
              -1.9794521562191231E-01    6.1321839261450739E-01   -7.1558007727944184E-01   -6.3657393175668542E-01   -8.2641340912069128E-01 \
              -5.2757622082919520E-01   -1.5373253801086826E+00   -8.1489366268567331E-01   -6.7845110342540954E-02   -1.3388851427567499E+00 \
              -3.7664285939260839E-01    8.4301694847064523E-01   -9.0535780937056809E-01   -2.9602447473468080E-01   -1.3299494571497763E+00 \
              -3.4825669257020464E-01   -9.4171319496104688E-01   -9.0287551675260103E-01   -2.8219058893559767E-01    8.9953157421710772E-01 \
              -2.9711325697149293E-01   -6.7064662484670090E-01    8.3516815034099093E-02    7.0907376478578921E-01   -9.6706579528300274E-01 \
               5.4784971177507025E-01   -9.7309461868249292E-01   -8.0832502924529692E-01   -1.2264218936829860E+00    2.7159950178541392E-01 \
              -6.7357792538732120E-01    3.0776024625207410E-01    1.2103286051048537E-01   -6.5662022893568484E-01   -6.3163589529548170E-01 \
              -6.7494749088192962E-01   -6.5334719969425237E-01   -7.6578873007875414E-02    1.0622450024153618E-01   -3.4273897075283055E-01 \
               5.6715162965975785E-01   -3.3409234986067404E-01    9.4680043248842838E-01   -5.3670301882953453E-01    1.7741475754540312E-02 \
               9.2705995743119296E-01    1.1069423680099029E+00   -6.0911649949210755E-01   -6.0040826547594617E-01   -1.6858541657727280E-02 \
              -6.2745324767439403E-01   -3.7358481416754019E-01   -6.4560615025125667E-01   -9.9627929953319316E-01   -1.0664013820472355E-01 \
              -4.3307060700852346E-01   -3.8346499284942015E-01   -8.0550438602717112E-01   -5.4924330941035970E-01   -1.5664879022965930E+00 \
              -5.3288310133177497E-01    6.0812284768516585E-02   -1.0314087868245090E+00   -9.2929685722190392E-01   -2.1446246373222823E-02 \
               3.1020104059063797E-01    9.4719177080111183E-01    8.7407386858049427E-02   -6.1760627187679407E-01    7.2907455308857172E-02 \
              -1.7693838169851861E-01   -1.3427048171904929E+00   -1.9683132253134555E-01   -3.4849718240461958E-03   -9.8231402379191879E-01 \
               3.0180526256827123E-01   -1.1519512563793158E-01   -4.6429781771770257E-01   -6.4841223489480482E-01   -9.2435872631672311E-01 \
              -9.2357212277134372E-03    1.4542307699319237E-01   -1.0538340196234515E+00   -3.3851221621723859E-01    1.3171215844241118E+00 \
              -2.6494971844313991E-01   -6.2273262406902874E-01    1.4431734156319083E+00   -3.9197861326092165E-01   -4.7570820268214487E-01 \
               5.8146366667122959E-02   -8.0043433020867327E-01   -3.3418001826214522E-01    7.8873801134341714E-01    7.4594127414098321E-01 \
              -1.6345332569415524E-01   -9.8337111384699072E-01    2.7781857568085266E-01    4.3246448248043973E-01    4.3382133358736996E-01 \
              -1.0735495623646372E+00    9.6484878547392994E-01   -1.0493582463596203E+00    7.4931432387628416E-01   -3.5139755054589406E-01 \
               6.8971705949250706E-01   -2.8952062671475898E-01    2.0427271949796558E-02    3.1414966069760686E-01   -5.6747864643559010E-01 \
               3.0065888158782572E-01    1.1791459409087324E+00   -8.6346395036881729E-01   -3.9260645275964096E-01    2.4079898658601306E-01 \
               3.6493589671728321E-01    1.3932314080949848E-01   -8.9357266107044142E-01    5.8149847416197525E-02   -4.8200975148218406E-01 \
               1.7595196545726377E-01   -5.6679461990094326E-01    2.0197084704915322E-01    4.9263494823984527E-01    1.1764565094931398E+00 \
              -1.2983693668548144E+00    1.6975956860777922E-02   -8.8397311131972356E-01   -1.1041112703886802E+00   -5.1285333127008470E-01 \
              -1.1437264421450761E+00   -1.7064283502573793E-01    2.2343535396862024E-01    5.3522707814624398E-02   -2.9207420511101356E-01 \
              -2.7047140515350947E-02    1.7045800537058869E-02   -1.4669489085031384E+00    5.7393109212438542E-01   -8.0530260054805625E-01 \
              -5.3384735757613933E-02    1.4123775735165880E-01   -7.5449958598944566E-01    8.7975601077846979E-02    7.9169296875981643E-01 \
              -8.1508254866011964E-01    9.3106785434741088E-02    5.7317744068971088E-01   -1.0465747003303818E+00   -1.6545267226513199E-01 \
              -2.0700980417206957E-01    8.1249879825088689E-01   -4.8828523353444392E-01   -3.5699066332706370E-01   -3.1211830384111228E-01 \
              -8.1826800632258312E-01    1.1859636109148035E+00   -6.1537845490828663E-02    2.4053958623123678E-01    2.3848265731595802E-01 \
              -1.5228531303499080E+00   -2.0007556371651522E-01   -2.2598188678582432E-01   -6.9442837166900828E-01   -2.0133319295632854E-01 \
               5.0670595229848192E-01   -1.4827914143337295E+00   -2.3591568900949603E-01   -8.6761937881828066E-01   -7.9364492356342142E-01 \
               2.4621937322406975E-01   -8.0271717321146141E-01    6.6304168509090622E-01   -1.4038750468334221E-01   -1.7052856237282726E-01 \
              -7.8322230942942928E-01   -3.0080474909667287E-01    6.6333723987613380E-01    8.3416407338381904E-01   -8.0490088933947701E-01 \
              -5.1623705480742732E-01    1.5817866966049463E-01    1.4466196804274789E-01   -4.7740648403232594E-01   -3.5331086341934115E-01 \
              -5.5849103166536429E-01   -5.5905501645598807E-02   -6.6066664170737610E-01    2.3355826049815417E-01   -2.9644314340392591E-01 \
              -8.5416351915685071E-02   -4.8547881720497593E-01    6.9681938074955241E-01    6.6661767474071032E-01   -1.2818093225906918E-01 \
              -2.4191384768700136E-01   -3.5681144165018097E-01   -2.7958439102217159E-01    4.8276840783902786E-01    1.0826177046704373E-01 \
               6.3108993212856679E-02   -1.4621349044474283E-01   -2.7862045286286835E-01    7.9976013247897304E-01   -6.0126792904837034E-01 \
              -1.3004676195790132E-01   -7.5527663462981220E-01    8.4024734056527162E-01    3.0833006393074491E-01   -4.1151607798655543E-01 \
               7.8631515748351338E-02   -8.1460533299052118E-01   -9.5109781476168187E-01   -1.1031964939714869E+00   -2.1010286113972301E-01 \
              -8.6572602307706625E-01   -8.9278987048116276E-01   -1.4319160336142700E-01   -7.0362662768169915E-01   -1.0892867653402344E-01 \
              -4.3112493792315654E-01   -2.1933827839983641E-01   -5.7165730306870810E-01   -8.2031635174777984E-01   -6.9467967110360873E-01 \
               1.4710531176093639E-02   -6.3865233553415868E-01    2.4612937179999803E-01    1.3548328841978514E+00   -8.3014303246308624E-02 \
              -5.0783827589141017E-01    9.6474352547564826E-03    1.1556965001729049E+00   -1.1326811979092302E+00    1.3843511126009986E-01 \
              -1.9891474080702444E-02   -3.3254252840558818E-01    4.0108088528166685E-01   -1.1023348930860708E+00   -1.6624797996762816E-01 \
              -1.6417692674948179E+00   -4.4194401218896756E-01   -4.7106993929487795E-01   -5.5993300786709588E-01   -7.4811789022179398E-01 \
               8.1065231973488427E-01   -1.1747084500071332E+00   -7.9509377118841063E-01    8.5726037570708669E-01   -8.9586479053975626E-02 \
               5.4846198960780213E-01   -7.4458884508636980E-01   -1.1397385131908679E+00   -8.6936677545376528E-01   -6.7690117200104372E-02 \
              -2.1565839826835997E-01   -1.6266155950815440E+00    7.4290927511020044E-01    8.8782890205213322E-02   -1.0700983111275895E+00 \
               5.1995587520519561E-02    8.6659968952092326E-01    1.1127639361438212E-01    4.0870423913407443E-02   -7.8034812397319231E-01 \
               2.0440255846749888E-01    2.3473602425274087E-01    1.4418135231319809E-02    1.4110909892649515E-02   -9.3248421589290564E-01 \
              -9.4439025302373114E-01    4.3604364499604498E-01   -6.1381393104019688E-02   -1.3081609110286250E+00    9.2670791764764920E-02 \
              -1.1162268341175181E+00   -4.1838216902433345E-01   -1.3458175370874137E+00   -6.9841590608718085E-01    9.8979944091286476E-01 \
              -4.8985139428762460E-02   -5.1917620933593323E-01    1.4314529226851347E+00    4.8827273302247054E-01   -2.7347992630501361E-01 \
              -1.5189746405636331E-01   -5.3689275824542970E-01   -1.0948217252356842E+00   -6.6404943343694578E-01   -7.3125042424536091E-01 \
              -2.9922067587671597E-01   -3.1322191968226087E-01   -1.0938874879804350E+00   -7.5014233876725123E-01   -1.3004290037285746E+00 \
               2.5709056353244575E-01    2.6286091384508248E-01    3.5454487475311941E-01    1.0816276894045469E+00    2.9330688102736674E-01 \
               5.5352554636559592E-01   -5.8288266732664007E-01    2.4498361963997414E-01    8.7188968739614248E-01    7.9833233795861003E-01 \
              -8.5307944655896772E-01   -4.5275736889788409E-01   -1.2812398500758873E+00    1.4345638781112247E-01    7.0665007345349062E-01 \
               4.9963532820005409E-02    3.1782756908651749E-01   -3.0171858984198530E-01    1.8926117230793027E-01   -3.7457639037850082E-01 \
               1.0489723728324381E-01    1.5854123887069810E-01   -1.0572577941832928E+00   -7.1819374097741007E-01    1.7783371508490456E-01 \
              -2.8458688829083023E-01    4.7790873506301651E-04    1.1553039533169385E-02   -8.5011639427462837E-01    2.6925683606001455E-01 \
              -4.7385514253885391E-01   -6.0474966939496011E-01   -3.3350823123384077E-01   -4.6946309343105130E-01   -6.1119896968011944E-01 \
              -3.5937104523743424E-01   -7.3802625483404705E-01   -5.6779648852013720E-01    1.2063216797756824E+00    6.5415525089249826E-01 \
              -6.4444190703611171E-01   -3.4627324009028199E-01    3.1081705200825743E-01   -1.4716608612017776E-01    1.4692202295620431E+00 \
               8.3465979762049680E-01   -2.7823784621776221E-01    4.8140489457193442E-01   -5.8465145496901982E-01    4.3265644085800009E-01 \
               4.2996241552107928E-01    1.2460454431496855E-02   -2.5171472399244904E-01   -2.0206892278291327E-01   -3.1689050042327904E-01 \
               2.1405804948453461E-01    4.5358591014836686E-01    8.2308678966606097E-01   -8.7173745702096062E-01   -1.0665037799438414E-01 \
               1.9966808185515961E-01   -3.8210236373349266E-01    1.2548210060228728E+00    4.3652333075198380E-01   -9.1031569967568879E-02 \
               5.5517872007261526E-01    5.3452150642097740E-01   -1.7813760519026842E+00   -1.1786827131024005E+00    4.0983300247125865E-01 \
               5.8697602421458805E-01   -6.9606249121770869E-01   -4.8670101004997041E-01   -1.1818456693265507E+00    5.2002836682870868E-01 \
               1.7463706782207428E-01   -8.9114081602103001E-01    4.3014183580362431E-01   -1.1028333138667661E+00    1.1403272693684059E+00 \
              -4.7975392657384999E-02   -3.5719351062856208E-01    9.6019431090878138E-01   -4.9450366663149320E-01   -1.2006409818063646E-01 \
              -9.3540293306049493E-01    1.7581680465128406E+00   -3.2760593209493788E-01   -7.2286684891338315E-01    1.2777499113406532E-01 \
              -5.2923068301146381E-01    6.2744015801243458E-01   -1.1758903822827169E+00    1.2728044666283117E-01   -2.1632998805348254E+00 \
              -1.4060177608875857E+00    9.2766469146617203E-01   -2.6425595136649133E-01   -1.4052957035811060E+00   -2.8112113710479880E-01 \
               2.9950845537126203E-01    6.7284455436568380E-01   -8.7457459843744101E-01    1.1503049627803019E+00   -3.5597270525754329E-02 \
              -9.1189846264576424E-01    1.5661523892065978E-03   -2.6030973141473412E-01    2.4734700932454598E-01    1.4016505067562943E-01 \
              -9.1343066672574369E-01   -2.5616419880265107E-01   -1.0735026757981079E+00    6.0076464638346472E-01    2.2019472959550734E-01 \
              -1.1009519683075251E+00   -1.0497581539971170E+00    6.4014740709035256E-01    2.4299656333331657E-01   -3.1330987419365031E-01 \
              -1.2548811327563294E+00   -8.7978425184435494E-01   -2.9293090427496432E-01   -3.6635864704100779E-01   -6.6895491865580814E-01 \
              -4.2040470816901726E-01   -8.8298724761827718E-01    1.2552574207102593E-01    1.1902559887640406E-01    9.6814684271373797E-02 \
              -7.9394299569906446E-01    4.7672790329151206E-02   -8.9487548217485546E-01    3.9277107755020230E-01   -4.0259776052846880E-01 \
               3.9332496280634205E-01   -1.6633639180034962E-01    6.9253525986796530E-02   -5.3402273213743107E-02   -5.5580460718518443E-01 \
               4.4813626108064900E-02    4.3166222497020446E-01   -1.9947790313703836E-01    5.2373677521245132E-01   -2.3620555831032286E-01 \
              -8.2578696800127149E-01    1.1534187215082341E+00   -2.3303325192311483E-01   -1.2911557173216044E+00   -9.9790813765278119E-01 \
              -9.7324424915369773E-02   -8.8447034202015928E-01    7.9319439270250336E-01   -1.1350332717829616E-02   -1.3308463871137738E-02 \
              -8.2240196626735529E-01    4.2879721282583161E-02    3.4367017919073739E-01   -7.7302495434715263E-02   -4.7669390094968017E-01 \
               2.1580708617928546E-02    7.2764724730741706E-02   -7.7740173243018706E-01    2.1874623116216979E-01   -4.0736739448650894E-01 \
              -1.7016775532748174E-01   -9.8161888191529245E-01    7.8772238931012387E-02   -3.1845797154439343E-01   -1.6537351843419373E-01 \
               6.4770696682031326E-01   -1.0617030733308816E-02   -3.5998608430780055E-01    8.2251023706878723E-01   -4.8536410573390854E-01 \
              -7.3478679850157957E-01    1.0457048179913138E+00   -6.5002341713919476E-01   -7.8261379352012472E-01   -2.3096806387191704E-01 \
              -9.6694915458511332E-01   -2.6370459161094584E-01   -1.5939138113416179E-01   -6.0040300341098043E-02   -5.2777208670094677E-01 \
              -2.2728751600667746E-01   -1.6495994486690790E-01   -3.2745966628092188E-01    5.2208439664222184E-01   -6.6949638072023410E-01 \
              -4.7212862129432664E-01    1.3847447223060119E+00    4.4807218045564223E-01   -1.0278127917976762E-02    7.0810407419865745E-02 \
              -6.8851200384540623E-01    5.4228323653161059E-01    9.0632568508088762E-02   -5.4414254772451098E-01   -8.8759562453500518E-01 \
               1.4712169454108803E+00    1.4074535337299487E-01    5.5874445655614814E-02   -9.9698240457782486E-02    1.0728333894553604E-02 \
              -3.0454769547712474E-01   -7.7919277599431480E-01    4.8833523809414936E-01   -4.2396359632510194E-01   -6.1966134612079848E-01 \
              -1.2557812222036463E-01   -7.7987450233352984E-01    8.9502242714388280E-01   -3.1318036464906285E-01   -1.9939728358264408E-01 \
              -4.6931739783994392E-01   -5.9053678761923822E-01   -1.2514262155341329E+00   -5.9056921265257967E-01    4.5102957507097108E-01 \
              -3.4867932335623497E-01   -3.1211589830079012E-01    3.5954456656153246E-02   -4.5719525600989175E-01   -4.2115035536027307E-01 \
              -6.5707425694676735E-01   -6.3150753166347406E-01   -9.8557603832871687E-01    2.6065173102133138E-01   -4.8221469066083800E-01 \
              -1.6212811280078432E+00   -8.3831905643614846E-01   -5.6040547463407153E-01    5.7279773125080724E-01   -1.2096696529853721E+00 \
               3.4107255834880906E-01   -1.0880766840214777E+00   -2.6274441796700032E-01    3.0103773214593399E-03    1.0902819456609868E-01 \
              -1.3233487841305130E-01    5.5648339358642396E-01    9.3876452520199627E-01    3.9927262082495185E-01   -8.9066147101954340E-01 \
              -8.0112835775946545E-01   -4.8352290524181973E-01    6.0616849544057461E-01    1.1104736359326265E-02    3.3775276556338774E-01 \
              -1.3596029011349886E-01    5.8467223173019600E-01    3.6846372565531355E-01   -1.8319497492341702E-01   -6.0375357316243727E-01 \
              -8.1761544579536452E-02    7.3449156751175315E-01   -1.5320652689072284E-01   -1.6649462701715412E-01   -5.0772503076372300E-01 \
               1.0969551250690595E+00   -6.6799605164305609E-01   -6.0485223016697076E-01    6.6561598813002343E-01   -1.1955909595864320E+00 \
              -1.2539719353351764E+00    4.3722564884196946E-01    6.0627292022918756E-02   -2.4962017806100942E-01   -8.8501530152423791E-01 \
              -6.0489505399908594E-01   -2.0860733876009876E-01   -1.2915445573949710E-01   -1.1924035799272746E-01    2.7087671362355675E-01 \
               7.8780616154987521E-02   -3.4334617971990178E-01   -6.3772723494610972E-01   -4.4036499389140699E-01   -8.5473882578911836E-03 \
               4.1696862842448151E-01    4.0392356204200441E-01   -1.0544827657435076E+00   -8.4417186283398638E-01   -6.5429223232553557E-01 \
               9.0265634958592955E-01   -2.7064106055855075E-01   -7.7639582226577397E-01    7.9108794910956137E-01   -6.7340395864176050E-01 \
              -7.5723119544432183E-01   -5.2430782631132911E-01   -4.8150827360734660E-01   -2.4012332449242296E-01   -1.0198507514750927E+00 \
              -3.9438668994925330E-01    1.0383705286451459E+00   -6.9502934410674189E-01   -9.7240510928526847E-01   -1.9475880565546574E-01 \
              -4.6266430715832924E-01   -3.7760555951743346E-01    5.8974022392106196E-01   -1.1446568464662628E+00    1.7536567304861497E-01 \
              -4.5447800027988100E-01    6.4280136997553650E-01    4.2317791827374551E-01   -8.7309152474956159E-02   -6.3552827088152919E-01 \
               5.3672313590246568E-01   -5.7426677080469124E-01   -9.0554268249192416E-01   -9.0165260011209469E-01    2.6631560250532005E-01 \
               6.0149102310436825E-04   -5.6048809054728432E-01   -6.2097080179272601E-01   -8.8677567468672625E-01   -5.2713844752167716E-01 \
               7.0693474174481430E-01   -4.2159447474525852E-01    3.5397214418325662E-01   -4.5262102136807633E-03   -1.0346688635329686E+00 \
              -5.7333854312903298E-01    2.6471063604859685E-01   -6.4440309905755588E-01    2.6654683166460491E-01    1.3794839129226102E-01 \
              -8.4882063174340683E-01   -4.1777868530422069E-01   -1.0083384270404476E+00   -1.6236953593526918E-01   -6.2508812274941472E-01 \
               4.6765463104678051E-01   -1.0492860405524307E+00   -4.4960070836185928E-01   -2.0551376243312242E-01    3.2745513217787253E-01 \
              -5.0810880294258542E-01   -3.7007553964166034E-01   -1.0983687688255059E+00   -2.3939030388869356E-01   -1.3589039998399381E+00 \
              -1.0920852422629421E-01   -1.5177448405877301E+00    2.1474996299089602E-01   -1.3804751892687013E+00   -3.1560100778168498E-01
         &END COORD
         &VELOCITY
               1.3237204384791437E-02   -3.2353177002323805E-02   -8.4666396858474584E-03   -4.1914515722041188E-03 \
              -3.9952523204301149E-02   -7.9739715081579340E-03   -4.3197093429789821E-02   -2.2705396659013149E-02   -1.7958646441301719E-02 \
               2.7155400387740558E-02    1.7918247207649066E-02   -6.4137139352805845E-03    1.3083156741570295E-02   -2.0100998385395672E-02 \
              -1.2877367569910869E-02   -1.3093482791773347E-02   -2.3728458059880678E-02    8.9251264849979552E-03    2.8163718637125384E-02 \
               3.4156254017102372E-02    4.9800958307648809E-03   -1.9654515803814616E-02   -1.1266160791284058E-02   -2.5283362561314880E-02 \
              -2.0088914246618333E-02    1.7130424100200829E-02   -2.8532848938480473E-02   -3.5126769346284573E-03    1.3949726478719617E-02 \
              -1.1837080454003302E-02   -1.4761918458588286E-02    1.4447228634800061E-02   -1.8513134754664016E-02   -1.1411284847991997E-02 \
              -2.2667980530397785E-02    3.2726988219842759E-03    2.0551175698936844E-02    4.7444043184178768E-02   -1.1647250281792986E-02 \
              -2.2521848990855135E-02   -1.1948880851759684E-02   -6.8859701641274191E-03    1.5856927219899678E-02    8.9788061781151569E-03 \
              -1.1117508563060421E-02    1.1965429163255849E-02    1.1755846763820854E-02   -1.2245551740993524E-02   -1.6304760626239208E-02 \
              -2.5000657688762109E-02    1.6814090073874074E-02   -1.5788443848435266E-02   -1.5202068902675253E-02   -1.5602258391694584E-02 \
               2.1992616774575379E-02   -1.7008782917427266E-02   -2.2653741055224885E-02    2.4506060111781303E-02    4.1030416193894382E-03 \
              -1.4748443659829287E-02    6.3692908629734671E-04   -1.7663279561360885E-02    1.1409907911750375E-02    9.1659835221407828E-03 \
              -2.8681517725353697E-02   -2.1773033835274461E-02    3.3754404203359778E-03   -2.2506958626220975E-02   -2.7732926934899291E-02 \
               4.2330434523164519E-02    6.8734488146232967E-03   -2.0735811816388994E-02   -2.5341144073594044E-02    1.5251175427357825E-02 \
              -2.7452805748609858E-02   -5.5976735909172293E-03   -7.9118218836781318E-03   -2.0230562568488795E-03   -1.7853985077793191E-02 \
              -3.1013814399743937E-02    1.6996128768685621E-02   -1.5437351456025889E-02   -2.6663525513078445E-02   -1.4591196063146733E-02 \
               9.2627491038162358E-03   -1.8912190606765356E-02   -1.1164669513263600E-02   -3.2717430078834792E-02    1.2705260888451624E-02 \
              -2.8198023772986983E-02    3.2180520448581566E-03   -7.9354827474482394E-03   -6.7821561064360068E-03   -1.6337453534230183E-02 \
              -9.9914271232959245E-03   -7.5763205898040243E-03    1.2854767806446882E-03   -2.0421379716784962E-03   -1.2941009874224444E-03 \
              -3.3755952929237165E-02   -3.7863375913330402E-02    4.2536159500467016E-03   -1.3565537430952933E-03    1.6055827657047376E-03 \
              -2.9722093998730714E-02   -2.8450623842742231E-02   -7.9653859884783584E-03   -1.3036352397213069E-02   -2.4947595977370514E-02 \
               2.6940614539202136E-02   -1.5482064105799342E-02   -2.2205965329653701E-02    8.3468162020999808E-03   -5.6369833932419953E-03 \
              -3.4641425763896755E-02   -2.1884424907675750E-02   -1.2965271176943806E-02    1.6466049239741116E-02   -1.9812614904536563E-02 \
              -1.8033835076034219E-02   -2.5840808931222262E-02   -3.7270531073137776E-02   -3.2740985206689409E-02    3.1269757894615093E-02 \
              -3.4163737741666061E-02    4.6997776535854501E-03   -4.5801329739068419E-02   -7.8504402263429845E-03   -2.1943270603001899E-02 \
               2.3774597288613794E-02   -2.9218500224119311E-02   -6.7595723121368972E-03   -3.6976174199184565E-02    2.9539401057458579E-02 \
              -1.1379439648723875E-02    3.0600581269109189E-03   -4.7382656866767972E-02   -4.3407404111150630E-03   -2.0604715980482049E-02 \