 # Version information for this restart file 
 # current date 2023-01-09 12:57:33.333
 # current working dir /data/gtocci/scratch/cp2k/tests/Fist/regtest-nequip
 # Program compiled at                           Mon 09 Jan 2023 11:23:11 AM CET
 # Program compiled on                                                   tcopt14
 # Program compiled for                                                    local
 # Source code revision number                                       git:f9c0fa1
 &GLOBAL
   PROJECT_NAME water
   RUN_TYPE  MD
 &END GLOBAL
 &MOTION
   &MD
     ENSEMBLE  NVT
     STEPS  100
     TIMESTEP     4.9999999999999994E-01
     STEP_START_VAL  80
     TIME_START_VAL     4.0000000000000028E+01
     ECONS_START_VAL    -5.5043947474363551E+02
     TEMPERATURE     2.9800000000000000E+02
     &THERMOSTAT
       REGION  MASSIVE
       &NOSE
         LENGTH  3
         YOSHIDA  3
         TIMECON     9.9999999999999989E-01
         MTS  2
         &COORD
               3.9581377195522180E+00   -1.2356778209902066E+01    9.9510556565040122E+00    1.5325895706109452E-01 \
              -1.9596079330062866E-01   -4.0156313977736904E+00   -4.4646333853184128E+00    6.9048933375073878E+00   -3.8857654509471771E+00 \
               5.0633079910219543E+00    5.2698620793019275E+00   -1.9800315226630747E+00   -1.0343023320239186E+00   -1.0403740201383953E+00 \
              -1.1288798733819982E+00   -1.2926882001240369E+01   -5.3940315133920596E+00    8.1072638527471987E+00   -8.6048061266409341E+00 \
               1.2512319465151796E+01    2.6449830620193628E+00   -5.6424969650613441E+00    5.6416515444589308E+00   -4.7822324139824568E+00 \
               1.3680550352606757E+00    3.9645738408855924E+00   -2.3514138876772823E+00   -1.5271201662356808E+00    3.8586689428467631E+00 \
              -2.0060956563352539E+00    1.6177675573478414E+00    9.7192741232243851E-01   -3.3432205219608746E+00    4.5387950096011469E+00 \
              -1.2381092354507741E+01    5.5865967707607922E+00   -7.3925049624544603E-01    5.2206853092786032E+00   -5.3199057308108406E+00 \
               3.9115723980551165E+00    4.0760392617809078E+00   -1.0065516961510816E+01   -1.0582599025015453E+00    1.6151044120001526E+01 \
              -1.5184856062874925E+01    1.3831919074224563E+01   -1.2621722349842312E+01    8.4549584118266885E-01   -2.1278850172683015E+00 \
              -3.0581464943323078E-01    2.0087374629921531E+00   -3.4521507917186245E+00    8.2609284623554871E+00   -9.9562917613353008E+00 \
              -1.5754510280333696E+00    4.5323762107224725E+00   -2.8382744484301381E+00   -4.5564943460499450E+00    4.5845861191701633E+00 \
              -3.8230873554947755E+00    1.2184956344214276E+01   -9.5565213372198965E+00    9.6851812065101595E-01   -6.5814155352220247E+00 \
               2.9230878304909858E-01    4.4218255250415144E+00   -5.2324873028905889E+00    6.2218990760827166E+00   -2.8879176435811615E+00 \
               2.7665799326911307E+00   -1.9736030024960962E+00    2.0785494441025754E+00    8.4313819656012168E+00   -9.1698897914935298E+00 \
              -1.0561706544179859E+00   -3.3428377287676065E+00    8.2956620723452676E+00   -7.3753140360364258E+00   -5.3658302777678708E+00 \
              -6.0818468390198621E+00    8.3368081760571950E+00    1.0121971477370542E+01   -7.9215032751990329E+00    3.4558704870879042E+00 \
               2.7721991710196052E+00   -7.7723730100938249E-01   -4.8442130310539362E+00   -1.2495689700796660E+01    1.0801430836933404E+01 \
              -2.8082602996287642E+00    4.6073299385182835E+00   -1.4137520530076321E+01    7.4557002335382334E+00    5.6263587992823905E-01 \
              -3.4453311596507081E+00    2.6322086710024797E+00    2.6240745574157582E+00    4.6025509806677780E+00   -6.8236961615575522E+00 \
               2.9628149790812341E+00   -4.5775110478252703E+00   -2.1975736468550383E-01   -2.3614085352413489E-01   -9.1105537619760550E+00 \
               9.9017355685796851E+00   -9.7488528936444463E-01   -1.5779282682862892E+00   -2.3214045416539775E+00   -1.1355553381031317E+01 \
               1.3153948913056146E+00    7.0796884684136607E+00   -5.8221488733440809E+00    1.2145841974844852E-01    8.2129011481469156E+00 \
              -2.1631335248303762E+00    8.4715720591645436E+00   -1.0777293945124674E+01    1.4751140921728970E+01   -1.9913372993315065E+01 \
               1.1277557642954436E+01   -1.2619263688402194E+01    1.6243247925788530E+01   -5.7174397933124927E+00    4.2186777181980721E+00 \
               1.2880488143318718E+00   -7.2262487786064815E+00   -1.2598415674969887E+01    1.5716158172821869E+01   -2.6419421361689461E+00 \
              -4.9369990222904150E+00    2.1769942706750656E+00   -9.4510114319170191E-01   -3.4878959999130905E+00    6.8305060641108062E+00 \
              -5.1143304243517917E+00   -1.7546278897913385E+01    5.6158612736039784E+00    2.0647878802248898E+00    9.6156127118273663E-02 \
               1.5873321379560942E+01   -1.3043582728333968E+01    6.8179890532673140E+00   -9.0322757336900974E+00    5.2477337569614289E+00 \
               2.5900684922926462E+00    3.0584590645688614E+00   -2.5282500285848881E+00    5.4612947792063729E+00   -4.4047501792819208E+00 \
              -6.5058772790117481E-01    3.9463363459462797E-01   -3.5510888437022148E+00    5.0333917984105723E+00    2.9553423480683398E+00 \
              -8.5051883756802926E+00    3.9288385753748725E+00   -5.5823315523466803E+00    8.3555807776803104E-03    8.3582202967392516E-01 \
              -1.2940695532494599E+01    1.1045756547684396E+01    1.3664396920664303E+00   -4.7200204603010981E-01    2.5967755921469921E-01 \
              -1.3342892701570768E+00   -5.4111396199683002E+00    2.0635229793857057E+00    2.2155784728980850E+00    4.4027552587058247E+00 \
              -1.3023175073056068E+01    4.0405328616090266E+00   -4.5982401890597320E+00    9.0147682574570069E+00   -4.8415163002994159E+00 \
               1.4726820236871063E+00   -1.0494653064772143E+01    1.2363447820754823E+01    2.5734276683999999E+00   -5.6187226138848265E+00 \
               3.0806096898585413E+00   -2.9899706768741225E+00    1.3682494922502226E+01   -1.0328614828659896E+01    5.2274150822439349E+00 \
               6.3086744400689909E+00   -1.0535832407145429E+01   -1.8292136024687398E+00   -3.3247297913104612E-01    3.1617627734811711E+00 \
              -9.7088813565907977E+00    8.1297874902857039E+00   -1.3082507357325253E+00   -1.0535594310347442E+01    1.9371446531912262E+01 \
              -1.1981145086639309E+01   -7.4270126307454358E+00   -3.1659127715491597E+00    1.0392413720910410E+01    4.7161457262120045E-02 \
               1.7465537937971451E+00   -3.3186995571780407E+00   -7.8520205552105553E+00   -7.7945844612017128E+00    9.0665874005626872E+00 \
               1.8589260760532489E+00    8.8404579955686629E+00   -7.7626633194942185E+00    3.7313636494545159E+00   -5.9684824217690187E+00 \
               2.5819894421641374E+00   -7.9687885815097239E+00    2.7030922341109700E+00    7.0143595055097965E+00   -3.6277054511911242E+00 \
              -3.4731335210928194E+00    1.9738661143547527E+00   -7.5728309841374459E+00   -5.6281782317166877E+00    1.0982904505585617E+01 \
              -4.9257118736688288E-01   -1.1052895948227386E+00    4.2021697058835246E+00   -3.1463234611358635E+00   -6.5326198797766377E+00 \
               4.2827926736192712E+00   -1.2190291540225605E+01    7.4702913845326180E-01    6.4020406513633512E+00   -3.1841105633131059E+00 \
               1.2814909036988592E+01   -8.0945893980259971E+00   -4.0891989053240065E+00   -9.1745267585603796E-01    2.9431097788224649E+00 \
               2.8278195978052683E+00   -2.8676191763911976E+00   -2.0749401255003628E+00   -5.9258899202196105E+00    2.7783403046075650E+00 \
               6.1340173929317310E-01   -2.2952328480805297E+00   -1.1919909333578879E+01    1.0237783907508081E+01   -1.0614176291052702E+01 \
               6.5212638516633383E+00   -4.1602540598655047E+00    7.2333356229820458E+00   -5.2514125971090637E+00    5.3605592726116802E+00 \
               1.5625540269614859E+00   -3.6269021466935519E-01    6.2318858765688545E-01   -1.2732253528629058E+00    2.4673215333927940E+00 \
              -5.8654508312289599E-01   -1.0844867241336131E+00    1.5527685421661470E+00   -5.3970595167303204E+00    3.7428244078361672E+00 \
               1.2420315312840167E+00   -3.9630735317305317E+00    4.4560053541154119E+00    4.3584804956505625E+00   -4.5580293422534668E+00 \
               7.0857984487822421E+00   -3.8425861680446571E+00    1.9199821798227470E-01   -1.6839029574948281E+01    8.9010526074330478E+00 \
               7.0876981400224370E-01    5.9737584648703415E+00   -4.8060786699026137E+00   -4.7080000715253014E+00   -7.4213724392024591E+00 \
               8.1204895010455349E+00   -4.9504981731261406E+00   -7.5559814777687482E+00    6.1733018997831861E+00    2.1126475502336897E+00 \
               4.2084497570061057E+00   -7.0467274693666848E+00    1.0979668415087895E+00    5.1187123581862561E+00   -2.7162443976980986E+00 \
              -4.2289299674197567E+00    1.0323087189241246E+01   -5.2811351841171881E+00   -4.9779058498026119E-01    5.7501467268759257E+00 \
               7.4330220397026494E+00   -1.4176082862009840E+01    4.3083211466044808E+00   -1.2757212162648570E+00    7.7557108726948348E-02 \
               5.4903035468238526E-01   -1.1169074564588410E+01    9.2320320869165542E+00   -1.1527407606072339E+01    1.4626999121729346E+01 \
              -3.7033804767175300E+00   -6.0767776939602669E+00    1.0699115758589494E+01   -1.4454780671689619E+01    2.7593339726621413E+00 \
               6.2038945762228064E+00   -6.9816788780853454E+00   -4.6334937729395698E+00    7.3947891968842061E+00   -7.2061887255010442E+00 \
               2.6409764227723085E+00   -1.7607705340692881E+01    1.7263311783442859E+01    5.3126077673613992E+00   -4.4896549668552783E+00 \
               1.0642183113560313E-01    5.5380803732906294E+00    1.0125053707937751E+01   -1.7545690437983513E+01    7.7000273855424810E+00 \
              -8.7279190131935618E+00    3.8179993625064801E-02    7.3165165661778495E+00   -1.2592947736966273E+00   -6.4049823261558583E+00 \
               9.9934968589439652E+00   -1.4433324616940807E+01    3.2164950291693319E+00   -3.9809021462984786E+00   -7.6257617703128027E+00 \
               1.0264188983507397E+01   -4.2742886922300034E+00    7.5167209251243490E+00   -8.3731108407021519E+00    2.3452292552846954E+00 \
               7.6554481966286723E+00   -1.1694583337548847E+01    8.6180024523393044E+00   -3.9304262262043452E+00   -8.2006149529779755E+00 \
              -1.6294416449424358E+00    4.2125318601704818E+00    6.7594909366940098E-02    2.3706809960292001E+00   -2.3876456893644278E+00 \
              -1.5916031356050888E+00    5.6520882421995982E+00   -9.4553806919459742E+00    6.5884249441349256E+00   -3.4260640274477767E+00 \
               9.3911288337101908E+00   -1.0383211281772054E+01   -1.4661667809277779E+01    1.2843948752438601E+01   -6.5766464633272106E+00 \
              -4.4388322340679052E+00    4.4359913234373760E-01   -8.3072932292965118E-01    7.6023318805199613E+00    1.3563448583045702E+01 \
              -1.0573104717466231E+01    7.0734690112770400E+00   -8.5384360940164363E+00    4.4000654667684935E-01   -1.5302219005500513E+00 \
               4.6388398293445530E+00   -2.4851269259512763E+00   -2.7647579747891249E+00   -2.4516957963527513E+00    4.0601570780034661E+00 \
               4.6240449829552936E+00    3.8244284288257586E+00   -7.5976222419388870E+00   -3.9641250567198565E+00   -6.2641153017094551E+00 \
               3.0756811090127223E+00    7.4369287872096135E-01    1.0189639680910541E+00    1.1913588955825707E+00    3.8488013393480154E+00 \
              -3.9582367775864222E+00   -1.9277100009447790E+00    9.9501476628514869E+00   -3.5764255115227948E+00   -2.1150072439882321E+00 \
              -2.8710702220898803E+00   -1.0210419968318989E+01    1.0418727786262576E+01   -2.5332968711146142E-01   -2.5327783684855429E+00 \
               1.5388905110518718E+00   -1.6354818062994423E+00    2.9729643983036951E+00   -2.7906280117542548E+00    2.5895941693417899E+00 \
              -1.1495505475363899E+01    5.0049192859842284E+00    2.2741248078202787E+00    4.1941831551928885E+00   -4.7663047416962430E+00 \
               1.8047833128538098E+00   -4.0637708793271488E+00    3.4112013258757845E-01    3.3099650307617994E+00   -9.7175811433854040E+00 \
               3.7751485596292409E+00    1.8666751581142160E+00   -1.0154950376643093E+01    8.7022673972037783E+00    7.1096738205473686E+00 \
              -1.1971447721930698E+01    3.7712388381966906E+00   -3.9833679398497344E+00    9.6730743869384845E+00   -1.0147569800256782E+01 \
               9.0109475773520273E+00   -1.4052742375395528E+00   -6.0819598345091377E+00   -4.5271487464908171E+00    1.2976139532847883E+01 \
              -1.5380841099071185E+01   -8.5976216276759949E+00    1.8435539758059161E+01   -1.3206695760348669E+01    4.6988140007751857E+00 \
               1.7867793763976594E+00   -6.9298774928968321E+00    7.5173017823487367E+00    5.5146833625210245E-01   -8.9697069675923018E+00 \
              -8.5873544475386188E-01   -2.8871143518809110E+00    2.0178419362289972E+00    6.7490010742994500E+00   -1.0100264808572023E+01 \
               3.3751317150091791E+00   -1.2947228207293036E+00    3.7728979375726541E+00   -7.1498326123226441E+00    6.5820780505745147E-01 \
               5.0328058806330689E-01   -2.2256999567051445E+00    2.0827871206455724E+00   -1.2321138384545938E+01    9.5743411689153675E+00 \
              -3.2626622663136069E+00    4.6093916345750259E+00   -2.9223621089378131E+00    3.0567145571113064E+00   -2.5122371490380879E+00 \
               1.6155803614089514E+00    2.5213405848479549E+00    8.9906265189872805E+00   -1.2576083491810156E+01    1.2333885589080604E+00 \
               2.2505907486210326E+00   -8.9180366667328970E-01   -9.1808629873302205E-01    6.5311992406737707E+00   -9.0121953848122658E+00 \
              -6.0706526603236188E+00    1.9059425607573388E-01   -3.8349488432187107E+00    8.2145034560439676E+00   -1.5885321065808178E+01 \
               1.1356526202476763E+01   -3.4869482106500609E+00   -8.7780593514256253E+00    1.0344945734486476E+01    6.1174072596772584E+00 \
              -3.1408269806827511E+00   -6.1381794909744070E-01    3.3779302817507384E+00   -3.2771801787356641E-01   -2.4619028869710262E+00 \
              -1.2463231352785810E+01    2.6429163917094702E+00    5.6262999187313607E+00    7.3361370923278124E-01    1.4050205539342686E+00 \
              -2.4144422397067142E+00   -2.8109721088279844E+00    7.0776128439392605E-01    1.2193314428473498E+00   -2.4169368748868258E+00 \
              -1.2462100684052615E+00    1.1063465738588445E+00   -3.9131902381836046E+00    5.6277072025989234E+00   -3.6722090884476657E+00 \
               1.8905306904228771E+00    1.7764379272245945E+00   -1.8176758902035299E+00   -2.1151591625116346E+00    4.2227840948087252E+00 \
              -6.6772987944457043E+00   -1.0114855926660229E+00   -8.9435163867891436E+00    7.9004848383045800E+00   -1.6884829845360956E+00 \
              -1.0605982637230801E+01    1.2689986831375318E+01    5.3063913726345326E+00   -9.0175846316254871E-01   -2.7660367288933387E+00 \
               3.2724135381603298E-01    9.9734330598691763E+00   -1.0622587395975149E+01    5.2526395665213181E+00   -4.8283706010595253E+00 \
              -3.3437620228612523E+00   -7.4044664464035401E+00    5.3563785734509821E+00   -2.8920164076526294E+00    6.1002170867990768E-01 \
               7.4143028282001557E+00   -9.0775651147447114E+00   -2.6335956667646627E+00    2.8481380255829619E-01    1.6182781796813224E+00 \
              -6.1366705194868409E-01   -4.2293653109826024E-01    4.1327300925029151E+00    8.0044882591979061E+00    6.2950612476727541E-01 \
              -5.5392853295792639E+00   -6.1509142951488061E+00   -4.7208765126913708E+00    9.8813892227445770E+00   -3.2791515846552692E+00 \
              -9.9636102987238739E-01    3.0768924798651121E+00    9.2277516343848145E+00    9.5812415079650410E+00   -1.6105710214915582E+01 \
               6.6297268762002997E+00    1.9720643731805703E+00   -8.9536159613588300E+00    1.3031623945241910E+00   -2.2801300212836648E+00 \
              -5.6486250971654783E+00    6.6379257611678275E+00   -1.0963864951721209E+01    7.0254621807482378E+00    2.7585228419906977E+00 \
               8.2196963494459627E+00   -1.1718879156955774E+01    6.8393489780531003E-01   -4.0848406463652749E+00    4.6701365839452471E+00 \
               1.5321153549512934E+01   -5.3285465413844069E+00   -8.3461889597497514E+00    6.2972149890227538E+00   -5.0102871146996932E+00 \
              -3.3393773479901623E+00   -4.6591041523151286E+00   -1.3501384833642951E+00    3.2433946326247454E+00   -6.3321912188426115E+00 \
               4.9387185318810580E+00   -2.5074107079661818E+00    4.6939612073431203E+00   -6.3421462227678003E+00    2.3213859908092860E+00 \
              -2.6376420305211741E+00    7.4093990000456671E+00   -3.1995510001483889E+00    1.0039726976934350E-01   -5.5657535421452859E+00 \
               4.4700596936393140E+00    7.1324230676238392E+00   -4.8815531616228816E+00   -3.1372653087106652E+00    3.8865305371589174E+00 \
              -9.8198028356579279E+00    8.4063893288713700E+00   -1.7511691341971984E+00    6.4586811916192657E+00   -4.7362220083226445E+00 \
               3.5538841986485434E+00    1.1486697671783654E+00   -2.9830446167218505E+00    7.0211548844194498E+00    8.9912561376769347E+00 \
              -1.3491894928597873E+01   -2.0694127536342921E-01    9.0591785243771668E+00   -1.0272150996549868E+01   -2.0871929151934521E+00 \
               2.2913786699915613E+00   -4.3171868112610809E+00   -1.4341236774408679E+00   -3.3354684558455650E+00    4.1249510087340608E+00 \
              -3.7887908281376506E+00    3.4137412399286271E+00    1.3229054659280794E+00   -3.6264592154456299E-01   -6.3989798539335965E+00 \
               3.2394884743675245E+00   -4.1402899473221355E+00    9.4329752267328111E+00   -1.5632324555224382E+00    1.0283770335709754E+00 \
               6.8143352525266288E-01   -1.9006028819581358E+00   -1.6766765831615478E+00   -5.1563437952862001E+00    8.6052510563154723E+00 \
              -2.9926398048947398E+00   -6.0783342801676046E+00    7.7806476169025212E+00   -4.2202882937898405E+00    7.8083732415540830E+00 \
              -5.4147596810053793E+00    5.1954347606205342E-01    3.6798227460453714E+00   -4.4083933994162319E+00    2.6837809647527655E-01 \
              -6.1869943852500251E+00    5.2270237009154190E+00    7.9472161543984543E-01   -4.4450940544806885E+00   -1.6208306488219411E+00 \
               4.7879206186401593E+00   -3.1183092014199523E+00   -6.1362669628675925E-01    3.8962277207429659E+00    1.6443962235387770E+00 \
              -3.8415359816070822E+00   -3.2290251828507914E+00    1.9352082980333305E+00    1.1657833481840620E+00    1.2646010773543097E+00 \
              -1.7576483266018916E-01   -3.3102095461383776E+00   -1.1936539019229817E+00   -5.6844930200016810E+00    3.9722937567031469E+00 \
               4.6115158551515387E+00   -9.5953794440591818E+00    7.5126033723168986E+00   -5.4328070548484133E+00   -6.1715000530033803E+00 \
               6.1239710914441190E+00    1.2508087922340561E+00   -6.0971757165201259E+00    4.0349362987242907E+00   -1.9052532941727760E+00 \
              -3.4867909228055418E+00    2.8333590544248799E+00   -1.7341645062706348E+00    3.5783628557766716E+00   -3.6642476564471629E+00 \
               3.8378654341225387E+00   -2.8681585511805427E+00    4.5254506570505781E-01   -2.0485152904326669E+00   -1.9765997690429074E+00 \
               1.9963162968424393E+00   -1.7093195177095146E+00   -5.4485621298540927E+00    4.6124531798508697E+00   -2.6928390557301549E+00 \
              -1.5494204203054993E+00    3.2988119748939333E+00    2.2965150002301931E+00   -5.5417851572153021E+00    2.6804096393775452E+00 \
               1.4748443371545417E+00   -4.6617126085751703E+00    2.2191707849901032E+00   -7.2902083958999508E-01    1.0704001451308498E+00 \
              -2.3463859705746235E+00   -1.9683905991043522E+00    6.6701414466430520E-01   -3.0093630338240316E+00   -2.6052584609024190E+00 \
               6.3360801827141500E-01    7.5616495697458297E-01    5.8305895917964969E+00    1.8831705126589140E+00   -6.6086708411460995E+00 \
               7.4454932183282541E-01   -2.7456316460611006E+00    3.5579270918594443E+00   -1.8345594851443291E-02   -4.1060452168395010E+00 \
               2.7955236605807756E+00   -3.4454419746793463E+00    1.3604654090904944E+00   -4.4122645781860592E-01   -1.7034788279778017E+00 \
              -9.5219258782073712E+00    1.0400687892950760E+01   -3.6154907277625563E+00   -2.5279744778006323E+00    4.8059283067055949E+00 \
               4.5931260097636502E+00   -3.6446235005935090E+00   -8.9651950903378830E-01   -2.9823358405711722E+00   -2.4570416483477491E+00 \
               2.1246400169360058E+00   -1.2436533972607762E+00   -1.9771610158049253E+00    2.4145647777791490E+00    3.8721218251422540E+00 \
              -5.8751626223637414E+00   -4.2356335613511098E-01   -4.3178162999953482E+00   -5.3233428559659561E+00    7.6368933696106618E+00 \
               4.6954785392141121E+00   -5.7529632492670792E+00    4.9154292002273356E+00   -4.5581039421714760E+00   -3.6646971278652103E+00 \
               7.4662663912468545E+00    2.1281110690045182E+00   -1.3486674999282224E-02   -3.6944197905090022E+00    2.4444603110971879E+00 \
              -6.8713967908534332E+00   -1.8907682796554310E+00    7.9602627621012978E-01   -5.7873563298126820E+00    2.3485273165105727E+00 \
              -3.4602940148602408E+00    2.6833460554099413E+00   -4.2889210325942804E+00    6.2687354761889935E+00    5.0864736137822630E+00 \
              -1.1389685704528215E+01   -1.2772229836032896E+00   -7.3232917115819856E+00    3.7855598213316251E+00    2.0191498664819401E+00 \
               6.1367251470098596E+00   -9.1505979700893896E+00   -6.8532745810632267E-01    9.9814212248750711E-01   -1.2737442352311219E+00 \
              -2.4329124154687269E+00    4.9034613683558650E+00   -2.7872340527633099E+00    7.9732860290362439E-01    4.8940988994866501E+00 \
              -6.9835113583533994E+00   -1.3513797642515193E+00   -2.1333970830990885E+00    3.1509015318572460E+00    3.5735640046381829E+00 \
              -4.1994514436495212E-01   -4.1401967563783595E+00   -1.3207509823601520E+00    2.5163789119127351E+00   -4.1951390336824641E+00 \
              -8.3750908833170676E+00    6.0093792661325340E-01    6.6384413537105580E+00   -5.1428330549000076E+00   -2.5843079967403746E+00 \
               3.8508004644832434E+00   -6.9167659534743897E-01   -2.3065225731161374E+00    2.5386339413601475E+00   -5.7712827506660727E+00 \
               6.1964329669125712E-02    2.1065881914199580E+00    2.8600616700665520E+00    3.4071598152616627E+00   -1.0222713182458881E+01 \
              -1.3307826891425070E+00    9.9846194435507094E+00   -1.1155926528810326E+01    3.6154325143859051E-02   -5.9694252136161650E+00 \
               2.2808091018704748E+00    2.3716967630044277E+00   -2.4235064883133489E-01   -2.6050930584972871E+00    7.1845468195495726E-02 \
               1.0114787177568747E+01   -1.1464941395750973E+01   -4.5395951550739710E-01    1.9834033810423737E+00   -3.5011218878354446E+00 \
               2.1034251689102303E+00   -9.0822190531580347E+00    5.8039481372483195E+00    4.0338531012812249E+00   -1.8911234885893684E+00 \
              -2.3567001088156005E+00   -6.5995791075518329E-01   -3.3285793471725520E+00    3.5675997580665659E+00   -3.5271424858569933E-02 \
               4.0221035332759598E+00   -4.0640064883443650E+00   -2.8844715406109306E-01   -7.7825672221854418E+00    7.5043122932875841E+00 \
              -1.7520502234362481E-01    4.6436859215905280E+00   -4.6863333269802832E+00   -1.1616633702548835E+01    7.4137890281806706E-01 \
               7.2329441455225920E+00    9.2535308575643005E-01   -1.2284404948140586E+00    3.9778075312278982E-01    2.1862020382841925E+00 \
              -5.6380489623908750E-02   -2.4936295179120478E+00    8.4892266376835153E+00   -5.9460404208144366E+00    1.4310114816544053E+00 \
              -8.9401683721040182E-01    9.9741976184337222E-01   -4.9195837685339718E+00    3.1914068299149951E+00   -7.0075116673307134E+00 \
               6.2822640840412500E+00    1.6567686305255296E+00    1.1823423748359996E+01   -1.4389101194395085E+01    2.7028225252178646E+00 \
              -2.0667081261328888E+00   -4.8805656651158102E-01   -9.5517741808311241E-01    3.9741826377123131E+00   -2.6750497259056534E+00 \
               2.0415934454331963E-01   -1.1480000555808452E+01    1.0158903043675874E+01    1.0991188802150613E+00    4.5674244208831896E+00 \
              -6.1698958340970238E+00    1.6937380974332010E+00    1.0919486227212771E+00   -6.3469265752613886E+00    4.3887418962417080E+00 \
              -9.0036223896644108E-01   -1.5634783620317783E+00    1.0879117595544072E+00   -5.2544958196957792E+00    3.6548563921765318E+00 \
              -6.9678681731063352E-01   -1.3207286761519290E+01    1.0166861467417521E+01    5.0546362580305351E+00    5.5411063864819381E+00 \
              -1.3921252029078586E+01   -4.4911972104938460E+00   -1.8296562510183263E+00    3.8832920459212663E+00    4.2594022943266874E-01 \
              -3.1033554664531069E+00    1.6595391439605374E+00   -3.4313644178632408E+00    8.4997529222363735E+00   -5.3385988046934560E+00
         &END COORD
         &VELOCITY
              -5.0994277507220659E-02   -5.8733608300830383E-04   -2.1710387219783167E-03    9.9005151225899299E-03 \
               4.3208166618151189E-02    5.2421291293097680E-02   -2.2623418405266146E-02   -3.4340607680834663E-03   -2.1125381991130149E-02 \
              -1.2084362963283942E-02    1.7424979011120275E-02   -5.9521132213983478E-03   -1.5381238938533288E-02    4.6442519963713277E-03 \
               2.4268547827627007E-02    2.6632563358012583E-02   -1.2419679212329844E-02   -6.9903954495046661E-02   -1.3906022714225445E-02 \
               1.8005852584233629E-02    1.4692681314675458E-03   -2.4732432579368259E-03   -1.1639850661944966E-02   -2.3886942392580678E-02 \
              -8.1124333004579264E-03    1.2370688307092039E-02   -2.0326882588805922E-02    1.2776707081487751E-02    6.2161894445425716E-03 \
               1.2895545410843963E-02   -2.0157086576315469E-02   -5.6504835102570402E-03   -4.4520509294226681E-03    1.5790045431035783E-02 \
              -1.4838849822086339E-02    1.5048565827378900E-02    2.9723415855609163E-02   -3.0494665073567084E-02   -2.7493066717748295E-02 \
               2.4360089548936491E-02    1.9504345558336040E-02    3.4172799671761664E-02    2.7765929529436853E-05    2.6630527158422773E-03 \
               1.6291192541401652E-02    1.1299213184264939E-02    1.0285221816908316E-02    7.7892769953036671E-03   -1.9786192096088888E-02 \
              -2.0194007138804478E-02   -2.7203255368561712E-02    4.9337294010158537E-02    2.7451192516108416E-02    2.9550220351523750E-02 \
              -1.7928142504649500E-02   -7.5437578504243177E-03    1.8967206934252703E-02   -1.0368036508747028E-02    4.0815224046682419E-02 \
              -2.9906884674607951E-02    2.5359974258772948E-02    2.5598729070637503E-02    3.7278190394958166E-02    4.7073288271996284E-03 \
              -6.0044274520085362E-03    1.5894579608585188E-02   -2.7495950175609640E-02   -3.0168144378631724E-02    1.7398061207207376E-02 \
               1.3847364802731698E-02   -8.8920637350081502E-03   -1.6007668397632530E-02    5.3152365765339445E-02    3.2715737397224220E-02 \
               3.6874034212075822E-02   -9.7610183199943936E-03   -1.4318641575612578E-02   -3.4395318232891083E-02   -1.2853506479817641E-02 \
               3.2616345358562240E-02   -1.8061589949285157E-02    2.5720945850703121E-02    2.4595705523576140E-02    1.1522188642975287E-02 \
               2.5148384413605070E-02    1.1798755916198464E-02   -3.9804707392023145E-02   -2.1785093071779785E-02    1.0617203562999146E-02 \
              -4.1781452353226232E-04   -7.0024486748178480E-03   -3.0931933959251177E-02    3.9216560586873082E-02    1.0961086349222559E-02 \
              -1.0789758248180457E-03   -2.3772438563208591E-02    3.3342184826555814E-02   -2.3400732526673546E-02   -4.3875965603409388E-02 \
              -2.9162617345828996E-02   -3.5383486009472040E-02    2.0790254238975535E-02    1.2761380771656571E-02   -1.8229862490436979E-02 \
               1.8827424777506725E-02   -9.7808892575604704E-03   -1.1656717967863115E-02   -3.1970317029483178E-02   -6.4334097190605318E-03 \
              -2.4942847785396981E-02    1.5563258005951840E-02   -2.2953880246579600E-02   -1.4218227336911689E-02    1.8516736822354019E-03 \
               4.4380870696472577E-02    1.6790197782301768E-02    2.9568638608776258E-03   -1.2854974003657080E-02   -2.2877852093002436E-02 \
               1.8125574688642489E-02   -1.9649830008318204E-02   -1.3776687784930833E-02    1.4012108494956581E-02   -1.7148719918913761E-02 \
               1.8997051567924250E-02   -3.1513768552842887E-02   -1.1548659560593404E-02    3.4861043031524271E-02   -1.7349064157463054E-02 \
               1.1221485420826649E-02    2.6393697338706862E-02   -2.1388432947910967E-02    8.0583616040844526E-03   -3.5079764237955502E-02 \
              -2.4333720554763818E-02   -1.3284199850735359E-02    2.2806850275163028E-03    3.1481609779130698E-02   -7.4864215041143298E-04 \