 # Version information for this restart file 
 # current date 2022-12-22 14:33:50.794
 # current working dir /data/gtocci/scratch/projects/cp2k/tests/Fist/regtest-nequip
 # Program compiled at                           Thu 22 Dec 2022 11:35:26 AM CET
 # Program compiled on                                                   tcopt12
 # Program compiled for                                                    local
 # Source code revision number                                       git:4663112
 &GLOBAL
   PROJECT_NAME water
   RUN_TYPE  MD
 &END GLOBAL
 &MOTION
   &MD
     ENSEMBLE  NVT
     STEPS  100
     TIMESTEP     4.9999999999999994E-01
     STEP_START_VAL  40
     TIME_START_VAL     2.0000000000000011E+01
     ECONS_START_VAL    -5.5043949773439374E+02
     TEMPERATURE     2.9800000000000000E+02
     &THERMOSTAT
       REGION  MASSIVE
       &NOSE
         LENGTH  3
         YOSHIDA  3
         TIMECON     9.9999999999999989E-01
         MTS  2
         &COORD
               1.1287462389324461E+00   -4.5043267028066865E+00    3.5272154793432118E+00   -3.9721104209062479E+00 \
               2.1674150831930592E+00   -1.9070084364436526E+00   -7.0267355763028521E+00    3.1008659946631569E+00   -9.4047746316932279E-01 \
               2.8233325160075449E+00    1.3624906822942697E+00   -9.7826005389016923E-01   -4.1884650847133624E+00   -1.8603316330785282E+00 \
               2.7101427173558257E+00   -6.5479927270529794E+00   -3.5973625550672814E+00    8.8508202398772546E+00   -3.1614528061508675E+00 \
               4.3865659047766350E+00    1.0847120005064566E+00   -1.1564701935831505E+00    1.1038978424368353E+00   -7.3352825997634452E-01 \
              -4.4257180172972677E-01    2.5385383070411240E+00   -2.4031478810389530E+00    3.8828361222401488E+00    1.6858288831721582E+00 \
              -4.6446169994209550E+00    8.3272316842542682E-01    3.3229620652719456E+00   -3.6153211887289434E+00   -2.4880361482003326E+00 \
              -4.2237394847037137E+00   -2.4855188305119276E+00    8.2484370161492249E-01    6.9852535947627015E+00   -7.0347671324963548E+00 \
              -2.6376784553964844E-01    4.6723841322246855E+00   -7.8906124338252752E+00    1.0973940552512733E+00    1.0749161119048189E+01 \
              -7.9504028630359267E+00    2.1186996420800881E+00   -3.3735104157891005E-01   -4.7659030611938142E+00   -4.7170109086132648E+00 \
               8.8331366521571142E-01    9.0986472347583003E-01   -4.1188265740079295E+00    8.7295970403957597E+00   -8.9646103161443218E+00 \
               2.3800472550083320E+00    4.9538617624565973E+00   -7.5681906955390588E+00   -4.6793647786459367E+00   -1.2858555178695845E+00 \
               1.0135644868327103E+00    5.1536152844082173E+00   -7.3809577334986729E+00    3.9064956323989315E+00   -2.4569794443491393E+00 \
              -3.8961595770029374E+00    4.0458500290179185E+00    7.7903455657047038E-01   -3.6317949580525770E+00    3.0663740780507123E+00 \
              -1.0702829275233912E+00    2.1764940133974999E+00   -3.7731002171435160E+00    7.8047365908053701E-01   -4.7955830049789512E+00 \
               2.7066498432112791E+00   -1.2711305319074566E+00    6.6005783300753071E+00   -5.1913777697776622E+00   -2.4486009969494456E+00 \
              -4.9229576683886638E+00    4.4159048138890871E+00    5.7264965675485051E+00    3.1329644323383325E+00   -3.3754819670103626E+00 \
              -4.8340201382922443E-02    3.0849757988408886E+00   -5.0827071831805410E+00   -2.8151337249327950E+00    1.0344299610758677E+01 \
              -1.0514445448233214E+01    7.5689750825331368E+00   -1.0454652891046486E+01    3.7527252235431647E+00    7.4195211012650142E-01 \
              -3.9147057943976833E+00   -3.6453214825759011E+00    2.5610801174682563E-01   -4.4301163340882077E-01   -1.8202737175398900E-01 \
              -1.2958370868342450E+00   -5.9714335939245498E+00    5.4751477963736281E+00   -5.0668964130860603E+00    1.2538809317819986E+00 \
               4.1383044902855666E+00   -2.5973863335040628E+00    2.9842624694724158E+00   -5.8869807415851589E+00   -9.7738920496715451E+00 \
               7.2149566521241759E+00    6.4945197438995930E+00   -6.7790732556656152E+00    1.1093135988001261E+00    1.5566379256489125E+00 \
              -5.3730745011956849E+00    5.4518007700551872E+00   -4.1038665273933699E+00    1.0646501666880133E+00   -6.7663511656642745E+00 \
               6.7175573244591975E+00   -9.4219080861386217E+00    6.5396946610330167E+00   -2.0660047511915317E-01    2.2757812700922466E+00 \
              -1.1068421477962911E+00    3.9015600365497738E-01   -8.4611854117782030E+00    4.4939427182198308E+00    5.5253038634599860E-01 \
              -7.8599321318225590E-01    6.5750316574407541E-01   -7.4627321562190974E-01   -1.1785116227701704E+00    4.8932115406680571E-01 \
               1.4068274378815706E+00   -5.5361071265653150E+00   -5.2944029232052436E-01    2.2784128850174468E+00   -5.2701793267949650E+00 \
               7.8764110690642930E+00   -2.6733552620856020E+00    4.2405529729859142E+00   -4.8872028873069322E+00    1.6460108736700441E+00 \
              -2.1622807158075089E-01    4.4286440023675651E+00   -3.0743728105277612E+00    2.1883180034597016E+00   -2.3169670831054137E+00 \
              -2.4997252353365296E+00   -1.9805198033916303E+00   -5.3757248561631998E-01    2.1574095881106414E+00   -2.4237405127910687E+00 \
              -1.4334447429130148E-02   -3.0703588056060355E-01   -1.3500214721749322E+00   -4.2932759296257590E+00    1.0026101294773473E+00 \
              -9.4203713722077786E+00    9.4561717617976377E+00   -3.2701552289704856E+00    1.1767424673466944E+00   -4.4946722115881386E+00 \
               3.5453563859235304E-01   -5.1869411891792891E+00    4.5015083220625618E+00   -5.2927706659285363E+00    2.2981982023717116E+00 \
              -5.3750133925059043E+00    2.9704595515240380E+00   -4.8162051386119131E+00    2.2741869040579985E+00    1.9265438843105098E-01 \
              -5.0654860917973488E-01   -3.7755192610097552E+00    7.7763884719313676E+00   -3.0645603878099688E+00   -1.9520159279610703E+00 \
               2.7657690365381669E+00   -1.9367348689076784E+00    5.1272619664970964E+00   -4.1558954211823895E+00    1.3036860501654017E+00 \
               6.3340951673497443E+00   -7.3021157698670214E+00    2.4900586485201712E+00    9.3843904933122535E-01   -8.2381933874045232E-01 \
              -5.0541860099918638E+00    2.0408289648538420E+00    4.5669854729354670E-01   -6.9089479757055550E+00    1.0578006074596846E+01 \
              -7.0253686423084671E+00   -5.7697013802470130E+00    1.7838365776570808E-01    4.0685978626218349E+00   -7.1108477636562462E-01 \
               2.3936313050458873E+00   -6.5879286546434743E+00   -6.4103387987043048E+00    8.3968417046403809E-01    6.4128941107537036E+00 \
              -2.2841188320859449E-01    6.4418868390793911E+00   -8.6750602657057669E+00    6.8114700705088271E+00   -2.1552675510605517E+00 \
              -2.1396083637128465E+00   -5.4097303999521884E+00    2.8702740695244260E+00    3.1660631211505058E-02   -2.5620056897425427E+00 \
              -2.7261503344005118E+00    2.9731621577993512E+00   -2.7781065613478231E+00    5.5663670143607724E-01   -4.4688925930636436E-01 \
              -1.0337870858753990E+00   -3.3039229527104315E+00    4.8062620965533354E+00   -4.1720502358500742E+00    3.1406796744690588E+00 \
              -2.8717369261643488E-01   -7.0846471612153898E+00    1.8079645089243599E+00    4.0570477128516416E+00   -6.3067177921646680E+00 \
               9.2869531557224576E+00   -8.9299769350067209E+00   -5.9610134615304968E+00    1.7424599410267738E+00    1.9276203268057766E+00 \
              -5.8072147316196787E-01    4.9304160174108169E-01   -1.0077164278617401E+00    4.6426872907718000E+00    5.4302820652265229E+00 \
              -5.6732046743977653E+00    1.0403720160019005E+00   -8.8766389831863162E+00    1.9629561266232110E+00   -4.3379942927471076E+00 \
               2.4520977282869025E+00   -2.1527746196076811E-01    2.7673196907720103E+00   -2.5489146760112713E+00    2.3851796071788649E+00 \
               3.3295336573878824E+00   -6.7868124647097829E+00    3.8725973440520018E+00    1.1518630603288558E+00    6.3086933005153156E+00 \
              -6.7947259011950178E+00   -7.1162635695619842E+00   -1.8676119076761184E+00    3.4107776457671335E+00    8.3189766964794067E+00 \
               3.0015763173608909E+00   -6.7821680804104174E+00    2.8382282753242847E+00   -8.0585316698034024E+00    4.6186346277943153E+00 \
              -8.5737092083857058E-01    2.8868711700487113E+00   -8.7945435979280973E-01   -9.9474957290244177E+00    6.8274380861638857E+00 \
              -5.7619342482459701E-01   -2.1604092059354039E+00   -1.8320758507684602E+00    4.4196722305930425E-01    3.1325368575303858E+00 \
              -5.6067851510809952E+00    3.2130159559178231E+00   -3.3133819944373766E+00   -2.5728907042989198E+00    6.8405646465561079E+00 \
               9.6983061788251812E-01    9.9695187855528000E-01   -2.3538791904195806E+00   -8.6405806171418109E-01    1.8359360600216912E+00 \
              -8.0834236149824146E-01    6.8759143397995777E+00   -9.2028224581879225E+00    3.2450697144293037E+00    5.6203526896945899E+00 \
              -2.4837548492444395E+00   -4.8266517686093211E+00    4.7778939506818672E+00   -3.7769587039556138E+00   -4.0203588493306475E-01 \
               3.6969055425973569E+00   -4.8762199994390878E+00    1.7913005890838740E+00   -5.3144358379806151E+00    8.6142688990477794E+00 \
              -6.6064603625746567E+00    5.8115923013992266E-01    4.2760103374866549E+00   -5.6082303783365024E+00   -3.8154836101567596E-01 \
               2.0903011844056838E+00   -3.4020903466667805E+00   -1.3553182425318795E+00   -2.3848807050369007E+00    2.1522988726155976E+00 \
              -1.1475085963224568E-01   -9.0947070881145926E+00    7.4964363675145957E+00    9.3764329794273449E-01   -1.3593028331843506E+00 \
               2.3302395054038558E+00    6.1833488758025590E+00    3.9494292051618385E-01   -9.6952803427764955E+00    2.5877276617825333E+00 \
              -5.1728557401914115E+00   -4.6700406795054733E-01    3.9922223778021122E+00   -6.5729214168837280E-01   -3.8136704704681277E+00 \
               5.7992860924034106E+00   -1.3854332599573420E+01    7.3606231894696812E+00   -1.9789974223963880E+00   -5.9278416869996269E+00 \
               8.1340515040258268E+00    2.2440289877394202E+00   -5.7267951256382483E+00    3.7305336527349703E-01    3.1985963897252756E-01 \
               2.5934700947504594E+00   -3.3200530307277396E+00    4.0788057589893878E+00   -2.2587623440041651E+00   -3.5846780180704778E+00 \
              -4.4703430874747391E-01   -3.1918113136368995E+00    3.6935843435836797E+00    1.2692789784928131E+00    3.9172383918386346E+00 \
              -2.9433286717485232E+00    3.6862219880387586E+00   -8.4002469989506192E+00    6.9687905293302057E+00   -1.3157970268851813E+00 \
               4.1157964228371711E+00   -7.2055355945201418E+00   -6.1184714463315357E+00    4.4272025295211703E+00   -6.2087311087411061E+00 \
              -4.7417890616168572E+00    2.0695840671853749E+00   -2.3202202816278983E+00    1.5677163235140690E+00    8.4459281296069051E+00 \
              -7.7944441529138295E+00    3.2986719712412373E+00   -4.1762055792449146E+00    3.1253952716901767E+00    8.9080812913382240E-02 \
               1.3667913971954315E+00   -3.1475740832547632E+00    1.1671459906577430E+00   -4.2868811004039360E+00    8.4242824641606373E-01 \
               6.0067633679153349E+00   -3.2927404252213468E+00   -6.5849005203118760E-01   -2.3827970090332968E+00   -6.7941305649201453E+00 \
               4.3722360331344881E+00   -7.0830421796051302E-01    2.8792953469744251E+00   -1.0891920259914776E+00   -1.2038996852053705E+00 \
               3.4548492253079615E+00   -2.4689743500454440E+00    4.6556912328228144E+00   -4.5986239162503084E+00   -2.5760016569030286E+00 \
               5.1828735969708593E+00   -1.1233880768183893E+01    3.8758835172912112E+00    2.5132229879415395E+00   -1.8202814422196467E+00 \
              -1.9936614521682122E-01   -1.0239973932640027E+00   -2.2525749385891167E+00    8.4924681012014913E-01   -3.2032129241009963E+00 \
              -3.2266383941274310E+00    3.6303783225971422E+00    3.7939593036686827E+00    1.6746727254586817E+00   -3.6395260635473234E+00 \
               8.4936693091480209E-01   -6.5326309182945042E-01   -3.4047054180636294E+00    2.8014575176289136E+00   -2.4722405881657479E+00 \
              -2.7946755038004985E+00    4.1351639999402279E+00   -1.3173120157724366E+01    8.4680609756506797E+00   -1.1553638855411656E+00 \
              -3.7242831956686615E+00   -1.7024910267759191E-01   -4.6883887104393525E+00    4.0801902062415376E+00   -1.9103507249800007E+00 \
               3.8360743331695377E+00   -5.7657183953586486E+00   -1.0738703841309181E+00    2.3745270642912804E+00    3.3577823488557752E+00 \
              -7.0196267509038712E+00   -7.3802906722440538E+00    1.3311581283961804E+01   -8.1442966292326062E+00    3.3649955111005365E+00 \
              -7.5260022187243281E-01   -3.6116344079184124E+00    1.8645910601897313E+00   -1.7180638235075589E+00   -7.0506322686327056E+00 \
              -2.3907381404391153E+00   -2.8460397492379728E+00    2.6182716553895249E+00    4.8671792859882306E+00   -7.5814343815607845E+00 \
               1.2653534059352389E+00    2.6931797253157677E+00    4.5092196831049469E-01   -3.5256625451060266E+00   -8.0098545180590675E-01 \
               1.0966127399267864E+00   -5.3226825434870264E+00    2.0616816392992554E+00   -5.8364433939466460E+00    3.7563051844058446E+00 \
              -7.1369690336473628E+00    8.8272093396470535E+00   -4.1416846401916860E+00   -9.6879658749319064E-01   -3.1597790170306683E+00 \
               1.9264916340568916E+00    1.3073776172842964E+00    7.2142852294020177E+00   -1.0367498104448647E+01   -6.9166503016004066E-01 \
              -4.4307153588305559E-01   -7.7048338387003812E-03   -3.9882693506104299E+00    1.5634556380789502E+00    3.5810143948928741E-01 \
               1.1623171107244955E-01   -3.8583152976872492E+00    1.9170584938226072E+00    4.8296897956736675E+00   -1.0143107941208584E+01 \
               5.4583371683409814E+00   -5.6444381254232283E-02   -5.7135897728676737E+00    6.2755943134947669E+00    5.4680649823839476E+00 \
               2.2119309295546206E+00   -5.0259943143502470E+00   -2.3963726201459719E+00   -2.2200117719937595E+00    9.1978493572147324E-02 \
              -2.5015753147722939E+00   -6.3814382868587938E-01   -2.3629597495203454E+00   -3.7184824904918305E+00    5.0444393662773335E+00 \
              -5.4321091940922637E+00   -7.6655836591403792E-01   -1.5637097171276533E+00    2.3047834213328366E+00   -1.4170366989163916E+00 \
               2.9665383937896528E+00   -3.3042306632749536E+00    2.0593237567526437E+00   -5.9808606463257286E-01   -6.1115537140090828E+00 \
              -6.1944050731885945E+00    7.3981778702898859E+00   -6.5959137464500746E+00    3.7828627296594003E-01   -2.0281441894524703E+00 \
               2.0621058870209819E+00    3.0513003787051090E+00   -4.4995428258604413E+00   -3.0806582458374887E+00   -2.1039727813516711E+00 \
              -6.6706962013155957E+00    7.3776686961100157E+00    1.9217837414993679E+00    1.1354205897419283E+00   -4.4050811724095584E-01 \
              -3.3166634404777060E+00    8.5591023620188782E+00   -3.6357453997270195E+00    3.1950434320466736E+00   -1.7854934705684491E+00 \
              -1.3335453182860419E+00   -3.7447641121246251E+00    4.9612607463032061E+00   -4.1991008560523833E+00   -3.5484257624983093E+00 \
               2.8079487033613035E+00   -1.7014214116283823E+00    4.6570686939686728E-01   -1.3915659304883046E+00    1.6042637917063574E+00 \
               2.1803052978822852E+00   -1.4763370463901351E+00   -5.4560624260770973E+00    6.2216464594622884E+00    7.1198524518153743E+00 \
              -1.0056985206243192E+01    9.9794014667860231E-01   -3.1241299285641575E+00    3.1776543463213942E+00   -3.3876761904486092E+00 \
               1.9087131537919577E+00   -2.1118529136566089E+00    4.1375270089476981E+00    1.5715547108331127E+00   -5.7471209116870572E+00 \
               3.9683813952579317E+00    2.3284378448676395E+00   -7.4699043982406863E+00   -4.1129457570072958E+00    2.5066006688210987E+00 \
              -5.4287254321056482E+00    3.4273769914376500E+00   -7.5797866267131040E+00    4.4407793803450444E+00   -3.2891204054760377E+00 \
               9.1870195692337333E+00   -7.0374504421353743E+00   -7.9474513248397805E-01    2.2097807662733207E+00   -2.5637271245603177E-01 \
               8.7760204168819591E+00    1.3754788811221061E-01   -8.0782506738508619E+00   -1.4479930979147000E+00    2.4090628684886610E+00 \
              -5.0643075461615563E+00   -8.3898606053284599E+00    1.9982401045593308E+00    5.8776437375032609E-01   -4.5390415134984110E+00 \
               6.7124719553031893E+00   -3.1766817098775868E+00    1.8325717187378407E+00   -3.6998719091120886E+00    1.7312857715457513E+00 \
              -3.8256126948250962E-01   -3.9533873753879543E+00    3.1898088794176807E+00    4.1462999597783377E+00   -8.7684094157520354E-01 \
              -4.1474448343008783E+00    4.2649003900796076E+00   -4.0002055825918181E-01   -1.7706802610643844E+00    3.5564691510753832E-01 \
              -4.3861830963455795E+00    4.0598133947771080E+00   -8.5043007614963129E-01    1.6715801334618496E+00   -2.2402143779052039E+00 \
               6.8881642739547611E-01    7.3480420167323290E-01   -2.0024050536434514E+00    5.0014022615309157E+00    2.9396232045988877E+00 \
              -5.9341930485043077E+00   -7.6863067899909177E-01    5.2056126608754401E+00   -6.4151610223783688E+00   -1.6993951892856030E+00 \
               2.3912820354639535E+00   -2.8181353897316912E+00    3.9328624301032424E+00   -6.2034286540059647E+00    4.0699961825337656E+00 \
              -8.3385335700953889E-01   -3.0535446743213108E+00    4.4286059505245854E+00   -4.2244542004365043E-01   -3.1595691238465275E+00 \
               2.1252716258639173E+00   -2.6563101125386459E+00    3.5742692076935780E+00    1.7885058470503457E+00    8.3157247776668886E-01 \
              -1.7617977074341104E-01   -6.6190450511976151E-01    6.1969086687660491E-01   -5.3860746257023644E+00    5.6000624561057544E+00 \
              -2.0205798777667727E+00   -2.7305615021307896E+00    2.4292872942423256E+00   -1.0645596960982813E+00    7.2921876658849518E+00 \
              -7.2303551381655788E+00    1.1124489161732183E+00    6.1424647575261060E-02   -1.2885216690049168E+00    1.2947895948268922E+00 \
              -3.1554052575810667E+00    8.4921782614792218E-01   -2.2526458402274843E+00    1.6112812276774604E+00   -2.7038094094683176E+00 \
               2.5327994938422083E+00   -2.5246807644268796E+00   -3.9571764581829174E+00    8.5696883613626262E-02    3.8201549003015138E+00 \
              -4.6941749314863968E+00   -1.4260402108277070E+00   -1.1181313630962759E-01    9.7379286265096954E-01    6.1137356801198839E-01 \
              -3.0498687029183449E+00    2.1215265585196668E+00    9.9130521888531087E-01   -8.1970694075125721E+00    5.2512817695287293E+00 \
               4.3727631900179720E+00   -8.0607433848793413E+00    5.7605177918034860E+00    1.7979904129265809E+00   -5.6002351698330823E+00 \
               3.9712773346504933E+00    8.7131156759726225E-01   -3.6680878895154412E+00    3.0904227953763583E+00   -1.8339447091521630E+00 \
              -4.9777548429691482E-02   -2.3819546968103844E-02   -2.0982036916357845E+00   -1.5978625327911424E+00   -9.5928894624990457E-01 \
               1.8741189096367461E+00   -6.4739896379592592E+00    1.6940650096074639E+00    4.8698753107370485E-01   -5.3973050541101342E-01 \
              -1.3518190740782914E+00    1.9117378809269956E+00   -1.8989855634149114E-01   -8.2286120138308072E-01   -2.0083404248404109E+00 \
              -3.7801676052244928E+00    4.2007863697036942E+00   -1.2239356530781560E+00   -3.2263711240995523E+00    3.0998568874337398E+00 \
               1.3059968085134268E+00   -3.7202773710557918E-01   -2.9923120087108601E+00   -4.8247720214915052E-01   -2.1840886958388692E+00 \
              -2.4590577174267242E-01   -2.0982272640054456E+00   -1.7476731368247485E+00    1.6557244005719081E+00   -2.2253486120287203E-01 \
              -1.2989786891014272E+00   -5.6483560317879555E-01    2.8066200189776329E+00    2.9046705667825887E+00   -8.7571217580424072E+00 \
              -1.5660911680124383E+00    3.5156850707582303E+00   -3.9693704247925670E+00    1.7598578097967681E+00   -2.8656682640136570E+00 \
               2.6694228630757239E-01   -6.9044374783294971E-01    1.9486011074280705E+00   -2.0922666577947586E+00   -1.9407848232447100E+00 \
              -4.1948997517280766E+00    2.9678266610314714E+00   -1.6574352974014341E+00   -2.8297946991288843E+00    3.3851411630118364E+00 \
               6.7048449905656327E-01    7.9242900947004591E-01   -6.7227979508585438E+00    3.3539686932785090E-01   -4.4453788970402668E+00 \
               2.8523038073665803E+00   -4.0425177101203158E-01    3.0500540389764366E+00   -1.1216461821179649E+00    4.2910011733672695E+00 \
              -3.8679356289184255E+00    7.1577440803525327E-01   -3.2485733775508796E-01   -2.8950843752070146E+00    3.0209027499132182E+00 \
               1.2974574375182049E+00   -4.4150862339650365E-01    1.3083121035760648E-02   -2.9877291475358758E+00    1.7227776398428793E+00 \
              -2.1341520963482463E-01   -6.7974394357108803E-01    8.5691833860150279E-01   -2.7516302273452813E+00   -2.1319592576952284E+00 \
              -8.4876012500730247E-01    2.0361680493618439E+00    2.6740567397057826E+00   -1.6256591865474488E+00   -1.6521316287084222E+00 \
               3.3881821354570124E-01    2.1399120331958588E-01   -6.7338726070215538E-01    7.0728965115162215E+00   -1.4433927713734956E-01 \
              -6.0286876050861853E+00   -1.0655828552711981E+00   -2.4078639897365863E+00    1.3415800994331231E+00   -5.9291211786152975E-01 \
               1.4460257030883581E+00   -3.2224303931804439E+00   -3.4906913740292853E+00    1.5693369725454395E-01   -2.3940779718788843E+00 \
              -1.7876772271079855E-01    7.7337058629915250E+00   -6.2805787232823356E+00    1.8928395879434075E+00   -2.3598225577935095E+00 \
               6.7711532663589313E-01   -5.2374968280785810E+00    1.5135985455178584E+00   -1.3254456959819988E-01    4.7963223792083296E+00 \
              -2.9945416040863293E-01   -3.0250112623457381E+00   -1.1601240340889794E+00   -4.3711616314286967E+00    1.1634632605572484E+00 \
              -4.0667160660058208E+00   -2.3143550284105228E+00    3.9132741155760757E+00   -3.1267467442550889E-01   -4.0944426407329040E+00 \
               4.7316704576542339E+00   -1.0149142841338517E+00    2.8644963208454408E+00   -1.5305928411567189E+00    3.0251502073385534E+00 \
               9.1205796921722704E-01   -3.6881981492616931E+00   -2.5321145276445280E+00    2.6620379565725516E+00   -6.3778371859819289E+00 \
              -9.6044521030270658E-01    1.6622781053036058E+00   -3.7455204936933058E+00    4.5492194753236772E+00   -6.8277990114872376E+00 \
               2.8171222815092651E+00   -7.4559073306929957E-01   -7.0167110140094302E-01    9.4165234514516261E-01   -4.8434881636767741E+00 \
               5.2981007643967128E+00   -4.8675027613229913E+00   -2.5318986505685128E+00   -1.9863318125526250E+00    1.6526746060747968E+00 \
              -3.7731561883249198E-01   -1.7826880243590444E+00   -1.5908354749323450E+00    2.9114722024258355E+00   -2.7354759228238135E+00 \
               9.7791837837606455E-01    1.5025087222948574E+00   -8.0775518073220187E+00    7.5854913419021930E+00   -7.4086071759776029E-01 \
              -8.6837489413273306E-01    1.0540508174338110E+00    5.1145325279561793E-01   -2.4570985604265081E+00    3.0315688369968119E+00 \
               6.4778736317839292E-01    1.4642722224971936E+00   -1.8353510893219487E+00   -2.6253864954174597E+00   -2.9235370741005497E+00 \
               5.1137211154812929E+00    1.4027894583078315E-01    4.1332925331102999E+00   -4.4014969419666583E+00    1.1815758457152588E+00 \
              -1.6779384028499256E+00    6.1759713806561256E-02   -1.5729075111144992E+00   -6.5121856146072883E+00    1.0500226542943961E+01 \
              -1.0056053208798457E+00   -4.4636716462847028E+00    2.1252560352790923E+00    1.6542669803527292E+00   -8.3553160436996361E+00 \
               7.4863430425932487E+00   -1.7698695955282575E+00    5.8822675723595292E+00   -8.9886867154035457E+00    9.6630751414958638E-01 \
              -4.3952307862191535E+00    1.9058399552250160E+00   -2.4358745553232466E-01    2.0848323683587555E+00   -5.1889331277680810E+00 \
              -2.6714697043998230E+00   -5.1460819924210845E+00    7.4634029241434652E+00    8.4744603097232951E-01    1.7671326020232689E+00 \
              -3.6706798333696558E+00    4.2294464801017559E+00   -7.8829028042324223E-02   -4.7615452294344447E+00    8.1632931041348833E-01 \
               2.7895163874022527E-01   -2.6874844114759560E+00    1.8000565284982464E+00   -5.3262671409233571E+00    2.0809106305550324E+00 \
              -1.6241026679302609E-01   -6.2148705480924535E+00    6.9167801075791129E+00    1.8521455691258282E+00   -1.7188908905864672E-01 \
              -3.7510302617854760E+00   -4.0384951629741224E+00   -6.0090249541889502E+00    4.0666155313614549E+00   -2.8723535385929759E+00 \
              -2.3987497775937086E+00    3.5134850849830239E+00   -1.8781408732498843E+00   -8.7101931637362406E-02   -1.0983265919866581E-01
         &END COORD
         &VELOCITY
              -2.9360503247362755E-02   -2.9827724361086347E-04   -1.9587835512422786E-02    1.6303109418687036E-02 \
              -4.2822522339611806E-02   -2.8943343137029922E-02    5.5851509945806954E-02    2.7152780540965000E-02   -2.9800248371753407E-02 \
              -5.1505632558253934E-03    3.9299371506842720E-02    2.8113202290917634E-02   -2.4928791853806972E-02    8.0901223289271112E-03 \
              -1.4431976130975858E-02    2.7190043415616198E-03   -9.0127833154481397E-03    1.4776425568794778E-03   -4.1786880021369870E-02 \
              -3.0213902247772005E-02    3.6877560746138207E-03    1.7223783553124868E-02   -2.2837183173214284E-03    1.0961300143230187E-02 \
              -3.4634255006845804E-02   -2.2617369546021317E-02   -3.1980361514156036E-02   -1.0497997481869623E-02   -5.0580091491350945E-03 \
               1.3420384085834021E-02   -2.8189160027067672E-02    3.7560332919139260E-03    1.1448462664697626E-05    2.7710991205516046E-02 \
               3.0653030364589523E-03   -6.9218662360136615E-02   -3.2958323477455288E-02   -2.6553599315875174E-02   -9.0064750086742123E-03 \
               5.6859995151564209E-02   -1.5957315714767304E-02    1.3071600034115149E-02   -1.7923326740987840E-02    8.5730217485655586E-03 \
              -7.8293903000525977E-03   -2.6397927889424355E-02   -1.5074946870972892E-02   -5.8795593735314261E-02    3.4721658345257686E-02 \
              -4.2009816026328785E-02    2.2684018045021504E-02   -1.8764019421425252E-02    4.9474371107268607E-02   -1.6979978100659390E-02 \
              -2.3684235535470573E-03    2.6188105559027626E-02    2.0768127827746410E-03   -1.0463176515490412E-02   -1.5244390156522201E-02 \
              -5.9673262183615766E-02    2.7823620483809597E-02    1.6072552957859130E-03   -3.7636487858412400E-02    2.2611083106896846E-02 \
              -1.6261992466508016E-03   -2.7792447720413976E-02    3.8717339436898576E-02    7.9875857712363267E-03   -2.7223194827062716E-02 \
              -1.0905369428095692E-03    4.9681655836516611E-02   -4.4960339146627282E-02    5.7841283389273440E-03    6.9765627766558156E-03 \
               1.9212753683544657E-02   -1.4125055873281535E-02    1.7595944654305203E-02   -3.2682134119792990E-02    2.5867731547778269E-02 \
              -7.2873998623076116E-03    1.5024515123017683E-02    3.0948845322427337E-02   -7.1455859651169910E-03   -5.4178613879187331E-03 \
               1.1615515668721911E-02   -1.3286646607378281E-02   -1.9767052119026018E-02   -1.5993996966586776E-02    3.5401444346543638E-02 \
               5.1495654482655220E-03   -1.6204043827095982E-03   -3.1462070054978183E-02    5.4300327113507400E-03   -1.9912888638390178E-02 \
               3.3929127907026860E-02   -7.7426196677803233E-03   -8.1962390579432397E-03    3.2233032362420103E-02   -2.8887931968131966E-02 \
              -2.3019464344516748E-02   -1.1727198352744980E-02   -1.4054009696636194E-02    6.3825285647586211E-03   -8.9590718638220285E-03 \
               3.2946907962934015E-02    5.3107401878991614E-02   -2.0105323339027242E-02    4.2581065083858675E-03    1.0797363321518864E-02 \
               7.3413132306136865E-03    9.2904575460282975E-03    1.5758163057778309E-02   -1.3811227860367183E-02    1.2822873745990373E-03 \
               1.8435364839779565E-02    1.6913337000090862E-02    1.6327689427079621E-02    2.1320886818639286E-02   -1.3086749909551821E-02 \
               1.1843678893902611E-02   -2.8162758002579898E-02   -4.8005903861693903E-03    3.0429803428423965E-02   -8.2849774220896504E-03 \
              -1.0841758354413695E-03   -9.4725633518262208E-03   -3.0995953300671846E-03   -3.5750779242765519E-02   -3.8423612773980882E-02 \
              -1.2445783722350418E-02   -6.2058282229550807E-03    1.2925589505105891E-03   -1.3633424381941235E-02    1.2493250444866258E-02 \
              -8.7189905110399007E-03   -2.0991369284003504E-02   -1.6045409601741396E-02   -2.4610456811142351E-02   -1.5973096432086446E-02 \