 # Version information for this restart file 
 # current date 2023-01-09 12:57:37.738
 # current working dir /data/gtocci/scratch/cp2k/tests/Fist/regtest-nequip
 # Program compiled at                           Mon 09 Jan 2023 11:23:11 AM CET
 # Program compiled on                                                   tcopt14
 # Program compiled for                                                    local
 # Source code revision number                                       git:f9c0fa1
 &GLOBAL
   PROJECT_NAME water
   RUN_TYPE  MD
 &END GLOBAL
 &MOTION
   &MD
     ENSEMBLE  NVT
     STEPS  100
     TIMESTEP     4.9999999999999994E-01
     STEP_START_VAL  100
     TIME_START_VAL     5.0000000000000036E+01
     ECONS_START_VAL    -5.5043947474363551E+02
     TEMPERATURE     2.9800000000000000E+02
     &THERMOSTAT
       REGION  MASSIVE
       &NOSE
         LENGTH  3
         YOSHIDA  3
         TIMECON     9.9999999999999989E-01
         MTS  2
         &COORD
               2.8822767811656194E+00   -1.1557300756155289E+01    1.0811645968538928E+01    4.2481288767510934E+00 \
              -3.9730107449954319E+00   -1.5499247400458742E+00   -4.0061139024828094E+00    5.8565963397654794E+00   -3.6129745789261447E+00 \
              -8.5454682007268878E-01    1.2591025386336307E+01   -1.0155140663639459E+01    1.1941021829170846E+00   -6.5587753227477368E+00 \
              -1.8032983359571395E-01   -1.2508775741325394E+01   -7.6971955853974974E+00    1.2197677179319152E+01   -1.1108821476814720E+01 \
               1.2235146361291701E+01    1.6427751262528223E-01   -4.6021783476475553E-01    6.9059864526659807E+00   -9.6604735520731637E+00 \
               8.6188745736085792E+00    7.0790788100830104E-01   -3.0655826747729957E+00    6.6958223495796443E-01   -8.6559230503436585E-02 \
               2.3626070978398336E-01    1.6921847141315967E+00    2.7743819770031632E+00   -3.5245016608290927E+00    5.7867266836533355E+00 \
              -1.6577118819001285E+01    8.4134445176626897E+00    1.3389474880683474E+00    8.0597318063400962E+00   -1.0340167793675738E+01 \
               3.0189096759438891E+00    9.4329663518928850E+00   -1.2683019786127812E+01    5.7809079429501653E-01    1.0507998015064286E+01 \
              -1.3058967991569247E+01    7.0213367044350798E+00   -7.9871187553343432E+00    7.0603795392826041E-01   -3.9172805632015080E+00 \
               4.4187300510648431E-01   -6.9861817425531525E-01    5.8638464998809781E-01    8.7941412525476217E+00   -9.0626476205492121E+00 \
              -2.7835524837739500E+00    4.7971957494081705E+00   -3.0263586594336509E+00   -4.9258218148497415E+00    6.2281415932750095E+00 \
              -2.6703034651789794E+00    6.2490905641551686E+00   -7.5714685592795057E+00    1.2563614568109491E+00    5.1214334056044905E-02 \
              -8.0507114691539883E-01   -5.9158159640324293E-01   -6.2584850347956742E+00    8.0686210556379852E+00   -4.5106153482612781E+00 \
               4.9387954460680961E+00   -5.9714566103106117E+00    1.1931052313918433E+00    7.6301883957818655E+00   -4.8261728766365994E+00 \
              -3.1916272747197688E-02   -5.7308013738683607E+00    9.8188655797837576E+00   -8.9792164651228408E+00   -2.6437007644489787E+00 \
              -4.4358848957426948E+00    6.2316850194400084E+00    9.9405006409322993E+00   -7.4444817868859596E+00    4.9228826200443958E+00 \
               1.7822318563620205E+00    5.5277293452515766E+00   -9.8686987267034354E+00   -1.3454572475796263E+01    8.4378562948736988E+00 \
              -9.7766653042080287E-01    9.0116671022058825E-01   -7.7774453316049970E+00    7.1671806474623603E+00   -2.4998589928903883E+00 \
              -3.9489749905214078E+00    4.5746723565989402E+00    1.2497358922882416E+00    5.1964917591240560E+00   -6.0297707479492679E+00 \
               3.9323339167641649E+00   -4.8434434408908764E+00    7.2277740034862203E-01   -4.2237366467687290E+00   -5.9389922900658894E+00 \
               9.5131005361842522E+00   -4.1180009172184046E-01    3.0314993445473521E+00   -5.8246821135685272E+00   -8.5445483954615806E+00 \
              -1.2731698924951100E+00    6.2708552121744088E+00   -6.4804064249923918E+00    1.6326363320124815E+00    5.7120359659078455E+00 \
               1.3659963039630210E+00    8.5299295177113308E+00   -1.2277136688220349E+01    1.3380982924630986E+01   -2.2922366625103230E+01 \
               1.3868545126485646E+01   -1.3851783187399585E+01    1.2094468625377914E+01   -2.0166298914959198E+00    4.5785630312134167E+00 \
               5.7596831113400206E+00   -1.0868904750897997E+01   -1.5742788257399447E+01    1.5045657872353168E+01    3.6722990948473055E-01 \
              -6.4149634582002868E+00    4.4951812603042649E+00   -2.8729310002110835E+00   -2.2267913314052947E+00    5.1851509034743772E+00 \
              -3.4731645974138292E+00   -1.3791862748611003E+01   -4.2772940324760267E-01    4.7027494521443165E+00    6.5765659557446912E-02 \
               2.1740700640408438E+01   -1.9489557982462706E+01    7.6145809772064510E+00   -1.1874696491678948E+01    9.3121677160124587E+00 \
              -3.6114878812053480E-01    8.3973744869822191E+00   -6.1815213334216788E+00    2.8901148960860166E+00   -5.0816909168244893E+00 \
              -3.9071845981510296E+00    3.1535119920812660E+00   -3.4065392873835316E+00    3.5940064752844965E+00   -6.9821891246458090E-01 \
              -5.5456559926926312E+00    4.1658193756466062E+00   -1.1602964000667077E+01    1.2501216294291089E+00    3.9170322909341024E+00 \
              -1.2654850597804543E+01    7.2432981891984545E+00    7.3127636399645715E+00   -2.1755416160137481E-01    2.4772179507872565E+00 \
              -5.3537968572702344E+00   -8.8593654639950223E+00    5.2125890584043137E+00    1.7649062932417572E-01    6.1351124593354802E+00 \
              -1.1821758014942912E+01    5.8327068958100714E+00   -7.8172813291472441E+00    1.5013814706130905E+01   -1.1227436577083450E+01 \
              -5.5628552303278855E-01   -1.4724447518955467E+01    1.6646601434238129E+01    3.7297175158882765E+00   -5.0182080164527925E+00 \
               8.2147738480840626E-01   -5.8448981875954562E+00    1.5359014867100942E+01   -1.1779266145994720E+01    7.4843895433916896E-01 \
               6.1375658617911109E+00   -9.2356417035337195E+00    4.8270753238132249E+00   -5.7972172228456742E+00    2.4176800381143599E+00 \
              -8.8767399181478002E+00    4.4262273468101707E+00    7.4389378597848188E-01   -1.0485887806666087E+01    1.7947577663024632E+01 \
              -1.4822558151975601E+01   -4.7545670035450804E+00   -3.7567294645582372E-01    4.9843266923033385E+00   -2.8048930172656545E+00 \
               6.7799932254222268E+00   -7.0504623710562724E+00   -9.8801389059692255E+00   -8.8653825377066635E+00    1.1655654150122160E+01 \
               7.9396503840353105E+00    8.1194486046885910E+00   -1.3866602269007315E+01    7.5585827976768440E+00   -1.2120562599702414E+01 \
               3.0877896501369011E+00   -1.3087564748629466E+01    7.3846474067406422E+00    2.0621017326639790E+00   -4.3675038313440178E+00 \
              -3.1160788565254696E+00    5.2706752237730328E+00   -7.6609091071285382E+00   -7.4204269396612226E+00    1.0160548248744409E+01 \
               3.8512970827784176E+00   -6.2932173205416424E+00    7.9585671642812423E+00    2.7833664833153182E-01   -5.9402779461252884E+00 \
               1.7188838886065179E+00   -1.4361771964433618E+01    4.7855424617382250E+00    1.7251861567499489E+00   -2.8053429306156952E+00 \
               1.3799468986651826E+01   -5.7771533467815441E+00   -6.4071841866237724E+00   -1.1800141387177196E-01    2.6200068359117124E+00 \
               5.1673664488640370E+00    2.4017592668836527E+00   -7.2663250035879603E+00   -5.6441772144128235E+00   -1.0010191179239871E+00 \
               5.2233527071323600E+00   -5.4999861706145010E+00   -5.3009623962264305E+00    6.2895405354117955E+00   -7.7714725728650729E+00 \
               1.3730711838321938E+00    6.9374166163792206E-01    6.4872338877351972E+00   -1.9635873210484869E+00    3.6964053571891649E+00 \
              -2.0461062204974327E+00    8.0099377865909442E+00   -5.5693822115210221E+00    1.6234521879566075E+00   -4.6885951834633657E+00 \
               6.7974710815255668E-01    2.3034482453163756E+00   -3.1233804358989805E+00   -6.8361961742564625E-01    3.6995349074027613E+00 \
               5.2725428858279457E+00   -7.8201884499471612E+00    3.1816894471354811E+00    6.3263996974204009E+00   -4.8006297364425086E+00 \
               7.8481229971129152E-01    3.7283349842542224E+00   -4.4877661986174058E+00   -1.4240258639038432E+01    4.6139160140506679E+00 \
               2.3507005755850314E+00    2.1961171237745041E+00    4.6716713931958259E-01   -6.0089040594980911E+00   -9.0443073093864559E+00 \
               7.6312462336829050E+00   -1.5570092155636186E+00   -8.0211243376645474E+00    5.0048931408859128E+00    8.2051948266831654E-02 \
               2.8485050102928513E+00   -7.0516114950352815E+00    1.8780110448155063E+00    2.7894675558172972E+00   -4.1210216886529425E+00 \
              -8.5671425316471062E-01    8.5078471011289203E+00   -9.2536309618937587E+00    4.4681014589576513E+00    5.1801877263602378E+00 \
               8.3571788942816347E+00   -1.5911505190071624E+01    6.4971122681480491E+00    1.5849589549160061E+00   -5.5710110360627221E+00 \
              -3.4267016409432425E+00   -1.4907400545466089E+01    1.6542777485868616E+01   -4.9855081965020878E+00    8.6533354625127377E+00 \
              -6.2160092366357702E+00   -5.5788080089923975E+00    1.1137590265063585E+01   -1.0914964173069443E+01    2.3399309451332742E+00 \
               1.0619543674729076E+01   -1.1067900338531855E+01   -3.7870494024159078E+00    1.1408213270462310E+01   -1.2741213527505659E+01 \
               8.9909404453743793E+00   -1.7911732431553329E+01    1.4894974925361183E+01    3.6806129125409992E+00   -2.7727934988787637E+00 \
              -2.8745248300787285E+00    9.4953931452087019E+00    5.5322422611322715E+00   -1.5064785285110499E+01    1.0207283297294122E+01 \
              -1.6689321532035184E+01    6.4309239040922508E+00    1.4146940199441191E+01   -5.7849879298241573E+00   -8.1022000586526239E+00 \
               6.9261616489758540E+00   -1.9798284952111139E+01    2.2840468110652727E+00   -5.7440563015231429E+00   -2.9372725936826787E+00 \
               5.9451011127963866E+00    1.8255130194795210E+00    5.9564834952440080E+00   -8.2095031475289719E+00    3.1143569145923071E+00 \
               7.2098524826218862E+00   -1.0792002832122314E+01    7.7145995349091230E+00   -4.9958557032450983E+00   -7.9171632902394329E+00 \
              -3.3486617619069934E+00   -5.9532891700390400E-01    3.9697387790149277E+00    3.3197082322142060E+00   -1.8007016415556989E+00 \
               2.4332404726227850E+00    8.3242213779474277E+00   -1.7395701793018382E+01    1.1382166894716249E+01    2.0955767611335570E+00 \
               3.1072194269753006E+00   -9.3737800228874040E+00   -2.0872113526687759E+01    1.1920368733711875E+01   -2.6510337790946759E+00 \
              -4.9916961489790586E+00    2.8546042703355128E+00   -1.6075375195436989E+00    4.9592163542061298E+00    1.6619853553177986E+01 \
              -1.2552422818297440E+01    1.3199847297776607E+01   -1.2816614881191764E+01    1.9474171531090989E+00   -4.7172243982055839E+00 \
               4.0800413362591614E-01   -9.6014020264651445E-03    1.7001498533980988E+00   -1.7529416562808724E+00   -1.4905845037121637E+00 \
               4.2143225211443838E+00    2.1424694764898061E-01   -5.4119965259497427E+00   -5.1905097294234492E+00   -1.3545388279420587E+00 \
               9.7197503109819550E-01   -2.9270014624090108E+00    6.7573296715626912E+00   -2.6588232901461195E+00    2.1512772463946606E+00 \
              -7.8569545507402534E+00    6.4057570957575285E+00    4.4980384872272321E+00   -7.1886660909653288E-03   -2.4793037575749604E+00 \
              -6.6348764334062666E+00   -5.7424800392572619E+00    6.1534444434183149E+00   -6.5821304256532753E-01    1.2905278355335803E+00 \
              -1.5501524090915093E+00   -1.4682691160052714E+00    3.7176793383950866E+00   -5.6337489695207061E+00    3.5097491644494343E+00 \
              -8.9964487703544247E+00    7.2050581218252985E-01    7.1779666579882537E+00    2.1400621938416133E+00   -5.5737274142719437E+00 \
              -1.0566791735346919E+00    2.4359510032601919E+00   -2.6767460029372705E+00   -1.1938323978370947E-01   -5.2071387488865772E-01 \
              -1.3612482376118260E+00    3.0561358159333158E+00   -6.8246365933171607E+00    4.1391827348380481E+00    7.4231675487045612E+00 \
              -1.0189904971158539E+01   -3.8447759414013444E-01   -2.9403174876882452E+00    1.0410977006912065E+01   -1.0907370176288964E+01 \
               8.8538064233346159E+00    4.7568363363353533E-01   -7.9498914058753467E+00   -3.0098381775084531E+00    1.0013832326333821E+01 \
              -9.3861596631735402E+00   -7.0249994946327403E+00    1.5484148321825748E+01   -1.3810222281365970E+01   -9.1384860390614830E-01 \
               1.1656406622273806E+01   -1.2316511659331448E+01    1.1086946523536398E+01   -4.0533393450557629E+00   -2.8072722858370680E+00 \
              -4.8428695254024517E-01    1.5243444729026936E+00   -3.0902013274650857E+00    6.5844690380782520E+00   -1.0181209324653439E+01 \
               5.8213073731440774E+00   -1.0755359348967541E+00   -4.6775218737294892E+00   -1.4239604372524399E+00   -1.9445710699113059E+00 \
               4.9480893967999009E+00   -4.7497040266919708E+00    5.4655375353173339E+00   -7.8136477651455305E+00    4.2054344618045842E+00 \
              -5.0731255194265596E+00    5.7586182655707141E+00   -4.0144183875773667E+00    3.9555347958861433E+00   -3.4298471388051261E+00 \
               1.2233068343491620E+00    5.1899897010181437E+00    7.1573658357556758E+00   -1.0578700353802923E+01    7.3312311549666709E-01 \
               3.6062347618380248E+00   -2.2117146997578256E+00    1.1981410061945390E+00    9.8293981316828134E+00   -1.2362224695334529E+01 \
              -1.8329453087637666E+00   -6.5929670693051374E+00    1.4486747455778257E+00    9.6288933290858321E+00   -1.6837838886097579E+01 \
               9.5998085750945794E+00   -4.6346039049912129E+00   -9.6375166804931158E+00    1.3688721822134957E+01    6.4202877174875828E-02 \
              -3.1214252012167800E+00   -1.6834705210852610E+00    3.8003157027828700E+00    4.2730003051808545E+00   -7.0191098879713882E+00 \
              -1.9397316652698471E+01    6.8556543723081136E+00    5.2427867285213861E+00   -2.5366907507840353E-01    5.4966528101343004E-01 \
              -5.0391974973325904E-01    1.4861432410595443E+00   -2.5535454298202827E+00    2.6592759257583647E+00   -1.3892684636726877E+00 \
              -5.8631420388634243E+00    3.7274602690149403E+00   -2.1743514012756671E+00    3.2227441005011275E+00   -7.9003553328915439E+00 \
               2.3547762957192733E+00   -6.1018248035411149E-01    2.3435150470157673E+00   -4.4256296239575343E+00    2.3471817613052188E+00 \
              -3.8474907519026704E+00   -6.4245449747436323E-01   -1.0665257372429533E+01    6.8063247498301376E+00    1.0589846888198393E+00 \
              -1.2322879437198122E+01    1.3738184181039248E+01    6.7782438057829744E+00   -8.2300584910263606E+00    4.9814561169976743E+00 \
               1.3307508314101792E+00    9.3615793449385745E+00   -1.1319785871831522E+01    1.8129957824143368E+00    1.3956669426576853E+00 \
              -3.2254616529754498E+00   -8.0557635610051115E+00    1.9541564017365709E+00   -7.4864448523850458E-01    4.2212119575316072E+00 \
               9.6070615240963306E+00   -1.3322491157806160E+01   -4.7530271363087158E+00   -4.4406311648205549E-01    2.5848482502314565E+00 \
              -5.2228354594709385E+00    4.7902784092343955E+00    2.8909598820296880E+00    5.0523608320860713E+00   -5.8938461427032862E-01 \
              -2.3627268121183387E+00   -9.7966554529700733E+00    1.1263832930333600E-01    5.6862969553245231E+00    2.0080341925384624E+00 \
              -3.0674948725495288E-01   -2.1603711140385018E-01    1.3907660663538525E+01    1.4675597792237067E+00   -1.2555827124301967E+01 \
               8.1393694489286226E+00    2.4519255780033893E+00   -1.1461050919647439E+01   -3.1583101273650105E-02   -2.8768941790330373E+00 \
              -4.4594526069054181E+00    6.1329185012360288E+00   -1.0228778254597502E+01    5.0876748142782793E+00   -1.5248158462639136E+00 \
               1.4547320815672725E+01   -1.6077128944469688E+01    3.2927244092504271E+00   -8.9865127701383294E+00    5.0766443219947037E+00 \
               1.8193569628773808E+01   -4.0957824461134873E+00   -1.0002653043130332E+01    9.1254537781798035E+00   -3.1436267956196682E+00 \
              -9.7360197587564841E+00   -5.3607130600979120E+00   -4.4967224831509363E+00    8.1244528922334727E+00   -6.1872133628226589E+00 \
               3.2147192206709230E+00   -1.9014514614729725E+00    5.5817495054327306E+00   -5.4185385907593702E+00   -5.3703503500532990E-02 \
              -1.2208474799168159E+00    1.0425484178144890E+01   -6.7800952549919495E+00   -6.3312647184422257E+00   -1.8259087744290343E+00 \
               1.1688919377304546E-01    4.2498339490039099E+00   -1.0254665788229147E+00   -9.4468212890833436E-01    1.5129359067012946E+00 \
              -4.9566227165205206E+00    4.6915777463072743E+00   -1.1187119477936545E+00    5.4222736022702822E+00   -4.2321360711371581E+00 \
              -2.3266148770741315E-03    4.0068854985572449E+00   -5.1137867627640947E+00    9.6886277088351687E+00    7.3002745099387258E+00 \
              -1.4705713018746122E+01   -2.4962934685677396E-01    5.3679873174300816E+00   -7.0567151546622613E+00   -1.3511623517120634E+00 \
               5.1774125045411576E+00   -6.0219683262405423E+00    9.9012082628887577E-01   -7.7322797248471984E+00    7.9498638475008878E+00 \
              -5.0205898342550972E+00    2.5824262248133207E+00    1.6477505951369158E+00   -8.8194802867606115E-02   -7.8332879912247115E+00 \
               2.8156430261057204E+00   -4.8367197548852667E+00    5.5709287947549990E+00    6.0445577118300897E-01   -1.9240339888832252E+00 \
               4.1356199199395540E+00   -3.9079470319950391E+00   -4.1864651931821255E+00   -7.5485816662058340E+00    1.2760610838942549E+01 \
              -1.4696729156318131E+00   -7.2588410498371703E+00    9.2173956145477138E+00   -4.8367003937529915E+00    5.8200197392171198E+00 \
              -3.7660532167405298E+00   -1.1567543069496853E+00    5.9951621136154838E+00   -8.0105639313543229E+00   -1.0655165777936297E+00 \
              -6.4624339142176659E+00    6.9511184256807406E+00    2.3927165874203471E+00   -1.1280963116027538E+01    8.1833010006446347E+00 \
               5.7891019980875233E+00   -5.9607595403120266E+00   -7.1324832730809495E-01    2.0222913896856340E+00    7.0971031394341937E+00 \
              -8.9861172142865673E+00   -6.3316669001111094E+00   -2.5233187133715496E+00    2.9258674234915292E+00    2.6408440447806791E+00 \
              -5.0030580829234053E+00    2.8654506415637662E+00    1.5864111770795222E+00   -2.8807700167560943E+00   -7.9512585975588479E-01 \
               1.5029496512428735E+00   -8.0212185499510813E+00    7.5332778639182694E+00   -6.6186710844147871E+00   -4.1016337446499893E+00 \
               5.5803234896830469E+00   -1.1626996716501599E+00   -1.2125760001600876E+00    1.7905029499064240E+00   -1.7429178191500418E+00 \
              -6.8408556295884604E-01    7.7603895794582634E-01   -2.3428873044338818E+00    1.8907112321696400E+00   -1.6239045321577321E+00 \
               1.7355201521653294E+00   -4.9076191298890164E+00    1.1910248337694729E+00    3.7852356529347325E-01    1.2032958219505552E+00 \
              -4.9923817692994907E+00   -3.2370399581329448E+00   -7.7481127251215138E+00    3.2893096022399146E+00   -7.6881986154814164E-01 \
              -1.8166448144931722E+00    1.9630853259273862E+00    2.1825804021131874E+00   -1.6142002950377803E+00   -9.6320943773909051E-01 \
               4.0427089208367528E+00   -7.9232708459819117E+00    4.9947377476149306E+00   -1.5158406639035754E-01    3.6020433345209524E+00 \
              -3.8664061128440381E+00   -3.8713677450325741E+00    5.6799853435422945E+00   -2.1639605546857323E+00    3.9295030751429003E+00 \
              -1.1413094108005810E+00   -3.5827679842193030E+00    4.3286375691389081E+00    6.5081838141977499E+00   -1.0127108535213731E+01 \
              -7.7841832107279341E-01   -5.6960781954323041E+00    8.6814757971900463E+00   -2.3339904067024060E+00   -3.4074127527236788E+00 \
               5.3028168084664173E+00   -1.3485800918309683E+00   -4.4781709201919273E-01    1.0012661915896193E+00   -2.5540512154588622E+00 \
              -1.0316629484280448E+01    1.1069899806724573E+01   -1.0809425513531890E+00   -3.8026462940525123E+00    4.1949563410791226E+00 \
               6.0472444310362112E+00   -3.7445789666600962E+00   -7.3471902410209816E-02    6.4326698236106183E-01   -9.9102813437841641E-01 \
              -1.0979280923864960E+00   -1.2074259366391105E+00    1.1220071751634653E+00    8.3722197443573876E-01    4.5052171522394238E+00 \
              -7.4845282213573130E+00    2.0427327385969476E+00   -4.4235003844295280E+00   -2.8556536910148811E+00    6.7829960567165344E+00 \
               4.3294952092035466E+00   -7.2604434875393364E+00    7.6126646477477227E+00   -7.1608516608920709E+00   -5.3244209381798298E+00 \
               9.2972472423309949E+00    2.7923402181559869E+00   -1.6808713033249891E+00   -1.9600115037892760E+00    1.7778710809398117E+00 \
              -5.8481769931827436E+00    4.7187101262814695E+00   -3.3619335739832484E-01   -3.9474006923561764E+00    3.4670876636678476E+00 \
              -1.1564832432469145E+00    3.8686776406222823E+00   -5.2599437502397741E+00    7.4123199673405136E+00    3.7240237226054003E+00 \
              -1.0339222644287663E+01   -2.0839701176700105E+00   -7.4180323489145819E+00    8.0095147997124538E+00   -8.1817825534884120E-02 \
               7.6041218359396741E+00   -9.9353148619501113E+00   -5.1003660659388772E-01    2.2031083997190715E-01    3.5656767807890684E-02 \
              -2.4241903633437252E+00    3.1673075538157387E+00    1.5836498790963054E+00    4.5746403414880312E+00    7.2005243465353841E+00 \
              -1.2997046465921416E+01    4.4423356911704237E-02   -4.4928107728853268E+00    3.2093207732084603E+00    1.1496138945087116E+01 \
              -7.4468220057059398E+00   -2.2916772936809289E+00   -9.0290852059824966E-01    2.1246629139556164E+00   -2.2312322980711667E+00 \
              -7.1746123071582071E+00    4.1948086433144721E-01    3.7566250287001579E+00   -6.9424013493237595E+00   -1.0888338103719872E+00 \
               2.5955752657977769E+00   -1.8224554056142337E+00   -6.6964142770403736E+00    4.4501890502429733E+00   -2.8609080036888725E+00 \
              -1.4155383612440242E+00    1.2719536099846125E+00    4.3829212838240306E+00    2.5031952630651877E+00   -6.9135843441556837E+00 \
              -1.5503341771497972E-02    4.4131782057965347E+00   -5.2185421363061604E+00   -6.9041146330787750E-01    1.2796812967823725E+00 \
               8.3374219648135262E-01    2.1588859353710994E+00   -4.3722774472343129E-02   -1.9607086258071993E+00   -3.9061370834091673E+00 \
               1.2523393569138184E+01   -1.1667079670158744E+01    2.8797469080314886E-01    1.0896856370016274E-01   -1.6192340530453206E+00 \
              -8.9847245946966392E-01   -9.7915891875876095E+00    8.4895315475654023E+00    3.4959457236105327E+00    2.2871081330210887E+00 \
              -4.9878405282691602E+00   -3.3729795008576819E+00   -1.3833021915452348E+00    4.9724967882588329E+00   -5.0186374273362283E-04 \
               2.9644375388004995E+00   -2.5860994431040090E+00    1.1102113636077005E+00   -5.4185815669137813E+00    4.9814224308105137E+00 \
               3.3924592897101085E+00    5.6347866642012896E+00   -8.9613957979822576E+00   -1.1446490421709896E+01    3.1618559653267582E+00 \
               6.9088712201372466E+00   -2.2507378289557636E+00    3.2218713546865523E+00   -4.1202232385537912E-01    1.5518188940111075E+00 \
              -1.6332421638704766E+00   -5.5972967943940771E-02    6.0013554845000208E+00   -5.0541269783512179E+00    1.8113579893614375E+00 \
               3.5331291936020021E-01    5.0543872883479244E+00   -6.4222747081311988E+00    2.1474795710038328E+00   -6.6812414098801085E+00 \
               6.6899846842393877E+00    1.0629237754682002E+00    8.9296859842795051E+00   -1.0940584862572976E+01    2.5502480196623418E+00 \
              -7.1173992742993319E-01   -4.3924598619461079E+00    1.8738709371371218E-01    2.7908966209610225E-01    1.4611907088755233E-01 \
              -2.2614142936024018E+00   -5.4197358576970647E+00    2.3844491329302091E+00    1.9319400252059644E+00    8.4303203992790632E+00 \
              -1.1071681096283321E+01    2.4255387086678533E+00   -1.9445377959413310E+00   -1.1566674430733273E+00    3.9874460075754192E+00 \
              -1.6643330990769747E+00   -6.7966829863027178E-01    1.6992757608670778E-03   -4.8160640035073579E+00    3.5731287168139834E+00 \
              -8.2522696783098937E-01   -1.0988048751533183E+01    9.3138344543341880E+00    7.0611291143762926E+00   -1.6800467797510160E-01 \
              -7.1904912855165870E+00   -4.1367055597831905E+00   -4.0437223942662315E-01    3.0174841428353489E+00   -7.0147050845765757E-01 \
              -2.8169101714765432E+00    2.8812158097467404E+00    5.4197615870372762E-01    6.9557452946597609E+00   -6.4062754069234700E+00
         &END COORD
         &VELOCITY
               4.5405810206253255E-02    2.3979947539871124E-04    9.5453468589924428E-03    4.2726803146872126E-02 \
              -7.7029549452751356E-03    2.4246916486697821E-02    2.7169015960940585E-02   -2.3789883755608522E-03    1.9996258604053629E-02 \
              -2.0876078415544664E-02    7.5061997094861069E-02    4.8959250503137659E-03   -2.9921107051052005E-02    4.8495524652476189E-02 \
               2.8471608002160545E-02   -2.7461636851294626E-02    1.1139458430133951E-02    2.7561775874942424E-02   -1.5831120024133907E-02 \
               9.2872919442028735E-03   -2.1895685568212836E-02    2.3534587782112142E-02   -2.2146062205238914E-02    1.3043284985227608E-03 \
               1.4177902939965898E-02   -1.3269601699773205E-02    1.2126474811340753E-02    1.2104123556851967E-03   -2.9557056447553857E-02 \
              -7.8713301186391950E-03   -7.9167549900972800E-03    6.7904685672300989E-03    3.4555227874955081E-02   -8.3294560283601118E-03 \
              -4.5604459157510442E-03    1.6190894353981730E-02    4.7288563542697636E-02   -1.9219861253631076E-02    2.1432856935101927E-02 \
              -2.8531818547838459E-03    1.5851847450462697E-02    3.7357317709774758E-03    1.8967250808524169E-02   -1.4451473968510398E-02 \
               1.7533536262456559E-02    1.1997080559720118E-02   -3.7192527909903972E-04    3.4942436051295635E-02   -2.0873120693524566E-02 \
               3.4206988783513047E-02   -5.0145727560038933E-02   -1.5860233478636653E-02   -1.2795439563560722E-03   -4.6467475500239133E-03 \
              -5.7493483202132652E-03    5.4966670795294770E-03    4.7847265305912268E-03    9.8282377301681057E-04   -1.4611319553851653E-02 \
               1.6873755838988900E-02   -4.5908582615686311E-02   -1.3458716023171582E-02    5.1635291493717254E-02   -1.2240388717818573E-02 \
              -9.4926192540975660E-04    2.0441132108605271E-02    4.3028759030400987E-02   -1.3889246749769846E-02   -1.4558956839198847E-02 \
               3.4864970129505783E-02   -4.0864606587679479E-02   -2.0916785998875559E-02    1.3214203428702904E-02   -1.2900610199773023E-02 \
              -1.3026909023205090E-02    1.8902569098447054E-02   -4.2981636671202438E-02    1.4352323356711754E-02    9.0895378475023252E-03 \
              -3.9588658049371075E-02    1.1683528117974067E-02    2.9190761034558921E-02   -8.1762131286118468E-03   -2.5003700966034197E-03 \
              -2.2811821968830349E-02    3.7657445592783716E-02   -6.4599690600852522E-03    2.8373947016765998E-02   -2.2831188063726977E-02 \
               1.8427505298094940E-04    1.1191973247495461E-02    1.0539220385724664E-02    7.7291212343364949E-03    2.1438831759723304E-02 \
              -2.7922051316984584E-02    7.0320470335252291E-03   -2.0058614296102388E-02   -8.0752934116770959E-03    3.4170883480945262E-02 \
               4.0001275045425465E-02    6.4417889304301144E-03    1.2497399445129381E-02   -3.0247718991704534E-02    2.7995138041949124E-02 \
               3.8744268558494853E-03   -6.0537206437350057E-03   -4.0385178947149802E-03   -1.2942531875182774E-02    1.1028888241344162E-02 \
              -3.7929325043444722E-03    2.4397803267409410E-02    1.3141547937980679E-02   -1.2862477100180562E-02    2.7479503989664117E-02 \
              -6.4518914740264799E-03    1.9695788631048483E-02    3.3537918907981749E-03    1.4629657387058860E-02   -2.9324261382945145E-02 \
               1.1045042184876074E-03   -3.1837301114622597E-04   -2.2754116303203929E-02    7.2957667509551682E-03   -7.4291693721555670E-03 \
              -2.4042420581999992E-02    4.4605232479248628E-02   -1.1506277965480179E-03   -1.9396656778527577E-02    1.7582778462639760E-02 \
              -3.1171781524966781E-02   -2.0092481467864046E-03    2.0190704193572832E-02   -1.3124697904230312E-02   -1.6442452819153401E-02 \
               3.2070409645253081E-02    3.3474049264549666E-02   -7.7663140571566170E-03    1.5642369379227992E-02    1.8496960441201750E-03 \