 # Version information for this restart file 
 # current date 2023-01-09 12:57:28.895
 # current working dir /data/gtocci/scratch/cp2k/tests/Fist/regtest-nequip
 # Program compiled at                           Mon 09 Jan 2023 11:23:11 AM CET
 # Program compiled on                                                   tcopt14
 # Program compiled for                                                    local
 # Source code revision number                                       git:f9c0fa1
 &GLOBAL
   PROJECT_NAME water
   RUN_TYPE  MD
 &END GLOBAL
 &MOTION
   &MD
     ENSEMBLE  NVT
     STEPS  100
     TIMESTEP     4.9999999999999994E-01
     STEP_START_VAL  60
     TIME_START_VAL     3.0000000000000018E+01
     ECONS_START_VAL    -5.5043947474363551E+02
     TEMPERATURE     2.9800000000000000E+02
     &THERMOSTAT
       REGION  MASSIVE
       &NOSE
         LENGTH  3
         YOSHIDA  3
         TIMECON     9.9999999999999989E-01
         MTS  2
         &COORD
               2.4386521659954234E+00   -6.4013606096282603E+00    4.0736703731981105E+00   -9.0331119707639695E-01 \
               2.5348299635625109E+00   -2.6457811749137101E+00   -2.2151921477388368E+00    1.9268620462783836E+00   -1.0174706910654110E+00 \
               3.4210410824341762E+00    5.2141880250695549E-01   -2.5095134930886851E+00    1.5349498342889667E+00   -6.2378942727739828E+00 \
               2.8991644557215808E+00   -9.8514064007176056E+00   -9.0485343802773759E+00    1.4221464218006595E+01   -7.4199450932504778E+00 \
               1.0367801855459160E+01   -9.0644243340591679E-02   -5.5362281429350011E+00    1.6580183181315211E+00   -1.5293683356248171E+00 \
              -4.0494296307531619E-01    3.8899065342893393E+00   -8.2219858135697754E-01    2.6289842019999181E+00    5.1492871157932090E+00 \
              -9.3879479091405589E+00    1.2013311748015172E+00    3.1969595093361471E+00   -3.6632545412553075E+00   -2.9659354990789146E+00 \
              -3.1260266892778930E+00    2.2703871639086772E+00    1.6835236402672618E+00    4.7355629197029483E+00   -4.4632884175250487E+00 \
              -7.3868952073267857E-01    8.9808039365772867E+00   -9.3625668260059616E+00    4.3779125076649605E-01    1.5568218444989183E+01 \
              -1.2609803452334384E+01    6.3796487639031847E+00   -7.5976858292907332E+00    1.3273284148693916E+00   -2.3240258171979149E+00 \
               5.2468342984032648E-02    2.3383145314610148E+00   -8.0825420918448323E+00    1.0332361871663741E+01   -8.2778771716648212E+00 \
              -1.3945350866023112E+00    4.2789382200373591E+00   -4.0830599278398081E+00   -5.9008253993107331E+00    1.5707014487220112E+00 \
              -1.1197894730805311E-01    8.4985782748437781E+00   -1.2518178847556255E+01    7.3347009252501634E+00   -4.5867175583292532E+00 \
              -2.1579345636655098E+00    2.8895225808431886E+00   -4.0719923949321375E+00    2.5216020903643668E+00    8.6182714095069668E-02 \
               1.6317685593335438E+00   -2.1150485150041836E+00    7.2951995264071656E-01    3.2462069940879221E+00   -8.4164216796987450E+00 \
               3.9632834978958562E+00   -2.4695238366189867E+00    6.9158082280850888E+00   -5.7385810793143364E+00   -1.2240470212036387E+00 \
              -8.4016757977268206E+00    7.5836869753983809E+00    8.7033140157707702E+00   -6.4189715728699239E+00    2.6320040394102131E+00 \
               4.2125542204745692E-01   -1.3786392162452461E+00   -3.0591644361726256E+00   -5.5219463173824535E+00    1.0292288009760627E+01 \
              -9.2460417942283737E+00    4.5105616436730882E+00   -1.2120892850743116E+01    9.8334878621339055E+00    1.6130581962950699E+00 \
              -6.9486082817640886E+00    2.9187367574718595E+00    2.3389747114187953E+00   -4.6577617641740171E-01   -3.3744303607032595E+00 \
               4.5586698859829085E+00   -6.8129547871586329E+00    4.0273235175832927E+00    6.0912720341962134E-01   -6.5212285447474283E+00 \
               5.4001781462052865E+00   -3.4628797970015002E-01   -3.1081173695250244E+00   -1.0805256268555576E+00   -1.1513595518478068E+01 \
               5.2807927216491182E+00    6.9044097259990806E+00   -4.5525031917943881E+00    2.5614297210069257E+00    1.4303189978290614E+00 \
              -6.2439937232614220E+00    7.2149225675486441E+00   -5.9714266494309340E+00    7.9920655462970105E+00   -1.0994816172422418E+01 \
               7.0126420274376544E+00   -1.2176262364222715E+01    1.2007392908891163E+01   -6.0574432796371358E+00    4.2188088296535984E+00 \
              -1.3162693238598027E+00   -2.0220166919491955E+00   -9.8063908615432958E+00    6.8054142375069402E+00    2.5798355148711054E+00 \
              -7.4063698129524225E+00    2.0776707215634040E+00    8.8370070578534032E-01   -2.0554864278279368E+00    3.3249754351917868E+00 \
              -6.2336170564223012E+00   -1.5470367889902594E+01   -6.7490946255718487E-01    4.1301134973430358E+00    1.2477652146590792E+00 \
               8.1676335068009482E+00   -9.6007161113412920E+00    7.8188141310334496E+00   -4.5306944870134975E+00    1.5095630740954853E+00 \
               9.5754361462300996E-01    6.1454247297275044E+00   -8.0604842648004613E+00    5.1784897940653716E+00   -6.5728181239205759E+00 \
              -1.2299763457918587E+00   -2.8249952091694214E-01   -2.2850400030586830E+00    2.6026810234888211E+00    5.4325788628329741E-01 \
              -2.6686082228592789E+00    8.5153553397503867E-01   -1.2064353998153483E+00   -2.7753594735800675E+00   -8.1076971040771428E-01 \
              -1.3589137813412355E+01    9.8581993720288814E+00   -3.8593292902088205E-01    3.4225773699454076E-01   -3.7626633921366235E+00 \
               2.8342541358476692E+00   -7.3477096452940422E+00    1.8021992849062292E+00    4.9587378066602489E-01    3.1042992525239721E+00 \
              -7.6638556211590547E+00    3.4963292999090010E+00   -4.3266060724314368E+00    5.1331507215571266E+00   -1.8333819478441644E+00 \
               3.9451445416919126E+00   -1.2005024988893988E+01    1.2026825285973604E+01   -1.9788662799515295E+00   -3.6548127361336866E+00 \
               3.2270148542875421E+00   -1.7886878657806882E+00    7.8321470039615084E+00   -6.0357154542782459E+00    1.3871242586209338E+00 \
               8.4646185531895064E+00   -8.4095840605043648E+00   -5.7433876661744288E-01   -1.0694144688674578E+00    1.5075604316722757E-01 \
              -8.3310537234982114E+00    8.9850482084010856E+00   -6.0454830538733830E+00   -6.1843535421934410E+00    1.6105679848971242E+01 \
              -1.1296010087105657E+01   -7.1876550795676071E+00    2.7289909966576331E-01    6.8529299254136040E+00   -1.9851137505961797E-01 \
               3.1155581757417874E+00   -5.7640119226576960E+00   -7.2221676721423185E+00   -1.3043493537903748E+00    5.0893283361438764E+00 \
               1.0886186811155159E+00    4.0935249720809974E+00   -5.3988284414040306E+00    4.7862229143746475E+00   -1.5002797014999216E+00 \
              -2.7250590154972745E+00   -8.2230113880182749E+00   -8.0520281155313705E-02    6.5360738062335315E+00   -4.3640099723564596E+00 \
               5.6967323306480488E-01    4.0811912114154048E-01   -5.9624896582789564E+00   -2.8743936600869051E+00    5.5191768935719772E+00 \
              -4.1981367469683981E+00   -1.6668071711332333E+00    3.4634979753778432E+00   -3.9693228314589941E+00   -4.0835238702023267E+00 \
               1.9052501375938828E+00   -4.9917226723599075E+00   -9.9820074106839973E-01    4.1934767657071710E+00   -5.8221131641304149E+00 \
               1.0183659044465225E+01   -4.8476403419939542E+00   -5.6718663373519735E+00    4.6629653175352583E+00   -9.4095698534533867E-01 \
              -3.1500305195675316E-02   -6.4080352642095850E-01   -2.0527533816599135E+00   -2.2928099757951013E+00    4.6974864809609489E+00 \
              -4.1920805836877655E+00   -3.6935458034000699E+00   -8.4453461596518533E+00    7.0853066662829409E+00   -7.6617938489291184E+00 \
               3.8156940289887751E+00   -2.8016140236827449E+00    7.4448620569670823E+00   -6.0720553214990822E+00    5.2577952620951152E+00 \
               3.2890896313449307E+00   -4.1252357666140327E+00    3.4499396940066140E-01    1.5227025685236590E+00   -3.8468946199551768E-01 \
              -1.7250796442319196E+00   -5.9164537806931854E+00    3.3476762527944404E-01   -8.4997604853961950E-01   -1.0322840235253141E+00 \
               5.6948614546164942E+00   -3.4968640265518753E+00    6.7151172524810923E+00   -4.2281129111704683E+00    7.6145220119644391E-02 \
               9.7986634737355738E-01    2.2161560265461704E+00   -3.0529387755255724E+00   -1.1403885731541203E+01    6.8287485627978946E+00 \
               1.1358853016764074E+00    3.7404950848739351E+00   -3.2855806811007593E+00   -7.5879010036228740E+00   -3.3662259750109937E+00 \
               1.6519821663013028E+00   -1.5784803614689502E-01   -3.4182321226109331E+00   -3.6872411628670334E+00    7.2334500607206769E+00 \
               1.3331046933067503E+00   -2.0546067387348388E+00    2.0046973383033553E-01    3.4470586126665510E+00   -5.2312827425832498E-01 \
              -4.0053646623896748E+00    7.0293996561457730E+00   -1.0044892683970026E+00   -2.8552173253824349E+00    4.5219604934950430E+00 \
               6.3127505366049563E+00   -1.1699440243602000E+01    2.1834161063933744E+00    6.6405772998692414E-01   -1.6893804793656626E+00 \
              -1.0740730674220982E+00   -6.7197544244600849E+00    7.1649759335220446E+00   -1.0520040344424448E+01    1.1863488664950436E+01 \
              -2.0766516509271309E+00   -3.2989837185531932E+00    9.5232715034061748E+00   -9.7803641556553682E+00    3.5789732042262812E+00 \
               8.3686859590993612E-01   -1.0970319980432186E+00    4.4076325853929227E-01    7.5451086844589033E-01   -9.0953929650343240E-02 \
              -1.5229527340681210E+00   -1.2481394833664725E+01    1.2763119906201545E+01    2.2740096714755258E+00   -4.2418719426934608E+00 \
               2.8021945885564135E+00    9.4728750039394214E+00    2.8037359985987567E+00   -1.1936260072392368E+01    6.1895957069593948E+00 \
              -9.3839209484968400E+00    2.2947631240867552E+00    4.8111826262175299E+00    8.0926717250402969E-01   -4.9050536052603464E+00 \
               6.8480088409284958E+00   -1.4646020498588234E+01    5.1339694364395827E+00   -2.9588780389632188E+00   -9.9167825949972954E+00 \
               1.1684842832166364E+01    1.4970021838730772E+00   -1.1867342462941699E+00   -2.1094040399129890E+00    1.2015352259775208E-01 \
               8.6882487409605975E+00   -8.9437859935617574E+00    6.3412984381779358E+00    2.3415427049726532E+00   -8.5815305319724953E+00 \
              -2.1580980533887990E+00    3.4575345282366143E+00    1.2780490893328467E+00    4.6834389362946000E-01    5.0086500036016020E+00 \
              -5.5051072840828725E+00    8.0719099507070258E+00   -1.1304335228503277E+01    5.6473955907717999E+00    3.7351183661268333E-01 \
               1.4130206959344873E+00   -7.0271554760899368E+00   -1.1056382785448621E+01    1.2772383628728130E+01   -1.1143227191317076E+01 \
              -6.4406034824461829E+00    4.4360611431943529E+00   -2.0790857364673250E+00    1.9101597202769933E+00    1.5604629332967869E+01 \
              -1.0502647345432900E+01    1.5378821377133240E+00   -2.4512192254965814E+00   -8.5960720727914763E-01   -2.4957112481750614E+00 \
               3.7205968739900390E+00   -6.3980858611694935E-01   -3.1203222724453961E-01   -8.1993993024251721E-01    3.1661956956776147E+00 \
               8.3129231267197312E+00   -3.0130575013144081E+00   -2.2303144276501943E+00   -5.9879440245689519E+00   -4.2196763438469356E+00 \
               1.7690871334134757E+00    1.9264722280927082E+00    2.0826838654630651E+00    1.1290496883661674E+00    1.5106469341911699E+00 \
              -5.6916242410594560E+00    3.5217952393466665E+00    5.1952700307607680E+00   -6.4082583432441940E+00    2.6459182266628263E+00 \
              -7.1986765970542366E-01   -1.1739099009832396E+01    1.0223712159507391E+01   -1.2519268419539731E+00   -3.2395945029270865E+00 \
               1.8141812907111694E+00    1.0004739421615780E+00   -4.3791335822070315E-01   -7.3895827117222734E-01    4.7772538172377244E-01 \
              -8.8753594767377102E+00    3.9908813356525510E+00    1.1335328326214489E+00    2.6924243637295309E+00   -2.3960839445590798E+00 \
              -1.8161504348887669E-01   -1.5692977982576579E+00   -8.0740739296030728E-01   -4.3772575109010431E-01   -2.7815895069298238E+00 \
               1.8610842418951339E+00   -4.7485740409760446E-01   -7.3985267260379564E+00    7.4352996348021945E+00    1.4780810947138310E+00 \
              -5.8903317079480839E+00    3.0620322992408462E+00   -3.3493363415090167E+00    6.1392288723294968E+00   -6.0086660531015124E+00 \
               8.6810019520211110E+00   -2.2255999218091480E+00   -3.3820168281629117E+00   -3.4984660429486159E-01    9.6717743012466162E+00 \
              -1.0524312432917030E+01   -1.2004234200454757E+01    1.3574199754201636E+01   -8.4835888632848313E+00    5.1872475855336075E+00 \
              -3.5158160727647911E+00   -1.2698991932888297E+00    3.2342341396663969E+00    2.3514751845549329E+00   -3.5476650238553482E+00 \
              -5.8908695131225142E-01   -1.9560787525936703E+00   -1.2411840888832624E+00    7.4760724673112797E+00   -7.8661227768382522E+00 \
               4.3950114955809860E-01   -1.1654320677760797E+00    5.5983155716524848E+00   -7.1490547293461608E+00    2.9068444465988552E-02 \
              -8.2006403099293634E-01   -1.8598578237641632E+00    4.3188506600522336E+00   -8.5824141964253666E+00    5.7391715380213162E+00 \
              -8.7719720102709484E+00    6.1502881029610688E+00   -1.8740581840783674E+00    7.2750762298391858E-01   -4.6659301158750717E+00 \
               4.9546249505921054E+00   -3.6880347643456401E-01    1.1951799363545517E+01   -1.3219185647714275E+01    1.6114414378751287E+00 \
              -2.5528933180438171E+00    2.0148117533233543E+00   -8.9907300589869577E-01    1.7368904829213649E+00   -5.2069795080321315E+00 \
              -1.5426061646785678E+00   -5.3027658798492343E+00    2.7802852040888619E+00    8.5710476921672516E+00   -1.5414927328010100E+01 \
               7.8419629274543459E+00    8.5211912078419205E-01   -4.2890245753909841E+00    5.1400163626181552E+00    8.0611114285226915E+00 \
              -4.7398325797147383E+00   -8.2432445298155066E-01   -4.7718925573889620E-01   -5.3057536102617986E+00    7.4755278718948803E-01 \
              -3.5425116262454903E+00    2.9475129218505769E+00    1.4288186937075920E+00   -1.6450962985502209E+00    1.4149978926344233E+00 \
              -2.8355928880010706E+00    2.7417324645840968E+00   -2.4145862663465123E+00   -3.5939812736314876E+00    3.8559847957345617E-01 \
              -4.3113610587713298E+00    6.3959084553375412E-01   -1.9351191437733701E+00    1.7811862376137362E+00   -3.0755940726946114E+00 \
              -2.9385407206978997E+00    5.5130702915741168E+00   -4.3886387288430520E+00    2.7995480735254503E+00   -2.2339719037921850E+00 \
              -8.9005366300960986E-01    1.9573638857157314E+00   -5.7880735523064581E+00    4.2953654239405283E+00   -4.2043163265875503E+00 \
              -2.4840969552275172E+00    6.0878293302170938E+00    5.5712209431976740E+00   -2.1107618206156850E-02   -3.1494169133160739E+00 \
              -1.9587396811637439E+00    1.0513977604484298E+01   -7.2670222811495062E+00    3.7503742769299016E+00   -3.1590109815018539E+00 \
              -2.6609010491765765E+00   -7.9144847526825988E+00    5.0336300193138186E+00   -1.5380200638367163E+00   -1.6739223279818982E+00 \
               3.1725114381170876E+00   -1.9919396509645315E+00   -3.7123468571615886E-01   -4.3681147288734765E+00    2.4893620352480723E+00 \
               1.5590424358422119E+00   -1.5189671394661366E+00    1.5242102746302288E-01    6.4791516690929143E+00    6.4180991546290320E+00 \
              -1.0493122129254948E+01   -3.2725539297349804E+00   -6.7170737391545163E+00    8.8445354522988424E+00   -4.2274840966122298E+00 \
               2.9170148120081252E-01    2.3968659215570236E+00    7.6063048337538479E+00    4.8257051066935635E+00   -1.2170818638046896E+01 \
               6.9468846450921600E+00    5.2396968509960518E+00   -1.4557919201690236E+01   -2.3770775867799490E+00    7.0849432864733231E-01 \
              -4.0274408411087439E+00    4.8906919109780134E+00   -1.0826367460464750E+01    8.1596823633258193E+00   -1.8177774435169147E+00 \
               7.0619855782397352E+00   -7.7059590266757940E+00   -1.5037261269831856E+00    2.9976935188688332E+00   -1.2279315411061749E+00 \
               1.2180108895636563E+01   -5.6227294105043404E+00   -5.0587109633195499E+00    4.3080340722282164E+00   -1.4747818051174151E+00 \
              -4.0334339659693415E+00   -5.6601582335982767E+00    2.5948320788662405E-01    1.7115230450673871E+00   -9.3304293550766211E+00 \
               5.4440226691561486E+00   -7.2513674015964369E-01    5.2015578920740895E+00   -2.1264518308962908E+00   -2.1313322386095850E+00 \
              -3.3674506048909287E+00    2.3225343213013847E+00    4.8980441969889876E-01    8.7134648980193918E-01   -3.3545404082397305E+00 \
               2.1597701109876846E-01    6.7552393452324120E+00   -5.5194480968507760E+00    2.4914122371835745E+00    1.6423357533074960E+00 \
              -9.3709057489073739E+00    5.5369494476122956E+00   -1.9165899258885022E+00    3.4141055165267713E+00   -3.0656059633063153E+00 \
               2.9713098255528378E+00   -6.4173958331723568E-01   -8.8524065340566241E-02    7.7347597312816907E+00   -1.4958611142484907E-01 \
              -6.8409191553762412E+00   -3.9172317874218816E+00    1.2131371620403911E+01   -1.7195879502194074E+01    1.4708330046603099E-01 \
               3.1327840240973455E+00   -4.1325580218474478E+00    6.2783272130281687E-01   -4.7373728305816982E+00    5.1687429360423058E+00 \
              -4.0820011125828461E+00    1.8167629640039795E+00    9.7080725552139469E-01   -1.0658880899564593E+00   -4.7866873090242503E+00 \
               5.5911366495309744E+00   -2.6516687913219692E+00    6.6034679083964196E+00    9.6857550032580786E-05   -9.7019557479045571E-01 \
              -2.8361573464033016E+00    4.0939525903993408E+00   -1.7114570283836317E+00   -7.2367859804720185E+00    8.0272185308513002E+00 \
              -1.8705369751809071E+00   -4.8070609353867182E+00    3.3803785836007019E+00   -3.1257121151594536E+00    5.6172555540416225E+00 \
              -6.0079510959352236E+00   -6.0107719195221598E-01    1.7918919751039410E+00    1.1401762236895499E-01   -1.9223677683391557E-01 \
              -1.3454744028314698E+00   -4.1481818044758262E-01   -1.2158513110214317E+00   -3.2466030847333118E+00    2.3135722085832948E+00 \
               6.9362366381902492E+00   -2.6290395907180804E+00   -4.2112112536077495E+00    2.9373218377009569E+00    1.6948004806668933E+00 \
              -2.6158747139236014E+00   -1.8334158341458808E+00   -5.1836407680155661E-01    1.3988757930335325E+00    1.7414721650010305E+00 \
              -1.6009791047941613E+00    3.7602920378825705E-01    8.4717635032096472E-01   -9.2478919252829304E+00    4.1761606968876528E+00 \
               5.2656825275557004E+00   -1.2781228450567721E+01    8.3592327091548970E+00   -2.2241570052926649E+00   -9.1715420381181332E+00 \
               9.5148832527357214E+00    2.2029982827096659E+00   -4.9516490274967557E+00    3.3777898849692738E+00   -2.9510410498151889E+00 \
              -5.9831887476553353E-02    1.6416225657693539E+00   -8.7285049427652106E-01    1.2479024567784445E+00   -3.1995198221414052E+00 \
               3.3059421042980155E+00   -5.8908703368762874E+00    4.5334592612553037E-01   -3.1226287532177848E+00   -6.8153767822930433E-01 \
               1.3402682824837797E+00    4.5576653786457166E-01   -7.3954078952957514E-01   -2.4064915723801053E-01   -1.8391063143327142E+00 \
               4.8038469524558092E-01   -5.6522915553715447E-01    9.7286182115962461E-01   -7.8919515077600710E+00    3.2874739663454675E+00 \
               2.9298741330635423E+00    6.5006549646521017E-01   -3.8157049914220158E+00    1.3321157700495129E-01   -3.2582790329204903E+00 \
               1.8427236475109021E+00   -5.6032004720743771E+00   -2.2590582512515489E+00    6.6937199485160486E+00   -1.0174623205086100E+00 \
               4.8087803036998711E+00   -4.2407463117208648E+00    4.1168975058971755E+00    3.7654164239366916E+00   -8.5006881156666179E+00 \
              -2.1256775826485139E+00    8.2420337093461515E-01    4.0939635886844927E+00    4.3821660338511204E-01   -2.5030590690225036E+00 \
              -9.7490062543350597E-01    3.8750885198354446E-01    2.8614866722501469E+00   -2.3475018668629328E+00   -3.2867904458245718E+00 \
              -8.2783598715659803E+00    3.2454860907412293E+00   -4.2207320219396205E-01   -3.8791510397250422E+00    3.7984856010144088E+00 \
               1.8758406037945072E+00    1.4161271444996776E-01   -2.9561578180614450E+00   -2.5042051054364349E+00   -4.3173069159003470E+00 \
               4.3071438750373243E+00   -1.5299378443847153E-01    1.1879227966563677E+00   -7.6540204704430692E-01    3.9468997197734632E+00 \
              -2.7730328120576742E+00    2.6727179169266327E-02   -3.7733350606802940E+00   -4.4486836211326484E+00    6.4252728126432421E+00 \
               2.9732135786507072E+00   -5.1937935381908344E+00    3.9812659688818299E+00   -4.5605896834136885E+00   -3.2366843156673371E+00 \
               3.3572546642454077E+00   -1.0690934494358553E+00    6.3187576268216050E+00   -6.9105802769380311E+00    1.6635853247964993E+00 \
              -1.6367648651185753E+00    1.4482494767416315E-01    7.6260771319648457E-01   -5.2438794484552993E+00    2.5977485345369051E+00 \
               3.3416079491681827E-01    4.6003382368065733E+00   -5.0036787261390687E+00    7.9714549721802799E+00   -8.1858969251113567E-01 \
              -5.9374554918466371E+00   -1.6812342058296198E-01   -6.7536082478351434E+00    2.7676145302751154E+00   -1.0666665053338886E-01 \
               5.7818880344248074E+00   -6.5722182841884802E+00   -3.8185498350481777E+00    1.7065530387773888E+00   -1.9045759615072324E+00 \
              -6.3199893480161529E-01    7.7765247699792477E+00   -6.0252444715554949E+00    1.9659572897867377E+00   -1.0242138104065461E+00 \
              -3.0428541667670874E+00   -1.6989928298077492E+00   -3.4423627209327354E+00    1.9232833309056190E+00    5.4463712540039211E+00 \
              -4.3780761430520787E-01   -5.7567869917858969E+00   -2.4448413445065982E+00   -1.3127011322249762E+00    5.5996307764763253E-01 \
              -3.7452421049214815E+00   -7.0936387144516933E-01    4.3104003428372772E+00   -2.2888542752629473E+00   -1.6310205935224817E+00 \
               1.0503859977599632E+00   -2.2710176818976340E+00   -1.2636672280545227E+00    2.9040988779630355E+00   -2.2039211353031574E+00 \
               3.3072281830877820E-01    1.7668504023801257E+00   -2.9157324298553355E-01    2.3413565687680209E+00   -6.0163891193895802E+00 \
              -3.5500183584724430E+00    6.1770204422838049E+00   -5.8740441532038279E+00   -1.3105432640463726E+00   -7.3356775034350745E+00 \
               6.1933888665324597E+00   -6.1762975747703619E-01   -2.6610398558945163E+00    1.4264603960768474E+00   -2.5233675839840894E+00 \
               8.1192716888095369E+00   -7.5010680763927837E+00    2.3939268792191182E-01   -7.9059721736780730E-01    2.4330535665370775E-01 \
               1.0899980229309878E+00   -4.5493033006079457E+00    2.9427340118430703E+00    2.7489488532813113E+00   -1.6894408764606270E+00 \
              -2.1789893831020515E-01   -1.0947801756333340E+00   -4.9829340105907738E+00    5.5175156598615231E+00   -1.3672414917944558E+00 \
              -1.3555626072295548E+00    1.9546733968617451E+00   -1.4555558228700045E+00   -4.7430757490231183E+00    4.7332558562279070E+00 \
               1.6808944799158583E+00    5.9818063990977688E-01   -4.8004867402275835E+00   -4.2304678664364648E+00   -3.1914495311586615E+00 \
               5.6567625777426027E+00    8.9167295319308426E-01    1.8862105129991067E+00   -4.0401690539993194E+00    1.8914389562328002E+00 \
              -2.6394464997661289E+00    1.6019694665520073E-01    3.0222419852579083E+00   -6.7994728225733665E+00    6.0387968803277756E+00 \
              -1.9100611807370800E+00    5.5512585445113471E-01   -5.2457920243384204E-01    3.6614871589271591E+00   -1.0103737179328263E+01 \
               7.7862185429276165E+00    2.0661572016753524E+00    7.5090294264510780E+00   -1.1264031692978584E+01   -1.8762036281626573E+00 \
              -2.8171532431231210E+00   -9.2062268905941580E-01   -1.8843941500567257E-01    5.9462894522311736E+00   -5.8682958369280511E+00 \
               1.6194207889179343E-02   -1.0913640776977793E+01    1.0431235286127858E+01    1.1424981033028845E+00    1.2023695342629679E+00 \
              -2.3588369247930627E+00    1.7554861495435856E+00   -2.2686093073245024E+00   -4.9207094026710800E+00    2.5055931399737936E+00 \
              -2.9861197253837246E+00   -1.9517626676418687E-01    1.7412116923150041E+00   -7.6493389655348771E+00    4.2097289585437636E+00 \
              -2.6445891433019963E+00   -1.0661908791516897E+01    1.1893760130092787E+01    4.0406562676021593E+00    3.3970080456614351E+00 \
              -8.0665680975232341E+00   -5.1749844954384079E+00   -2.2778973761241326E+00    1.7627203877093813E+00   -2.2230760995798233E+00 \
              -3.0546264813186941E+00    5.2886367210435505E+00   -2.7462543070787953E+00    7.6098521833659056E+00   -5.0558800223506593E+00
         &END COORD
         &VELOCITY
               5.6571448001847989E-03   -4.5566704727784929E-02   -9.9684017154577226E-03    3.1580582444696199E-02 \
              -1.1377422806954720E-02   -1.1818961994651204E-03    2.4958738037303800E-02    1.1758945828720963E-02    9.0215084182083249E-03 \
              -4.9058082901866175E-02    2.7848826761659014E-02    3.2693824100495220E-02   -8.8593793668687495E-03   -2.9655636630955633E-03 \
              -3.2690675243155443E-02   -4.7511962384739988E-02    1.6493568961308758E-02    2.1492648694284178E-02    7.9369332839567507E-03 \
              -5.4024363859878854E-02   -3.6025288537220722E-02   -2.0133452220199025E-02    2.2823536147158870E-02   -4.5199321721173649E-02 \
               3.8923278589202671E-02   -4.1272897173834982E-03    4.7458744950782724E-03   -1.2746299457775365E-02   -7.3466058325365527E-02 \
               1.3380127399951550E-03   -3.0528052570310070E-02   -1.6169625590276675E-02    9.1855471525377954E-03    2.3291464107672698E-02 \
              -2.7106272314703313E-02   -2.3800590585569808E-03   -1.7595275719469179E-02   -2.1185205180316892E-02    6.4774499149439259E-03 \
               2.1906354358393984E-02   -6.7661108355879128E-03   -1.6878881324600262E-02   -9.4496786783093960E-03   -4.2247990053320521E-03 \
              -1.4224318993810070E-02    2.4571355061208146E-02    7.2913014992052111E-03   -2.2088744876138565E-02    1.2513632938594189E-02 \
               1.1587060731512543E-02    1.2056087667978704E-03   -2.7172238374217485E-02   -1.5935611724761174E-02    3.0580044685151282E-03 \
               3.9022370065169608E-03   -9.6273767967341058E-03    1.6811401777171362E-02    8.0593237429838465E-03    3.6755969977424321E-02 \
               2.0415835515405489E-02    4.6939189172307945E-02   -2.2204449423573677E-02   -1.7588580659688184E-03   -3.7029823648368392E-03 \
               2.5525777662085657E-02    2.9687510848753970E-02   -5.4284731082975268E-03   -1.0546254369698171E-02    2.7501760448556432E-02 \
               2.7357925496179564E-02   -2.4654621045893207E-02    8.8519137382992007E-03   -2.4637601575910528E-03   -1.2381548443229903E-02 \
              -1.1239807045406846E-02    2.4654321218423623E-02    2.6434930610578691E-02   -3.7440349878928949E-03   -8.5472068973347567E-03 \
              -2.8286662608371066E-02   -3.3192391164662480E-02   -4.4131408595949592E-02   -8.9110903676485331E-03    2.6416659085130204E-02 \
              -2.3772824583025647E-02   -2.3730316943006502E-03    2.1104515542412904E-02   -5.1456637011625096E-02   -5.8836669179926082E-03 \
              -4.3545902086743128E-04   -1.7942486648014899E-02   -1.6224406387829703E-02   -7.9196285991369429E-03    1.5353179532963834E-02 \
               1.1337104408936115E-02    1.1568474540089607E-02    1.8709945485982125E-02    5.9033714245169469E-02    1.4432787663149363E-02 \
              -1.1481394496098057E-02   -1.2117646679266555E-02    2.5581166428903540E-02    3.0172068445564030E-02    1.4765990695597557E-02 \
               3.2339515612759412E-02   -3.7869886381077335E-02   -7.9202395880553118E-03    2.4977652982595421E-02    1.7747995530713434E-02 \
              -3.2884208089228512E-02   -9.8454373328132321E-03    8.9599733628448388E-03   -1.8113848659829335E-02   -4.0151883733037665E-02 \
              -1.1446122592534604E-02    1.8019649526096967E-02   -1.5554511872903166E-02    6.9953954416295920E-03   -1.3875103721701001E-02 \
               2.8175795582407379E-02    2.3490644655454626E-02    4.9326262504163741E-02   -1.9245668605089084E-02    1.7091459846952827E-02 \
              -2.1650684435997471E-02   -1.7198227847086994E-02   -2.1569902289469187E-02    3.7685453986993876E-02    1.7707589308012454E-03 \
              -3.2675566578947116E-02    3.6077599931363738E-02    2.6537770253688454E-03    2.2230225341993409E-02    7.1259072613802044E-02 \
               3.3933085330451328E-02   -1.9207889404758163E-02    1.3336017210378021E-02   -2.9131112839798898E-02    6.7150490314324116E-02 \