&GLOBAL
  PROJECT bn_test
  RUN_TYPE DEBUG 
  PRINT_LEVEL LOW
&END GLOBAL

&FORCE_EVAL
  METHOD QS
  &PROPERTIES
    &TDDFPT
       KERNEL FULL
       RKS_TRIPLETS F
       NSTATES      1
       MAX_ITER    50
       CONVERGENCE [eV] 1.0e-8
    &END TDDFPT
  &END PROPERTIES
  &DFT
    BASIS_SET_FILE_NAME GTH_BASIS_SETS
    POTENTIAL_FILE_NAME POTENTIAL_UZH
    &QS
      METHOD GAPW
      FORCE_PAW
      EPS_DEFAULT 1.E-10
      EPSFIT      1.E-4
      EPSISO      1.E-12
      EPSRHO0     1.E-6
      LMAXN0      4
      GAPW_1C_BASIS EXT_SMALL
    &END QS
    &EXCITED_STATES T
       STATE 1
       DEBUG_FORCES T
    &END EXCITED_STATES

    &MGRID
      CUTOFF 240
      REL_CUTOFF 60
    &END MGRID

    &SCF
       SCF_GUESS ATOMIC
       EPS_SCF   1.E-6
       MAX_SCF   30
    &END SCF

    &XC
      &XC_FUNCTIONAL PADE
      &END XC_FUNCTIONAL
    &END XC

  &END DFT

  &SUBSYS
    &CELL
       ABC    5.00  5.00  5.00
       PERIODIC NONE
    &END CELL
    &COORD
      N      0.000000    0.000000    0.737566
      B      0.000000    0.000000   -0.567357
      H      0.000000    1.056538   -1.163089
      H     -0.000000   -1.056538   -1.163089
    &END COORD

    &KIND H
      BASIS_SET DZV-GTH
      POTENTIAL GTH-GGA-q1
    &END KIND

    &KIND B
      BASIS_SET DZVP-GTH
      POTENTIAL GTH-GGA-q3
    &END KIND

    &KIND N
      BASIS_SET DZVP-GTH
      POTENTIAL GTH-GGA-q5
    &END KIND

  &END SUBSYS

&END FORCE_EVAL

&DEBUG
   DEBUG_FORCES .TRUE.
   DEBUG_STRESS_TENSOR .FALSE.
   DEBUG_DIPOLE .FALSE.
   DEBUG_POLARIZABILITY .FALSE.
   CHECK_ATOM_FORCE   1 z
   STOP_ON_MISMATCH  T
   DE 0.001 
&END     


