&GLOBAL
  PRINT_LEVEL LOW
  PROJECT bn_test
  RUN_TYPE DEBUG
&END GLOBAL

&DEBUG
  CHECK_ATOM_FORCE 1 z
  DE 0.001
  DEBUG_DIPOLE .FALSE.
  DEBUG_FORCES .TRUE.
  DEBUG_POLARIZABILITY .FALSE.
  DEBUG_STRESS_TENSOR .FALSE.
  STOP_ON_MISMATCH T
&END DEBUG

&FORCE_EVAL
  METHOD QS
  &DFT
    BASIS_SET_FILE_NAME GTH_BASIS_SETS
    POTENTIAL_FILE_NAME POTENTIAL_UZH
    &EXCITED_STATES T
      DEBUG_FORCES T
      STATE 1
    &END EXCITED_STATES
    &MGRID
      CUTOFF 240
      REL_CUTOFF 60
    &END MGRID
    &QS
      EPSFIT 1.E-4
      EPSISO 1.E-12
      EPSRHO0 1.E-6
      EPS_DEFAULT 1.E-10
      FORCE_PAW
      GAPW_1C_BASIS EXT_SMALL
      LMAXN0 4
      METHOD GAPW
    &END QS
    &SCF
      EPS_SCF 1.E-6
      MAX_SCF 30
      SCF_GUESS ATOMIC
    &END SCF
    &XC
      &XC_FUNCTIONAL PADE
      &END XC_FUNCTIONAL
    &END XC
  &END DFT
  &PROPERTIES
    &TDDFPT
      CONVERGENCE [eV] 1.0e-8
      KERNEL FULL
      MAX_ITER 50
      NSTATES 1
      RKS_TRIPLETS F
    &END TDDFPT
  &END PROPERTIES
  &SUBSYS
    &CELL
      ABC 5.00 5.00 5.00
      PERIODIC NONE
    &END CELL
    &COORD
      N      0.000000    0.000000    0.737566
      B      0.000000    0.000000   -0.567357
      H      0.000000    1.056538   -1.163089
      H     -0.000000   -1.056538   -1.163089
    &END COORD
    &KIND H
      BASIS_SET DZV-GTH
      POTENTIAL GTH-GGA-q1
    &END KIND
    &KIND B
      BASIS_SET DZVP-GTH
      POTENTIAL GTH-GGA-q3
    &END KIND
    &KIND N
      BASIS_SET DZVP-GTH
      POTENTIAL GTH-GGA-q5
    &END KIND
  &END SUBSYS
&END FORCE_EVAL
