&FORCE_EVAL
  METHOD Quickstep
  &PROPERTIES
    &TDDFPT
       KERNEL FULL
       RKS_TRIPLETS F
       NSTATES      1
       MAX_ITER    50
       CONVERGENCE [eV] 1.0e-06
    &END TDDFPT
  &END PROPERTIES
  &DFT
    BASIS_SET_FILE_NAME BASIS_SET
    BASIS_SET_FILE_NAME BASIS_ADMM
    POTENTIAL_FILE_NAME GTH_POTENTIALS
    &AUXILIARY_DENSITY_MATRIX_METHOD
        ADMM_PURIFICATION_METHOD NONE
        METHOD BASIS_PROJECTION
        EXCH_SCALING_MODEL NONE
        EXCH_CORRECTION_FUNC NONE
    &END
    &MGRID
      CUTOFF 180
      REL_CUTOFF 40
    &END MGRID
    &QS
      METHOD GAPW
      EPS_DEFAULT 1.E-10
    &END QS
    &EXCITED_STATES T
       STATE 1
       DEBUG_FORCES T
    &END EXCITED_STATES
    &SCF
      SCF_GUESS ATOMIC
      &OT
         PRECONDITIONER FULL_ALL
         MINIMIZER DIIS
         STEPSIZE 0.01
      &END
      &OUTER_SCF
         MAX_SCF  10
         EPS_SCF 1.0E-7
      &END
      MAX_SCF  10
      EPS_SCF 1.0E-7
    &END SCF
    &XC
      &XC_FUNCTIONAL PBE0 
      &END XC_FUNCTIONAL
      &HF
         &SCREENING
            SCREEN_P_FORCES F
         &END SCREENING
      &END HF
    &END XC
    &PRINT
      &MOMENTS ON
         PERIODIC .FALSE.
         REFERENCE COM
      &END
    &END
    &POISSON
       PERIODIC NONE
       POISSON_SOLVER MT
    &END
  &END DFT
  &SUBSYS
    &CELL
      ABC [angstrom]  5.0  5.0  5.0
      PERIODIC NONE
    &END
    &COORD
C          0.0000000000        0.0000000000       -0.5265526741
O          0.0000000000        0.0000000000        0.6555124750
H          0.0000000000       -0.9325664988       -1.1133424527
H          0.0000000000        0.9325664988       -1.1133424527
    &END COORD
    &TOPOLOGY
     &CENTER_COORDINATES
     &END
    &END
    &KIND H
      BASIS_SET DZVP-GTH-PADE
      BASIS_SET AUX_FIT cFIT3
      POTENTIAL GTH-PADE-q1
    &END KIND
    &KIND C
      BASIS_SET DZVP-GTH-PADE
      BASIS_SET AUX_FIT cFIT3
      POTENTIAL GTH-PADE-q4
    &END KIND
    &KIND O
      BASIS_SET DZVP-GTH-PADE
      BASIS_SET AUX_FIT cFIT3
      POTENTIAL GTH-PADE-q6
    &END KIND
  &END SUBSYS
&END FORCE_EVAL
&GLOBAL
  PRINT_LEVEL LOW
  PROJECT cc02
  RUN_TYPE DEBUG
&END GLOBAL

&DEBUG
   DEBUG_FORCES .TRUE.
   DEBUG_STRESS_TENSOR .FALSE.
   DEBUG_DIPOLE .FALSE.
   DEBUG_POLARIZABILITY .FALSE.
   CHECK_ATOM_FORCE   1 z
   STOP_ON_MISMATCH  T
   DE 0.001
   MAX_RELATIVE_ERROR  0.05
&END
