&FORCE_EVAL
  METHOD Quickstep
  &PROPERTIES
    &TDDFPT
       KERNEL FULL
       &XC
         &XC_FUNCTIONAL PBE
         &END XC_FUNCTIONAL
       &END XC
       NSTATES      1
       MAX_ITER    50
       CONVERGENCE [eV] 1.0e-8
    &END TDDFPT
  &END PROPERTIES
  &DFT
    BASIS_SET_FILE_NAME BASIS_SET
    POTENTIAL_FILE_NAME GTH_POTENTIALS
    &MGRID
      CUTOFF 200
      REL_CUTOFF 60
    &END MGRID
    &QS
      METHOD GAPW
      EPS_DEFAULT 1.E-10
    &END QS
    &EFIELD
    &END
    &EXCITED_STATES T
       STATE 1
       DEBUG_FORCES T
    &END EXCITED_STATES
    &SCF
      SCF_GUESS RESTART
      &OT
         PRECONDITIONER FULL_SINGLE_INVERSE
         MINIMIZER DIIS
         STEPSIZE 0.1
      &END
      &OUTER_SCF
         MAX_SCF  20
         EPS_SCF 1.0E-6
      &END
      MAX_SCF  20
      EPS_SCF 1.0E-6
    &END SCF
    &XC
      &XC_FUNCTIONAL PBE
      &END XC_FUNCTIONAL
    &END XC
    &POISSON
       PERIODIC NONE
       POISSON_SOLVER MT
    &END
  &END DFT
  &SUBSYS
    &CELL
      ABC [angstrom] 5.0 5.0 5.0
      PERIODIC NONE
    &END
    &COORD
    O   1.000000    0.000000   0.000000
    H   0.000000   -0.00    0.520545
    H   0.000000    0.52    0.520545
    &END COORD
    &TOPOLOGY
     &CENTER_COORDINATES
     &END
    &END
    &KIND H
      BASIS_SET DZVP-GTH-PADE
      POTENTIAL GTH-PADE-q1
    &END KIND
    &KIND C
      BASIS_SET DZVP-GTH-PADE
      POTENTIAL GTH-PADE-q4
    &END KIND
    &KIND O
      BASIS_SET DZVP-GTH-PADE
      POTENTIAL GTH-PADE-q6
    &END KIND
  &END SUBSYS
&END FORCE_EVAL
&GLOBAL
  PRINT_LEVEL LOW
  PROJECT td_dipole
  RUN_TYPE DEBUG
&END GLOBAL

&DEBUG
   DEBUG_FORCES .TRUE.
   DEBUG_STRESS_TENSOR .FALSE.
   DEBUG_DIPOLE .FALSE.
   DEBUG_POLARIZABILITY .FALSE.
   CHECK_ATOM_FORCE   1 x
   CHECK_ATOM_FORCE   3 y
   DE 0.001
   MAX_RELATIVE_ERROR 0.30
&END
