&GLOBAL
  PRINT_LEVEL LOW
  PROJECT td_dipole
  RUN_TYPE DEBUG
&END GLOBAL

&DEBUG
  CHECK_ATOM_FORCE 3 y
  DE 0.001
  DEBUG_DIPOLE .FALSE.
  DEBUG_FORCES .TRUE.
  DEBUG_POLARIZABILITY .FALSE.
  DEBUG_STRESS_TENSOR .FALSE.
  MAX_RELATIVE_ERROR 0.30
&END DEBUG

&FORCE_EVAL
  METHOD Quickstep
  &DFT
    BASIS_SET_FILE_NAME BASIS_SET
    POTENTIAL_FILE_NAME GTH_POTENTIALS
    &EFIELD
    &END EFIELD
    &EXCITED_STATES T
      DEBUG_FORCES T
      STATE 1
    &END EXCITED_STATES
    &MGRID
      CUTOFF 180
      REL_CUTOFF 40
    &END MGRID
    &POISSON
      PERIODIC NONE
      POISSON_SOLVER MT
    &END POISSON
    &QS
      EPS_DEFAULT 1.E-10
      METHOD GAPW
    &END QS
    &SCF
      EPS_SCF 1.0E-6
      MAX_SCF 20
      SCF_GUESS RESTART
      &OT
        MINIMIZER DIIS
        PRECONDITIONER FULL_SINGLE_INVERSE
        STEPSIZE 0.1
      &END OT
      &OUTER_SCF
        EPS_SCF 1.0E-6
        MAX_SCF 20
      &END OUTER_SCF
    &END SCF
    &XC
      &XC_FUNCTIONAL PBE
      &END XC_FUNCTIONAL
    &END XC
  &END DFT
  &PROPERTIES
    &TDDFPT
      CONVERGENCE [eV] 1.0e-8
      KERNEL FULL
      MAX_ITER 50
      NSTATES 1
      &XC
        &XC_FUNCTIONAL PBE
        &END XC_FUNCTIONAL
      &END XC
    &END TDDFPT
  &END PROPERTIES
  &SUBSYS
    &CELL
      ABC [angstrom] 4.5 4.5 4.5
      PERIODIC NONE
    &END CELL
    &COORD
      O   1.000000    0.000000   0.000000
      H   0.000000   -0.00    0.520545
      H   0.000000    0.52    0.520545
    &END COORD
    &KIND H
      BASIS_SET DZVP-GTH-PADE
      POTENTIAL GTH-PADE-q1
    &END KIND
    &KIND C
      BASIS_SET DZVP-GTH-PADE
      POTENTIAL GTH-PADE-q4
    &END KIND
    &KIND O
      BASIS_SET DZVP-GTH-PADE
      POTENTIAL GTH-PADE-q6
    &END KIND
    &TOPOLOGY
      &CENTER_COORDINATES
      &END CENTER_COORDINATES
    &END TOPOLOGY
  &END SUBSYS
&END FORCE_EVAL
