&FORCE_EVAL
  METHOD Quickstep
  &PROPERTIES
    &TDDFPT
       KERNEL FULL
       NSTATES      1
       MAX_ITER    50
       CONVERGENCE [eV] 1.0e-7
       &XC
         &XC_FUNCTIONAL PADE
         &END XC_FUNCTIONAL
       &END XC
    &END TDDFPT
  &END PROPERTIES
  &DFT
    BASIS_SET_FILE_NAME BASIS_SET
    POTENTIAL_FILE_NAME GTH_POTENTIALS
    &MGRID
      CUTOFF 200
    &END MGRID
    &QS
      METHOD GAPW
      EPS_DEFAULT 1.E-10
    &END QS
    &EXCITED_STATES T
       STATE 1
       DEBUG_FORCES T
    &END EXCITED_STATES
    &SCF
      SCF_GUESS ATOMIC
      &OT
         PRECONDITIONER FULL_ALL
         MINIMIZER DIIS
         STEPSIZE 0.1
      &END
      &OUTER_SCF
         MAX_SCF  10
         EPS_SCF 1.0E-6
      &END
      MAX_SCF  10
      EPS_SCF 1.0E-6
    &END SCF
    &XC
      &XC_FUNCTIONAL PBE
      &END XC_FUNCTIONAL
    &END XC
    &POISSON
       PERIODIC NONE
       POISSON_SOLVER MT
    &END
  &END DFT
  &SUBSYS
    &CELL
      ABC [angstrom] 6.0 6.0 6.0
      PERIODIC NONE
    &END
    &COORD
  O  0.000000 0.000000  0.000000
  H  0.000000 0.758602  0.504284
  H  0.000000 0.758602 -0.504284
    &END COORD
    &TOPOLOGY
     &CENTER_COORDINATES
     &END
    &END
    &KIND H
      BASIS_SET DZVP-GTH-PADE
      POTENTIAL GTH-PADE-q1
    &END KIND
    &KIND O
      BASIS_SET DZVP-GTH-PADE
      POTENTIAL GTH-PADE-q6
    &END KIND
  &END SUBSYS
&END FORCE_EVAL
&GLOBAL
  PRINT_LEVEL LOW
  PROJECT td_force 
  RUN_TYPE DEBUG
&END GLOBAL

&DEBUG
   DEBUG_FORCES .TRUE.
   DEBUG_STRESS_TENSOR .FALSE.
   CHECK_ATOM_FORCE   1 z
   STOP_ON_MISMATCH  T
&END
 

