&GLOBAL
  PRINT_LEVEL LOW
  PROJECT TiCO4
  RUN_TYPE ENERGY
&END GLOBAL

&FORCE_EVAL
  &DFT
    CHARGE 0
    MULTIPLICITY 1
    &QS
      METHOD xTB
      &XTB
        DO_EWALD F
        GFN_TYPE 0
        VDW_POTENTIAL DFTD4
      &END XTB
    &END QS
    &SCF
      ADDED_MOS -1 -1
      SCF_GUESS NONE
      &SMEAR ON
        ELECTRONIC_TEMPERATURE 300
        METHOD Fermi_Dirac
      &END SMEAR
    &END SCF
  &END DFT
  &SUBSYS
    &CELL
      ABC 15 15 15
      PERIODIC NONE
    &END CELL
    &COORD
      Ti       8.50000000       8.50000000       8.50000000
      C       9.69175793       7.30824207       9.69175793
      C       7.30824207       9.69175793       9.69175793
      C       7.30824207       7.30824207       7.30824207
      C       9.69175793       9.69175793       7.30824207
      O      10.36425999       6.63574001      10.36425999
      O       6.63574001      10.36425999      10.36425999
      O       6.63574001       6.63574001       6.63574001
      O      10.36425999      10.36425999       6.63574001
    &END COORD
    &TOPOLOGY
      &CENTER_COORDINATES T
      &END CENTER_COORDINATES
    &END TOPOLOGY
  &END SUBSYS
&END FORCE_EVAL
