&FORCE_EVAL
  METHOD QS
  &DFT
    &PRINT
       &MOMENTS
       &END
    &END
    &MGRID
      CUTOFF 100
    &END MGRID
    &QS
       EPS_DEFAULT 1.0E-10
    &END QS
    &SCF
      NROW_BLOCK 24
      NCOL_BLOCK 24
      &OUTER_SCF
         EPS_SCF 1.0E-0
         MAX_SCF 45
      &END OUTER_SCF
      SCF_GUESS ATOMIC	
      EPS_SCF 1.0E-0
      MAX_SCF  45
      &OT
        PRECONDITIONER FULL_SINGLE_INVERSE 
      &END
    &END SCF
    &XC
      &XC_FUNCTIONAL PBE
      &END XC_FUNCTIONAL
    &END XC
  &END DFT
  &SUBSYS
    &CELL
    ABC 8.0   10.0000000  12.0000
    &END CELL
    &COORD
Ti    -1.937119     5.946676    -8.046348
    &END COORD
     &KIND Ti
       &BASIS
 7
 2 0 0 4 2
  0.3894698463070000E+01  0.4838166690390000E+00  0.9369643552699999E-01
  0.1513588828959000E+01 -0.6663079240080000E+00 -0.2489289155220000E+00
  0.5967680798360000E+00 -0.7344768524960000E+00 -0.4449705250490000E+00
  0.2399105905820000E+00  0.4829457892900000E-01  0.2993367099150000E+00
 2 0 0 1 1
  0.1062220289090000E+00  0.1000000000000000E+01
 2 1 1 4 1
  0.7884569925997000E+01 -0.1090855982550000E+00
  0.3894698463070000E+01  0.1025068983360000E+00
  0.1513588828959000E+01  0.5265586973920000E+00
  0.6064394158930000E+00  0.4655523317300000E+00
 2 1 1 1 1
  0.1728385349550000E+00  0.1000000000000000E+01
 2 2 2 1 1
  0.5200332967927000E+01  0.1000000000000000E+01
 2 2 2 1 1
  0.1565652045536000E+01  0.1000000000000000E+01
 2 2 2 1 1
  0.4384980569850000E+00  0.1000000000000000E+01
         # Basis set name:  MOD-DZVP-GTH  for symbol:  TI
         # Basis set read from the basis set filename: HFX_BASIS
       &END BASIS
POTENTIAL GTH
       &POTENTIAL
 4 6 2
  0.3800000000000000E+00 2  0.8711442180000001E+01 -0.7002867699999999E+00
 3
  0.3377707800000000E+00 2  0.2575263860000000E+01  0.3692970650000000E+01
 -0.4767604610000000E+01
  0.2425313500000000E+00 2 -0.4630541230000000E+01  0.8870875010000001E+01
 -0.1049616087000000E+02
  0.2433169400000000E+00 1 -0.9406652680000001E+01
         # Potential name:  GTH-PBE-Q12  for symbol:  TI
         # Potential read from the potential filename: POTENTIAL
       &END POTENTIAL
     &END KIND
  &END SUBSYS
&END FORCE_EVAL
&GLOBAL
  PROJECT bug_ai_moments
  RUN_TYPE ENERGY
  PRINT_LEVEL LOW
&END GLOBAL
