&GLOBAL
  PROJECT water512
  RUN_TYPE debug
&END GLOBAL

&DEBUG
  DEBUG_STRESS_TENSOR F
&END DEBUG

&FORCE_EVAL
  METHOD FIST
  &MM
    &FORCEFIELD
      PARMTYPE CHM
      PARM_FILE_NAME ../sample_pot/water.pot
      &CHARGE
        ATOM OT
        CHARGE -0.8476
      &END CHARGE
      &CHARGE
        ATOM HT
        CHARGE 0.4238
      &END CHARGE
    &END FORCEFIELD
    &PERIODIC_EFIELD
      DISPLACEMENT_FIELD T
      D_FILTER 1. 1. 1.
      INTENSITY 1.0
      POLARISATION 1. 1. 1.
    &END PERIODIC_EFIELD
    &POISSON
      &EWALD
        ALPHA .44
        EWALD_TYPE spme
        GMAX 24
        O_SPLINE 6
      &END EWALD
    &END POISSON
  &END MM
  &SUBSYS
    &CELL
      ABC 24.955 24.955 24.955
    &END CELL
    &TOPOLOGY
      COORDINATE pdb
      COORD_FILE_NAME ../sample_pdb/water_1.pdb
    &END TOPOLOGY
  &END SUBSYS
&END FORCE_EVAL
