&GLOBAL
  PROJECT_NAME               H2O
  RUN_TYPE                   PINT
  PRINT_LEVEL                MEDIUM
&END GLOBAL

&MOTION
  &PINT
    P                        4
    PROC_PER_REPLICA         1
    NUM_STEPS                4
    TEMP                    50.0
    T_TOL                    0.0
    DT                       0.5
    NRESPA                   2
    TRANSFORMATION           NORMAL
    &NORMALMODE
      MODEFACTOR             1.0
      Q_BEAD                -1.0
      Q_CENTROID            -1.0
    &END NORMALMODE
    &NOSE
      NNOS                   3
    &END NOSE
    &INIT
      RANDOMIZE_POS          F
      CENTROID_SPEED         F
    &END INIT
  &END PINT
&END MOTION

&FORCE_EVAL
  METHOD Quickstep
  &DFT
    &MGRID
      CUTOFF 200
    &END MGRID
    &QS
       EPS_DEFAULT 1.0E-8
    &END QS
    &SCF
      EPS_SCF 1.0E-4
      SCF_GUESS ATOMIC
    &END SCF
    &XC
      &XC_FUNCTIONAL  Pade
      &END XC_FUNCTIONAL
    &END XC
  &END DFT
  &SUBSYS
    &CELL
      ABC 4.0 4.0 4.0
    &END CELL
    &COORD
    O   0.000000    0.000000   -0.065587
    H   0.000000   -0.757136    0.520545
    H   0.000000    0.757136    0.520545
    &END COORD
    &KIND H
      BASIS_SET DZVP-GTH-PADE
      POTENTIAL GTH-PADE-q1
    &END KIND
    &KIND O
      BASIS_SET DZVP-GTH-PADE
      POTENTIAL GTH-PADE-q6
    &END KIND
  &END SUBSYS
&END FORCE_EVAL
