&GLOBAL
  PROJECT_NAME               H2O_fist_r
  RUN_TYPE                   PINT
  PRINT_LEVEL                MEDIUM
&END GLOBAL

&MOTION
  &PINT
    P                        4
    PROC_PER_REPLICA         1
    NUM_STEPS                10
    DT                       0.5
    NRESPA                   2
    TEMP                    50.0
    T_TOL                    0.0
    TRANSFORMATION           NORMAL
    &NORMALMODE
      MODEFACTOR             1.0
      Q_BEAD                -1.0
      Q_CENTROID            -1.0
    &END NORMALMODE
    &NOSE
      NNOS                   3
    &END NOSE
    &INIT
      RANDOMIZE_POS          F
      CENTROID_SPEED         F
    &END INIT
  &END PINT
  &PRINT
    &RESTART
      FILENAME ./H2O_fist
      &EACH
        REPLICA_EVAL 4
      &END
    &END
    &RESTART_HISTORY OFF
    &END
  &END
  &PRINT
    &RESTART
      FILENAME ./H2O_fist
      &EACH
        REPLICA_EVAL 4
      &END
    &END
    &RESTART_HISTORY OFF
    &END
  &END

&END MOTION

&FORCE_EVAL
  METHOD FIST
  &MM
    &FORCEFIELD
      PARM_FILE_NAME  ../Fist/sample_pot/water.pot
      PARMTYPE        CHM
      &CHARGE
        ATOM OT
        CHARGE -0.8476
      &END CHARGE
      &CHARGE
        ATOM HT
        CHARGE 0.4238
      &END CHARGE
    &END FORCEFIELD
    &POISSON
      &EWALD
        EWALD_TYPE SPME
        ALPHA 0.44
        GMAX 24
        O_SPLINE 6
      &END EWALD
    &END POISSON
  &END MM
  &SUBSYS
    &CELL
      ABC 24.955 24.955 24.955
    &END CELL
    &TOPOLOGY
      COORD_FILE_NAME ../Fist/sample_pdb/water_1.pdb
      COORD_FILE_FORMAT PDB
    &END TOPOLOGY
  &END SUBSYS
&END FORCE_EVAL
&EXT_RESTART
    RESTART_FILE_NAME H2O_fist-4.restart
   RESTART_DEFAULT F
   RESTART_PINT_POS  T
   RESTART_PINT_VEL  T
   RESTART_PINT_NOSE  T
&END
