&GLOBAL
  PROJECT w512_pint_pile
  RUN_TYPE                   PINT
  PRINT_LEVEL                MEDIUM
&END GLOBAL
&MOTION
  &PINT
    P                        4
    PROC_PER_REPLICA         1
    NUM_STEPS                5
    DT                       0.25
    NRESPA                   10
    TEMP                     300.0
    TRANSFORMATION           NORMAL
    PROPAGATOR               RPMD
    HARM_INT                 EXACT
    &NORMALMODE
      MODEFACTOR             1.0
      Q_BEAD                -1.0
      Q_CENTROID            -1.0
    &END NORMALMODE
    &PILE
      TAU                   1000
      LAMBDA                0.5
    &END PILE
    &INIT
      RANDOMIZE_POS          F
      CENTROID_SPEED         F
      THERMOSTAT_SEED        12
    &END INIT
    &PRINT
      &CENTROID_GYR          OFF
      &END CENTROID_GYR
    &END PRINT
  &END PINT
&END MOTION
&FORCE_EVAL
  METHOD FIST
  &MM
    &FORCEFIELD
      PARM_FILE_NAME      ../Fist/sample_pot/water.pot
      PARMTYPE               CHM
      &CHARGE
        ATOM    OT
        CHARGE -0.8476
      &END CHARGE
      &CHARGE
        ATOM    HT
        CHARGE  0.4238
      &END CHARGE
    &END FORCEFIELD
    &POISSON
      &EWALD
        EWALD_TYPE spme
        ALPHA .44
        GMAX 25
        O_SPLINE 4
      &END EWALD
    &END POISSON
  &END MM
  &SUBSYS
    &CELL
      ABC 24.955 24.955 24.955
    &END CELL
    &COORD
    OT 23.01943016 6.956552982 0.7100297213 H2O
    HT 23.15760040 6.330345154 1.477344990 H2O
    HT 23.90505028 7.198622227 0.3136827052 H2O
    OT 9.589521408 10.16077042 -12.84624004 H2O
    HT 9.477633476 10.80780983 -13.60044003 H2O
    HT 8.703010559 9.758222580 -12.61808968 H2O
    OT 19.91085052 10.05173016 10.04360008 H2O
    HT 19.08727074 9.502388954 9.902438164 H2O
    HT 20.04702950 10.20279026 11.02270031 H2O
    OT 0.4929814935 -12.53680038 -28.77729034 H2O
    HT -0.4542287886 -12.22037029 -28.72562981 H2O
    HT 1.065386057 -11.81367970 -29.16387939 H2O
    OT 23.21482086 -3.752116919 -4.529891014 H2O
    HT 23.40405083 -4.382442951 -3.776974916 H2O
    HT 22.94404030 -2.863209963 -4.160398960 H2O
    OT 18.49070930 9.145219803 -9.995485306 H2O
    HT 17.96310043 8.550429344 -10.60200024 H2O
    HT 18.91719055 8.595173836 -9.277460098 H2O
    OT 1.786808014 -8.063473701 -25.96751022 H2O
    HT 1.498942018 -8.974038124 -26.26416969 H2O
    HT 2.660916090 -7.834216118 -26.39574051 H2O
    OT -14.36754990 11.08135986 -10.33551979 H2O
    HT -14.60709953 10.25162983 -9.831377983 H2O
    HT -14.43509007 10.90585041 -11.31768036 H2O
    OT 21.81727028 2.667145014 -12.56472969 H2O
    HT 20.95495987 2.560233116 -12.06976032 H2O
    HT 21.65984917 2.528225899 -13.54244041 H2O
    OT -4.743816853 15.96103001 -19.28125954 H2O
    HT -3.832268953 16.34917068 -19.41700935 H2O
    HT -4.662685871 15.06260014 -18.84970093 H2O
    OT 10.62683010 -4.151320934 -14.07406998 H2O
    HT 11.09916973 -4.405087948 -14.91816044 H2O
    HT 9.670468330 -4.438481808 -14.12798977 H2O
    OT 11.28477001 12.44830036 -14.50761986 H2O
    HT 10.99971008 13.00667000 -15.28670025 H2O
    HT 10.96148968 12.86898994 -13.65997028 H2O
    OT 20.14882088 3.705355883 -7.554896832 H2O
    HT 19.52009964 4.023981094 -6.845540047 H2O
    HT 20.03647995 2.719810963 -7.681705952 H2O
    OT 16.49921036 -7.950375080 -4.254951954 H2O
    HT 16.37591934 -8.942738533 -4.251413822 H2O
    HT 16.44557953 -7.604462147 -3.318219900 H2O
    OT 12.95514011 29.12132072 6.649687767 H2O
    HT 12.78155041 28.19088936 6.326955795 H2O
    HT 13.10894966 29.72281075 5.865752220 H2O
    OT 1.067891002 -3.436697960 -18.18861961 H2O
    HT 1.004583955 -2.798731089 -17.42115974 H2O
    HT 1.989703059 -3.822506905 -18.22621918 H2O
    OT -20.00842094 8.970346451 -7.370996952 H2O
    HT -19.94664955 8.336950302 -6.599637985 H2O
    HT -19.18594933 8.890903473 -7.934237003 H2O
    OT -12.28987980 11.14132977 8.448437691 H2O
    HT -11.38689995 11.47401047 8.176486015 H2O
    HT -12.55249023 11.56198978 9.316818237 H2O
    OT 14.02460003 -1.450953960 -20.15884972 H2O
    HT 14.85875988 -1.999397039 -20.21701050 H2O
    HT 13.81952000 -1.059921980 -21.05608940 H2O
    OT 34.05715942 -1.832883954 4.969141006 H2O
    HT 34.51747894 -2.720427990 4.988432884 H2O
    HT 33.62937927 -1.659888029 5.856311798 H2O
    OT -8.083212852 -6.761936188 -1.943156004 H2O
    HT -7.103425980 -6.593061924 -2.050381899 H2O
    HT -8.495650291 -6.013330936 -1.424033999 H2O
    OT -2.714569092 16.86726952 -3.405366898 H2O
    HT -2.282223940 17.74220085 -3.187242985 H2O
    HT -2.624260902 16.24732971 -2.625931978 H2O
    OT -5.862067223 16.79718971 -13.17943954 H2O
    HT -6.588342190 16.76280022 -12.49289989 H2O
    HT -5.302652836 17.61292076 -13.03232956 H2O
    OT 22.81904030 -3.873013020 -21.96557045 H2O
    HT 21.90323067 -4.091560841 -21.62862015 H2O
    HT 22.77063942 -3.078811884 -22.57130051 H2O
    OT -2.327994108 -1.301776052 -2.545481920 H2O
    HT -2.645262957 -0.4153816104 -2.882596016 H2O
    HT -3.116303921 -1.874274969 -2.320065022 H2O
    OT 7.625741005 -13.26552010 -3.216892958 H2O
    HT 7.981367111 -13.33845043 -2.285115004 H2O
    HT 7.627744198 -14.16872025 -3.646102905 H2O
    OT 6.704842091 0.8662474751 -2.767841101 H2O
    HT 7.006854057 1.383609056 -1.967136979 H2O
    HT 7.425380230 0.8744143248 -3.461208105 H2O
    OT -9.747976303 30.39221001 2.626265049 H2O
    HT -9.708732605 30.14851952 1.657207012 H2O
    HT -9.430654526 31.33287048 2.746551037 H2O
    OT 23.14838028 -7.088436127 0.2011833042 H2O
    HT 23.11586952 -7.962924004 -0.2827737927 H2O
    HT 23.92457008 -7.085030079 0.8316708803 H2O
    OT 7.042941093 29.02112007 -7.583498001 H2O
    HT 7.100254059 29.57012939 -6.749650002 H2O
    HT 7.961727142 28.74197960 -7.862626076 H2O
    OT -17.92818069 2.217725039 9.014286995 H2O
    HT -17.18857956 2.570468903 9.587494850 H2O
    HT -17.54627037 1.849336982 8.166679382 H2O
    OT -0.2484257966 1.168256044 1.252035022 H2O
    HT -0.1345504969 1.228909016 0.2603928149 H2O
    HT 0.1824862063 0.3300974965 1.586406946 H2O
    OT 2.552109003 -23.78445053 -4.532856941 H2O
    HT 2.451271057 -23.22710991 -3.708718061 H2O
    HT 3.048186064 -24.62343979 -4.309250832 H2O
    OT -4.067944050 3.751606941 4.660083771 H2O
    HT -4.488111973 3.999145031 3.787051916 H2O
    HT -3.140305042 3.414267063 4.499808788 H2O
    OT 0.9738904238E-01 -12.26377010 17.58275032 H2O
    HT -0.7678794265 -12.05140972 18.03685951 H2O
    HT 0.5993878841E-01 -13.19139957 17.21113968 H2O
    OT -7.962307930 16.86529922 -11.49160004 H2O
    HT -7.494702816 16.94314003 -10.61110020 H2O
    HT -8.790508270 17.42560959 -11.47988987 H2O
    OT -12.64107990 28.39282990 -23.16834068 H2O
    HT -11.96745968 28.24979019 -22.44323921 H2O
    HT -13.55723000 28.43133926 -22.76936913 H2O
    OT -1.971706033 -2.675050020 -16.88409042 H2O
    HT -1.028789997 -2.741940022 -16.55784035 H2O
    HT -2.005573988 -2.908593893 -17.85584068 H2O
    OT 10.22015953 13.68307018 -9.852499962 H2O
    HT 9.229804993 13.67881012 -9.714032173 H2O
    HT 10.53973961 12.74752998 -10.00298023 H2O
    OT 22.47810936 7.141275883 5.380959988 H2O
    HT 23.34345055 7.505741119 5.036931992 H2O
    HT 22.57007027 6.926044941 6.353185177 H2O
    OT 13.66256046 -2.056535959 -2.067795992 H2O
    HT 13.16691971 -1.412104964 -2.650072098 H2O
    HT 13.10161018 -2.286735058 -1.272593021 H2O
    OT 14.49240971 13.40505981 -7.200121880 H2O
    HT 15.20343018 13.68006039 -7.847294807 H2O
    HT 14.63700008 12.45293999 -6.930770874 H2O
    OT 10.48124027 6.317660809 -4.071856022 H2O
    HT 10.47467041 7.287835121 -3.829536915 H2O
    HT 9.995262146 5.795695782 -3.370870113 H2O
    OT 12.96702003 21.35800934 -18.30929947 H2O
    HT 13.36085033 22.12545967 -18.81518936 H2O
    HT 12.16374016 21.01494026 -18.79616928 H2O
    OT 3.764839888 9.290648460 1.495857954 H2O
    HT 3.451416016 8.425313950 1.104753017 H2O
    HT 3.938220978 9.171230316 2.473445892 H2O
    OT 3.863157034 16.39422989 -12.22655010 H2O
    HT 4.816911221 16.23481941 -11.97171974 H2O
    HT 3.262258053 15.92739010 -11.57773018 H2O
    OT 2.060359001 -20.64793015 -3.524760962 H2O
    HT 2.725826979 -20.78793907 -4.257937908 H2O
    HT 2.067537069 -21.43862915 -2.912595987 H2O
    OT 7.059126854 -2.542423964 -3.650281906 H2O
    HT 6.820835114 -2.434155941 -2.685142040 H2O
    HT 7.975169182 -2.174834013 -3.810731888 H2O
    OT 26.44555092 -0.6621729136 -11.16547012 H2O
    HT 27.14689064 -1.051257014 -10.56820011 H2O
    HT 26.85243034 0.5018153414E-01 -11.73731041 H2O
    OT 4.665555954 -25.74356079 -2.342309952 H2O
    HT 4.234984875 -26.02776909 -3.198952913 H2O
    HT 5.363750935 -25.05352974 -2.533041000 H2O
    OT 6.809244156 18.33374977 -9.438985825 H2O
    HT 6.021008968 18.33152962 -8.823615074 H2O
    HT 7.647859097 18.21702003 -8.906915665 H2O
    OT 31.57731056 22.00226974 3.799809933 H2O
    HT 30.80891037 22.07196045 4.435973167 H2O
    HT 32.36125946 22.50215912 4.167953968 H2O
    OT 9.515087128 -6.300254822 -8.272727013 H2O
    HT 9.427951813 -5.304982185 -8.229849815 H2O
    HT 10.08738041 -6.551448822 -9.053354263 H2O
    OT -0.4907330871 -0.9352973849E-01 -9.336592674 H2O
    HT -0.3713288531E-01 -0.6032902002 -10.06760979 H2O
    HT -0.5540622026E-01 -0.3065947890 -8.461896896 H2O
    OT 31.63244057 -7.148637772 9.556915283 H2O
    HT 31.15476036 -7.743578911 8.910486221 H2O
    HT 31.64126015 -6.212751865 9.204723358 H2O
    OT -8.138075829 -0.5719168782 10.87388039 H2O
    HT -7.190442085 -0.6694507003 11.17798042 H2O
    HT -8.320934296 0.3865337968 10.65493965 H2O
    OT -4.039980888 12.31752014 1.613576055 H2O
    HT -3.943303108 11.44499016 2.092458963 H2O
    HT -3.754298925 13.06223965 2.216716051 H2O
    OT 10.77472973 -17.67214012 4.931001186 H2O
    HT 11.64900017 -18.10154915 4.704598904 H2O
    HT 10.39745045 -17.23386955 4.115173817 H2O
    OT 4.062366962 17.90764046 -8.310468674 H2O
    HT 3.761310101 17.00507927 -8.002638817 H2O
    HT 3.284173012 18.40637016 -8.692150116 H2O
    OT 6.723298073 11.21743965 -9.701500893 H2O
    HT 6.721126080 10.32635021 -9.247672081 H2O
    HT 6.420999050 11.10988998 -10.64863014 H2O
    OT 0.7972767949 11.66668987 0.3518528044 H2O
    HT 0.3698113859 12.38346958 0.9027680755 H2O
    HT 0.1058536023 11.23388958 -0.2266076952 H2O
    OT 16.68880081 -7.136413097 18.20936966 H2O
    HT 15.81457996 -6.666927814 18.08555031 H2O
    HT 16.78797913 -7.409379005 19.16625977 H2O
    OT 22.73883057 -0.6516780257 -13.08917046 H2O
    HT 22.49062920 -1.516350985 -13.52591038 H2O
    HT 23.26729012 -0.8363813162 -12.26054955 H2O
    OT 11.67236042 4.891401768 13.15672016 H2O
    HT 12.30185986 5.365690231 13.77217960 H2O
    HT 11.69771957 5.324234962 12.25561047 H2O
    OT 8.986070633 -1.004590034 -13.74069023 H2O
    HT 9.817815781 -0.4795114994 -13.92094994 H2O
    HT 9.204369545 -1.783323050 -13.15254021 H2O
    OT 15.21662045 -12.48451042 7.389916897 H2O
    HT 16.12417030 -12.06567001 7.359272003 H2O
    HT 14.55510044 -11.82137012 7.740105152 H2O
    OT 19.57011032 -0.6403884292 -23.22650909 H2O
    HT 19.65660095 -0.4002777040 -22.25963020 H2O
    HT 20.38682938 -0.3396874070 -23.71900940 H2O
    OT -1.315845013 10.72589016 13.76529026 H2O
    HT -1.626505971 11.40200043 13.09718037 H2O
    HT -1.804710031 9.865563393 13.62092018 H2O
    OT -8.134409904 -35.81595993 13.48396015 H2O
    HT -7.849000931 -35.88867188 12.52830982 H2O
    HT -8.048397064 -34.86661911 13.78621960 H2O
    OT 18.60850906 -24.73218918 -9.893045425 H2O
    HT 18.64219093 -24.61875916 -8.900069237 H2O
    HT 17.65533066 -24.74208069 -10.19528008 H2O
    OT 0.1564731002 17.98418045 4.838697910 H2O
    HT 0.1198854968 18.72273064 4.165493965 H2O
    HT 0.7936189175 17.27960014 4.526260853 H2O
    OT 11.05231953 -29.41914940 -11.51998043 H2O
    HT 10.33323956 -30.08662033 -11.32656956 H2O
    HT 10.96531963 -29.09939003 -12.46348000 H2O
    OT -5.380375862 -3.444833040 1.359449983 H2O
    HT -5.436656952 -2.454241037 1.484187961 H2O
    HT -5.083263874 -3.871997118 2.213413954 H2O
    OT 23.75779915 7.148254871 -5.625876904 H2O
    HT 24.67996025 7.308097839 -5.273642063 H2O
    HT 23.79005051 6.447751999 -6.338798046 H2O
    OT 29.77753067 -12.20843029 -15.47373009 H2O
    HT 29.24728012 -11.39416981 -15.23744011 H2O
    HT 30.22579956 -12.06964016 -16.35679054 H2O
    OT 8.713718414 0.8687964082E-01 -7.380696774 H2O
    HT 8.545354843 0.1939367056 -6.400803089 H2O
    HT 9.521480560 -0.4860566854 -7.519497871 H2O
    OT 6.800642014 -6.140873909 -1.690623999 H2O
    HT 7.439037800 -5.578423023 -1.165174007 H2O
    HT 6.809965134 -5.850266933 -2.647420883 H2O
    OT 19.77749062 -22.52178955 -10.86262035 H2O
    HT 19.25935936 -23.30351067 -10.51556015 H2O
    HT 19.39817047 -21.67668915 -10.48587990 H2O
    OT -12.28242970 -2.291542053 -13.74619961 H2O
    HT -12.96510029 -3.021621943 -13.77696991 H2O
    HT -11.42792988 -2.616908073 -14.15112019 H2O
    OT -30.73204994 20.38603973 -18.07662964 H2O
    HT -30.82373047 21.22440910 -18.61396027 H2O
    HT -30.80281067 20.60449028 -17.10334969 H2O
    OT 5.050716877 -18.72834969 -14.19458961 H2O
    HT 5.305778027 -18.85065079 -13.23542976 H2O
    HT 5.291882992 -19.55001068 -14.71103001 H2O
    OT 1.037127972 16.80878067 -9.246628761 H2O
    HT 1.381523967 17.67382050 -9.611471176 H2O
    HT 0.9733512998 16.13739967 -9.984992027 H2O
    OT 0.5208331943 18.29265976 -12.79253006 H2O
    HT -0.1202256978 19.04486084 -12.94497967 H2O
    HT 0.6869262457E-01 17.42354012 -12.99300957 H2O
    OT 24.01456070 -5.627747059 -17.04883003 H2O
    HT 23.01757050 -5.550413132 -17.04351997 H2O
    HT 24.39027977 -5.044981003 -17.76939964 H2O
    OT 14.75687981 -19.42450905 -6.655436993 H2O
    HT 14.17490959 -20.17218971 -6.335628033 H2O
    HT 15.00580978 -18.84159088 -5.881974220 H2O
    OT -0.3420779109 4.180780888 -5.105259895 H2O
    HT 0.5460398793 4.251148224 -4.651062012 H2O
    HT -0.4033901095 3.304733992 -5.583570957 H2O
    OT 9.639447212 -0.7285053134 7.886022091 H2O
    HT 10.60674000 -0.8555225730 8.105611801 H2O
    HT 9.079436302 -1.233965993 8.542450905 H2O
    OT 15.98845959 -25.21512032 -2.296972036 H2O
    HT 16.35030937 -25.02890015 -1.383522987 H2O
    HT 15.12549019 -25.71421051 -2.218305111 H2O
    OT -3.735738039 -15.00032043 7.193384171 H2O
    HT -4.037330151 -15.10723972 8.140807152 H2O
    HT -4.148510933 -15.71555996 6.629426003 H2O
    OT 4.434080124 -7.867401123 -1.915670991 H2O
    HT 5.301434040 -7.398241997 -1.749578953 H2O
    HT 4.569945812 -8.855349541 -1.841523051 H2O
    OT 14.55587959 -11.54382038 -13.93838024 H2O
    HT 15.53944969 -11.57264042 -14.11660004 H2O
    HT 14.38710976 -11.72657013 -12.96980953 H2O
    OT 21.94095039 -7.222787857 -9.915848732 H2O
    HT 21.06148911 -7.508889198 -9.535449982 H2O
    HT 22.62870026 -7.206789017 -9.190079689 H2O
    OT -2.715358019 -22.12689018 8.301522255 H2O
    HT -2.080188990 -21.65506935 7.690011024 H2O
    HT -2.250965118 -22.34662056 9.159460068 H2O
    OT 2.077205896 -5.652476788 -9.689640999 H2O
    HT 2.440182924 -5.306465149 -10.55480957 H2O
    HT 1.438477993 -4.985704899 -9.305657387 H2O
    OT -8.509725571 -5.633284092 -20.57366943 H2O
    HT -8.569938660 -4.639894009 -20.47592926 H2O
    HT -7.553862095 -5.918032169 -20.50126076 H2O
    OT 21.69956970 -2.736697912 10.40725040 H2O
    HT 20.80098915 -3.148304939 10.25514984 H2O
    HT 22.17864037 -2.649916887 9.533779144 H2O
    OT -7.558537006 6.843714237 -4.566921234 H2O
    HT -7.666833878 5.875992775 -4.794490814 H2O
    HT -7.202693939 6.929515839 -3.636322975 H2O
    OT 2.565670013 -29.94298935 -3.813838005 H2O
    HT 2.170528889 -29.88455963 -2.897078037 H2O
    HT 3.515139103 -29.63018036 -3.788147926 H2O
    OT -0.4349056259E-01 8.006457329 -11.06387997 H2O
    HT 0.5523492098 7.322807789 -11.48530006 H2O
    HT 0.3500770032 8.916644096 -11.19295979 H2O
    OT -0.6555517018E-01 -17.20867920 -20.83060074 H2O
    HT -0.4402945936E-01 -16.57218933 -21.60158920 H2O
    HT 0.8571565747 -17.55253983 -20.65636063 H2O
    OT 18.21187973 -13.27182007 -27.59443092 H2O
    HT 17.23444939 -13.48171997 -27.61819077 H2O
    HT 18.71619987 -13.97550011 -28.09493065 H2O
    OT -15.01879978 -5.744391918 -4.487940788 H2O
    HT -15.03277969 -5.854424000 -3.494112015 H2O
    HT -14.72959042 -4.814782143 -4.716365814 H2O
    OT 18.97723961 -7.646446228 -15.84525013 H2O
    HT 18.24424934 -7.976332188 -16.44013023 H2O
    HT 18.77201080 -7.889552116 -14.89721012 H2O
    OT -16.64426994 -10.74586964 -4.574683189 H2O
    HT -16.42246056 -9.826581955 -4.249557972 H2O
    HT -16.87494087 -11.32845974 -3.795332909 H2O
    OT 13.62650013 -23.09849930 3.808404922 H2O
    HT 14.50438023 -22.70249939 4.077699184 H2O
    HT 13.08592033 -23.29771042 4.625767231 H2O
    OT 12.92521000 -6.747437000 -14.28975964 H2O
    HT 12.75393009 -5.881072998 -14.75887966 H2O
    HT 12.05945969 -7.228343010 -14.15122032 H2O
    OT 14.91854000 -5.574131966 -5.152668953 H2O
    HT 14.22642994 -6.244589806 -5.420010090 H2O
    HT 15.64461994 -6.031279087 -4.639029980 H2O
    OT 6.996616840 -24.51936913 -12.44025040 H2O
    HT 7.072780132 -24.73109055 -11.46588993 H2O
    HT 7.680046082 -25.04248047 -12.94944954 H2O
    OT 5.287827015 20.49893951 -3.925021887 H2O
    HT 5.988780022 21.20642090 -3.834755898 H2O
    HT 5.585937977 19.81771088 -4.593640804 H2O
    OT -1.278511047 16.15587044 -12.95108986 H2O
    HT -1.751248956 15.92080975 -12.10181046 H2O
    HT -1.948469996 16.43305016 -13.63980007 H2O
    OT -11.91125011 6.258780003 -20.56825066 H2O
    HT -11.74475002 5.890303135 -21.48286057 H2O
    HT -11.04479027 6.552004814 -20.16419029 H2O
    OT 7.745258808 8.545282364 7.301095009 H2O
    HT 8.053612709 9.270889282 7.916245937 H2O
    HT 7.092642784 7.957683086 7.779446125 H2O
    OT -5.734910011 4.478723049 -18.30672073 H2O
    HT -5.053818226 4.380210876 -19.03226089 H2O
    HT -6.004096985 3.573796988 -17.97710991 H2O
    OT 27.38098907 -28.20664024 3.244265079 H2O
    HT 26.75782967 -28.93745995 3.522779942 H2O
    HT 28.02219009 -28.01416016 3.987107038 H2O
    OT 27.93221092 6.789938927 0.6034312248 H2O
    HT 28.64219093 6.108541965 0.4256001115 H2O
    HT 27.32793045 6.856729984 -0.1905381978 H2O
    OT 13.42469025 -10.69869995 8.715782166 H2O
    HT 13.73466969 -11.09712982 9.579010963 H2O
    HT 12.44999027 -10.88570976 8.593312263 H2O
    OT -14.48830986 -21.89879036 -5.024119854 H2O
    HT -14.82950020 -21.17658997 -4.422441959 H2O
    HT -14.61863995 -21.62745094 -5.977738857 H2O
    OT 13.33885956 2.772783995 18.77265930 H2O
    HT 13.67113018 1.832725048 18.84940910 H2O
    HT 12.63846970 2.936547995 19.46736908 H2O
    OT 16.03123093 -1.497524023 1.945785999 H2O
    HT 16.50576019 -0.9563630819 1.251546025 H2O
    HT 15.15857983 -1.062826037 2.168318033 H2O
    OT -0.5125142168E-02 11.48567009 -18.85264969 H2O
    HT -0.4468941987 11.13825989 -19.67977905 H2O
    HT -0.6953353286 11.63936996 -18.14554977 H2O
    OT 19.00435066 -26.04862976 -12.40956974 H2O
    HT 19.16983032 -27.02696037 -12.28518963 H2O
    HT 19.12932968 -25.57587051 -11.53728008 H2O
    OT 1.479148984 -17.21891975 -5.136577129 H2O
    HT 1.535640001 -16.22443008 -5.224883080 H2O
    HT 1.700404048 -17.64459038 -6.013988972 H2O
    OT -5.556590080 -5.909133911 -2.479540110 H2O
    HT -5.036188126 -5.983753204 -1.628885031 H2O
    HT -4.981543064 -5.498579979 -3.187189102 H2O
    OT 10.33778954 -6.026822090 -1.910915971 H2O
    HT 11.25944996 -6.331683159 -1.670879960 H2O
    HT 9.845675468 -5.766983986 -1.080070972 H2O
    OT 19.28346062 -10.85832024 -26.85176086 H2O
    HT 18.82041931 -10.18916988 -26.27051926 H2O
    HT 18.64051056 -11.58096027 -27.10553932 H2O
    OT 13.31268024 -5.560515881 -21.08472061 H2O
    HT 13.47282982 -6.190210819 -20.32456970 H2O
    HT 14.14402008 -5.484281063 -21.63522911 H2O
    OT 2.789424896 10.85599041 8.942655563 H2O
    HT 2.217451096 11.34790993 9.599055290 H2O
    HT 3.587436914 11.41304016 8.712721825 H2O
    OT -9.299199104 -3.144026041 -5.465570927 H2O
    HT -9.571511269 -4.083209991 -5.256332874 H2O
    HT -8.351787567 -3.000113010 -5.179737091 H2O
    OT 18.27696037 -9.723158836 4.013133049 H2O
    HT 18.27474976 -10.61738968 3.565525055 H2O
    HT 19.06751060 -9.657090187 4.621955872 H2O
    OT 7.835993767 -2.637737036 14.36106968 H2O
    HT 7.508491993 -1.735363007 14.64118004 H2O
    HT 8.835071564 -2.631364107 14.31859970 H2O
    OT 15.49880981 11.50261021 21.88332939 H2O
    HT 15.27867985 12.46469975 22.04437065 H2O
    HT 15.09282017 11.20804024 21.01823044 H2O
    OT 4.819097996 -4.337182999 -25.22237015 H2O
    HT 4.887138844 -4.350635052 -26.21995926 H2O
    HT 4.495203972 -5.226050854 -24.89833069 H2O
    OT -1.670982003 -9.491015434 -1.130787969 H2O
    HT -0.8745822906 -10.03067017 -1.403763056 H2O
    HT -2.350153923 -10.09010029 -0.7067381144 H2O
    OT 6.422000885 21.48143005 17.82509995 H2O
    HT 6.237845898 21.46063042 16.84242058 H2O
    HT 6.140503883 20.61401939 18.23542976 H2O
    OT -4.631163120 6.039187908 15.82102013 H2O
    HT -4.010708809 6.816022873 15.92856026 H2O
    HT -4.229321957 5.229835987 16.24935913 H2O
    OT 15.95582962 -8.371910095 4.637236118 H2O
    HT 16.05161095 -7.397901058 4.431971073 H2O
    HT 16.81524086 -8.841349602 4.434646130 H2O
    OT 21.97850037 0.8666769862 -28.95277023 H2O
    HT 22.10016060 0.5530670285 -29.89450073 H2O
    HT 21.87614059 1.861379027 -28.94327927 H2O
    OT 2.507492065 6.700187206 4.909032822 H2O
    HT 2.368876934 6.238309860 4.032988071 H2O
    HT 3.047750950 7.529574871 4.766780853 H2O
    OT 5.059741020 -17.25416946 22.27510071 H2O
    HT 5.309967995 -16.49544907 22.87653923 H2O
    HT 4.063632965 -17.31291008 22.20937920 H2O
    OT 16.99642944 6.003706932 6.946842194 H2O
    HT 17.45915985 5.150941849 6.704603195 H2O
    HT 16.70498085 5.964949131 7.902640820 H2O
    OT 10.89663029 14.05930042 33.08525085 H2O
    HT 10.26245022 13.43323994 32.63153076 H2O
    HT 10.91705990 14.92875957 32.59167099 H2O
    OT 8.125055313 15.79432964 11.30951023 H2O
    HT 7.539896011 16.00769043 12.09185982 H2O
    HT 7.845213890 16.34588051 10.52371025 H2O
    OT 7.936137199 3.437313080 12.56779957 H2O
    HT 8.545840263 3.653435946 11.80519962 H2O
    HT 7.575974941 2.511323929 12.45452976 H2O
    OT -4.985283852 1.165562034 -2.233652115 H2O
    HT -5.468935013 0.3361231089 -1.954164982 H2O
    HT -4.240118027 0.9235501289 -2.855067968 H2O
    OT 14.98149967 8.807750702 -2.221146107 H2O
    HT 14.41156960 9.314669609 -1.574453950 H2O
    HT 15.57266045 9.445203781 -2.715290070 H2O
    OT 12.11184025 10.18871975 5.222652912 H2O
    HT 11.86940002 9.218866348 5.247488976 H2O
    HT 11.59080029 10.68052959 5.920252800 H2O
    OT 11.94447041 12.85009956 -3.443113089 H2O
    HT 11.65863037 13.18286991 -2.544467926 H2O
    HT 12.04782963 13.62409973 -4.067794800 H2O
    OT 6.633740902 14.49808979 18.11285973 H2O
    HT 5.831823826 15.09543037 18.12358093 H2O
    HT 6.926794052 14.31661987 19.05158043 H2O
    OT 1.723693967 -10.00166988 13.70681953 H2O
    HT 1.638193011 -9.869600296 12.71926975 H2O
    HT 1.411790013 -10.92053986 13.94847965 H2O
    OT 13.38199043 17.37104034 19.16879082 H2O
    HT 13.63871002 16.40456009 19.17124939 H2O
    HT 12.38543987 17.45117950 19.14727020 H2O
    OT -12.72399044 24.32468987 9.044587135 H2O
    HT -11.90499020 24.48331070 8.493148804 H2O
    HT -12.49505043 23.73583984 9.819728851 H2O
    OT 14.38873005 18.33105087 13.04790020 H2O
    HT 13.82474995 18.25789070 12.22535992 H2O
    HT 13.85418034 18.04943085 13.84473038 H2O
    OT 9.522809029 -10.35239983 2.189079046 H2O
    HT 10.40983963 -10.64336014 2.547569036 H2O
    HT 9.176624298 -9.589449883 2.735032082 H2O
    OT 1.729853034 0.6931253076 17.81077957 H2O
    HT 1.798045039 1.051630020 18.74180984 H2O
    HT 2.632323980 0.3922975957 17.50247955 H2O
    OT 15.71395016 4.667239189 -9.012239456 H2O
    HT 15.73859024 5.153831005 -8.138957024 H2O
    HT 14.81604958 4.243837833 -9.132699013 H2O
    OT 3.774633884 -11.96055031 30.31855965 H2O
    HT 3.826667070 -12.89284992 29.96062088 H2O
    HT 2.830265045 -11.75395966 30.57445908 H2O
    OT 7.442639828 -2.313460112 8.824195862 H2O
    HT 7.567070007 -1.823642015 9.687095642 H2O
    HT 6.491117001 -2.230516911 8.528015137 H2O
    OT 14.78199005 10.55325031 19.23600006 H2O
    HT 13.81035995 10.39535999 19.41206932 H2O
    HT 15.19647026 9.716041565 18.87921906 H2O
    OT 11.38230991 -13.30770016 0.7211689651E-01 H2O
    HT 11.82032967 -12.41485977 -0.3263808414E-01 H2O
    HT 12.03759956 -14.02890015 -0.1525589973 H2O
    OT 3.355201006 2.236012936 6.493289948 H2O
    HT 3.111438036 2.647516966 7.371494770 H2O
    HT 3.099912882 2.856745958 5.751996040 H2O
    OT 9.580752373 3.519449949 10.26772022 H2O
    HT 10.30486012 4.142734051 9.972446442 H2O
    HT 9.944317818 2.589682102 10.32561970 H2O
    OT 18.69168091 9.864888191 -4.607900143 H2O
    HT 18.58332062 10.51916981 -5.356344223 H2O
    HT 18.73819923 8.937759399 -4.979743958 H2O
    OT 1.120208979 12.37092972 11.03684998 H2O
    HT 0.9743577242 13.35070992 10.89990997 H2O
    HT 1.266366959 12.18834972 12.00911999 H2O
    OT 0.5317887068 -7.466344833 1.598325968 H2O
    HT 0.8651230931 -8.057613373 2.332690001 H2O
    HT 1.010100007 -7.688243866 0.7486326098 H2O
    OT 6.903781891 -0.3083891869 15.31593037 H2O
    HT 6.024109840 0.5900644511E-01 15.61791992 H2O
    HT 7.597104073 -0.1294389069 16.01399040 H2O
    OT 7.950471878 26.12235069 -18.22825050 H2O
    HT 8.590076447 26.78753090 -18.61352921 H2O
    HT 8.461983681 25.38215065 -17.79182053 H2O
    OT -12.74958992 1.530272961 6.128326893 H2O
    HT -13.31056976 1.003280997 5.489903927 H2O
    HT -12.69768047 1.048102021 7.002864838 H2O
    OT -4.538813114 25.62940979 10.58907986 H2O
    HT -3.664343119 25.26214027 10.90596008 H2O
    HT -5.166886806 25.70943069 11.36310959 H2O
    OT 34.80611038 7.229406834 14.18124962 H2O
    HT 35.36648941 7.947433949 14.59407043 H2O
    HT 35.36573029 6.690279961 13.55183029 H2O
    OT -3.365947962 0.3768975139 14.76175976 H2O
    HT -3.989334106 1.014682055 15.21411037 H2O
    HT -2.472238064 0.4104596972 15.20915031 H2O
    OT -17.29585075 7.610838890 27.90416908 H2O
    HT -16.36119080 7.964537144 27.86780930 H2O
    HT -17.85350990 8.201929092 28.48694038 H2O
    OT -1.360344052 17.47789955 -7.930583000 H2O
    HT -1.557273030 16.79838943 -7.223834038 H2O
    HT -0.4553740025 17.30285072 -8.318381310 H2O
    OT 8.777552605 3.729065895 5.627504826 H2O
    HT 9.003123283 4.510461807 6.209344864 H2O
    HT 9.374275208 3.727719069 4.825058937 H2O
    OT 29.65522003 26.97977066 2.670500040 H2O
    HT 28.88824081 27.34376907 3.198940992 H2O
    HT 30.05005074 26.19717979 3.151813030 H2O
    OT 0.1131960973 34.16172028 1.787629008 H2O
    HT 0.6235178709 35.00149155 1.602262974 H2O
    HT -0.5274313316E-01 33.67615128 0.9293224812 H2O
    OT -6.651230812 1.436910987 6.127419949 H2O
    HT -6.045128822 1.529595017 6.917387962 H2O
    HT -7.602880955 1.498417020 6.428382874 H2O
    OT 5.987674236 13.72896004 32.10506058 H2O
    HT 5.357507229 13.52449036 31.35601044 H2O
    HT 6.827344894 14.12658978 31.73513985 H2O
    OT 11.56299019 14.07925034 12.73577023 H2O
    HT 12.53516006 14.11800003 12.96683979 H2O
    HT 11.02906990 13.92006016 13.56618023 H2O
    OT 10.63366032 25.30373001 4.431011200 H2O
    HT 10.85542965 25.01966095 3.498207092 H2O
    HT 9.769508362 24.88516998 4.710387230 H2O
    OT 5.183364868 7.276007175 8.092575073 H2O
    HT 4.724007130 6.571290016 7.551867008 H2O
    HT 5.597291946 6.858539104 8.901515961 H2O
    OT 1.495365977 30.69918060 2.637151957 H2O
    HT 0.6036800146 31.14315987 2.548953056 H2O
    HT 2.102159023 31.02282906 1.911167979 H2O
    OT -9.760225296 14.24536991 -2.563339949 H2O
    HT -9.326670647 14.11789036 -3.455404043 H2O
    HT -10.57600021 14.81429958 -2.667444944 H2O
    OT -5.104294777 -12.18340969 8.972017288 H2O
    HT -4.690073967 -11.50897026 9.583204269 H2O
    HT -5.144412994 -13.07021999 9.432396889 H2O
    OT -15.72636032 6.257998943 17.08847046 H2O
    HT -15.53285027 6.255682945 16.10737038 H2O
    HT -16.68544960 6.498091221 17.23850060 H2O
    OT 12.63177013 14.49081993 16.04863930 H2O
    HT 11.80195045 14.04948997 15.70715046 H2O
    HT 13.01161957 13.95077991 16.79968071 H2O
    OT 1.930953026 -3.507987976 -5.870304108 H2O
    HT 1.992872953 -3.947582960 -4.974244118 H2O
    HT 2.485348940 -4.015739918 -6.529722214 H2O
    OT 6.098527908 5.022674084 -11.29561043 H2O
    HT 6.940122128 4.545108795 -11.54790020 H2O
    HT 5.427912235 4.361351967 -10.95956039 H2O
    OT 19.05677986 19.07188034 -7.825182915 H2O
    HT 19.85067940 18.47229958 -7.724064827 H2O
    HT 18.23641968 18.59477043 -7.509974957 H2O
    OT 9.235711098 -3.653218031 -8.086339951 H2O
    HT 8.335020065 -3.218836069 -8.078018188 H2O
    HT 9.929526329 -2.977235079 -8.334668159 H2O
    OT 7.785224915 -8.829636574 28.91617012 H2O
    HT 7.581219196 -7.854217052 28.83287048 H2O
    HT 6.935874939 -9.354102135 28.85666084 H2O
    OT 2.588570118 -2.933686018 25.48694992 H2O
    HT 3.500545979 -3.309863091 25.32327080 H2O
    HT 2.392163038 -2.950283051 26.46734047 H2O
    OT 15.28944969 0.5898076892 16.50642967 H2O
    HT 15.80169010 -0.2662520111 16.43738937 H2O
    HT 15.05484962 0.9127750993 15.58955956 H2O
    OT 6.788957119 -15.53143978 29.82158089 H2O
    HT 7.231318951 -14.64459991 29.68803978 H2O
    HT 7.102252960 -15.93406963 30.68165970 H2O
    OT 18.78899956 -13.70670986 0.6830084324E-01 H2O
    HT 19.68004990 -13.41075039 0.4124544859 H2O
    HT 18.73254013 -13.52206993 -0.9128828049 H2O
    OT -6.090596199 6.614080906 -2.143465042 H2O
    HT -5.115198135 6.644145012 -1.925075054 H2O
    HT -6.596879005 6.255379200 -1.359238982 H2O
    OT 25.55120087 -20.61341095 -0.3834339082 H2O
    HT 26.43177986 -21.02282906 -0.1447930038 H2O
    HT 24.95874023 -20.60395050 0.4221099913 H2O