&GLOBAL
  PROJECT diamond_br89_libxc_uks
  RUN_TYPE ENERGY
  PRINT_LEVEL MEDIUM
&END GLOBAL
&FORCE_EVAL
  METHOD Quickstep
  &DFT
    BASIS_SET_FILE_NAME ../../../data/BASIS_SET
    POTENTIAL_FILE_NAME ../../../data/POTENTIAL
    UKS
    &MGRID
      CUTOFF 500
      REL_CUTOFF 60
    &END MGRID
    &QS
      METHOD GPW
    &END QS
    &SCF
      EPS_SCF 1.0E-5
      MAX_SCF 3
      ADDED_MOS 20 20
    &END SCF
    &XC
      &XC_FUNCTIONAL
        &LIBXC
          FUNCTIONAL XC_MGGA_X_BR89
        &END LIBXC
      &END XC_FUNCTIONAL
    &END XC
    &PRINT
      &MO
        EIGENVALUES .TRUE.
      &END MO
    &END PRINT
  &END DFT
  &SUBSYS
    &CELL
      A 0.0000  1.7835  1.7835
      B 1.7835  0.0000  1.7835
      C 1.7835  1.7835  0.0000
      MULTIPLE_UNIT_CELL 1 1 1
    &END CELL
    &COORD
      C   0.445875  0.445875  0.445875
      C   3.121125  3.121125  3.121125
    &END COORD
    &KIND C
      BASIS_SET DZVP-GTH-BLYP
      POTENTIAL GTH-BLYP-q4
    &END KIND
  &END SUBSYS
&END FORCE_EVAL
