&FORCE_EVAL
  METHOD Quickstep
  &DFT
    BASIS_SET_FILE_NAME EMSL_BASIS_SETS
    POTENTIAL_FILE_NAME POTENTIAL
    &MGRID
      CUTOFF 250
      REL_CUTOFF 50
    &END MGRID
    &QS
      METHOD GAPW
    &END QS
    &POISSON
      PERIODIC NONE
      PSOLVER MT
    &END
    &SCF
      EPS_SCF 1.0E-6
      SCF_GUESS ATOMIC 
      MAX_SCF 2
    &END SCF
    &XC
      DENSITY_CUTOFF 1.0e-9
      DENSITY_SMOOTH_CUTOFF_RANGE 0
      FUNCTIONAL_ROUTINE NEW
      &XC_FUNCTIONAL      
        &HYB_LDA_XC_CAM_LDA0
        &END HYB_LDA_XC_CAM_LDA0
      &END XC_FUNCTIONAL
      &HF
        &SCREENING
          EPS_SCHWARZ 1.0E-10 
        &END
        &INTERACTION_POTENTIAL
          OMEGA 0.333333333333
          POTENTIAL_TYPE MIX_CL
          SCALE_LONGRANGE 0.5
          SCALE_COULOMB   0.25
        &END INTERACTION_POTENTIAL
        &MEMORY
          MAX_MEMORY  5 
        &END
        FRACTION 1.0
      &END
    &END XC
  &END DFT
  &SUBSYS
    &CELL
      ABC 6.0 6.0 6.0
      PERIODIC NONE
    &END CELL
    &COORD
    O   0.000000    0.000000   -0.065587
    H   0.000000   -0.757136    0.520545
    H   0.000000    0.757136    0.520545
    &END COORD
    &KIND H
      BASIS_SET 6-31Gxx
      POTENTIAL ALL
    &END KIND
    &KIND O
      BASIS_SET 6-31Gxx
      POTENTIAL ALL
    &END KIND
  &END SUBSYS
&END FORCE_EVAL
&GLOBAL
  PROJECT H2O-hybrid-cam-lda0
#  TRACE
  PRINT_LEVEL MEDIUM 
&END GLOBAL
