&FORCE_EVAL
  METHOD Quickstep
  &DFT
    BASIS_SET_FILE_NAME EMSL_BASIS_SETS
    POTENTIAL_FILE_NAME POTENTIAL
    &MGRID
      CUTOFF 250
      REL_CUTOFF 50
    &END MGRID
    &QS
      METHOD GAPW
    &END QS
    &POISSON
      PERIODIC NONE
      PSOLVER MT
    &END
    &SCF
      EPS_SCF 1.0E-6
      SCF_GUESS ATOMIC 
      MAX_SCF 100
    &END SCF
    &XC
      &XC_FUNCTIONAL
        &HYB_MGGA_XC_WB97M_V
        &END HYB_MGGA_XC_WB97M_V
      &END XC_FUNCTIONAL
      &HF
        FRACTION 1.000
        &SCREENING
           EPS_SCHWARZ 1.0E-6
        &END
        &INTERACTION_POTENTIAL
           POTENTIAL_TYPE MIX_CL
           SCALE_COULOMB   0.15
           SCALE_LONGRANGE 0.85
           OMEGA 0.30
        &END
        &MEMORY
          MAX_MEMORY  10
        &END
      &END
      &vdW_POTENTIAL
         DISPERSION_FUNCTIONAL NON_LOCAL
         &NON_LOCAL
           TYPE RVV10
           PARAMETERS 6.0 0.01
           VERBOSE_OUTPUT
           KERNEL_FILE_NAME rVV10_kernel_table.dat
           CUTOFF 100
         &END NON_LOCAL
      &END vdW_POTENTIAL
    &END XC
  &END DFT
  &SUBSYS
    &CELL
      ABC 6.0 6.0 6.0
      PERIODIC NONE
    &END CELL
    &COORD
    O   0.000000    0.000000   -0.065587
    H   0.000000   -0.757136    0.520545
    H   0.000000    0.757136    0.520545
    &END COORD
    &KIND H
      BASIS_SET 6-31Gxx
      POTENTIAL ALL
    &END KIND
    &KIND O
      BASIS_SET 6-31Gxx
      POTENTIAL ALL
    &END KIND
  &END SUBSYS
&END FORCE_EVAL
&GLOBAL
  PROJECT H2O-hybrid-wb97mv_libxc
#  TRACE
  PRINT_LEVEL MEDIUM 
&END GLOBAL
