&GLOBAL
  PROJECT H2O-mom-s-3
  RUN_TYPE ENERGY
  PRINT_LEVEL MEDIUM
&END GLOBAL

&FORCE_EVAL
  METHOD Quickstep

  &DFT
    BASIS_SET_FILE_NAME BASIS_SET
    POTENTIAL_FILE_NAME POTENTIAL
    WFN_RESTART_FILE_NAME H2O-mom-s-0-RESTART.wfn
    MULTIPLICITY 1
    UKS .true.

    &MGRID
      CUTOFF 100
    &END MGRID

    &QS
    &END QS

    &SCF
      MAX_SCF   50
      SCF_GUESS RESTART
      ADDED_MOS 5

      &MOM ON
        DEOCC_ALPHA 4
        OCC_ALPHA   6
      &END MOM
    &END SCF

    &XC
      &XC_FUNCTIONAL PBE
      &END XC_FUNCTIONAL

      &XC_GRID
        XC_DERIV SPLINE2_SMOOTH
      &END XC_GRID
    &END XC
  &END DFT

  &SUBSYS
    &CELL
      ABC 5.0 5.0 5.0
    &END CELL

    &COORD
    O   0.000000    0.000000   -0.065587 H2O
    H   0.000000   -0.757136    0.520545 H2O
    H   0.000000    0.757136    0.520545 H2O
    &END COORD

    &KIND H
      BASIS_SET DZVP-GTH-PADE
      POTENTIAL GTH-PADE-q1
    &END KIND

    &KIND O
      BASIS_SET DZVP-GTH-PADE
      POTENTIAL GTH-PADE-q6
    &END KIND
  &END SUBSYS

&END FORCE_EVAL
