&GLOBAL
  PROJECT H2
  PRINT_LEVEL MEDIUM
  PREFERRED_DIAG_LIBRARY ELPA
&END GLOBAL

&FORCE_EVAL
  METHOD Quickstep
  &DFT
    BASIS_SET_FILE_NAME BASIS_MOLOPT
    POTENTIAL_FILE_NAME POTENTIAL
    &QS
    &END QS
    &SCF
    &END SCF
    &XC
      &XC_FUNCTIONAL PADE
      &END XC_FUNCTIONAL
    &END XC
  &END DFT
  &SUBSYS
    &CELL
      ABC 7 7 7
    &END CELL
    &COORD
    H   0.000000  0.000000  0.000000
    H   0.000000  0.000000  0.800000
    &END COORD
    &KIND H
      BASIS_SET SZV-MOLOPT-GTH
      POTENTIAL GTH-PBE-q1
    &END KIND
  &END SUBSYS
&END FORCE_EVAL
