&FORCE_EVAL
  METHOD QS
  &DFT
    BASIS_SET_FILE_NAME GTH_BASIS_SETS
    POTENTIAL_FILE_NAME POTENTIAL
    &MGRID
      CUTOFF 280
      REL_CUTOFF 30
    &END MGRID
    &QS
      EPS_DEFAULT 1.0E-12
      WF_INTERPOLATION PS 
      EXTRAPOLATION_ORDER 3
    &END QS
    &SCF
      SCF_GUESS ATOMIC
      &OT ON
        MINIMIZER DIIS
      &END OT

      &PRINT
        &RESTART OFF
        &END
      &END

    # SCF_GUESS        RESTART
    # EPS_SCF      1.0E-7
    &END SCF
    &XC
      &XC_FUNCTIONAL Pade
      &END XC_FUNCTIONAL
    &END XC
  &END DFT
  &SUBSYS
    &CELL
      ABC 31.3250 31.3250 31.3250
    &END CELL
  # 1024 H2O (TIP5P,1bar,300K) a = 31.3250
    &COORD
   O       3.755135       7.037963       6.100024
   O      11.285458      12.110878      11.398937
   O      30.260961      13.491576      11.051551
   O       1.564487       9.229609       2.831493
   O      14.321612      11.764359       2.528713
   O       8.185119       6.361347       4.565224
   O       8.981511       1.529528       2.325305
   O      12.236463      13.929870       7.633303
   O       9.195828      18.511609       5.188094
   O       8.498993       0.007921       7.038873
   O      11.669282       8.406549      11.886777
   O      12.582055       6.235736       2.040026
   O      10.508151       6.254651      30.996529
   O       5.147907       5.832549      19.825264
   O       0.886626      13.697992       3.407885
   O       2.610047       5.045304       1.376109
   O       9.298493      11.666112       3.797469
   O      13.089836       1.554605      15.337595
   O       3.957199      10.630083       7.501428
   O       5.895700      12.283979       6.537837
   O      13.199589       8.714626       9.349952
   O       4.816636      14.413946       4.987250
   O      14.866515       3.269914       4.689254
   O       5.891389       5.638947      15.572947
   O      13.515385      13.026286       9.859410
   O       1.148754       7.467014       4.872549
   O      15.975030      17.995659      17.329021
   O       9.062212       7.118747       9.736995
   O       2.468899       7.595623       0.981261
   O       6.118279      31.276608       5.075681
   O       8.831721       8.185327       2.682478
   O       3.698396       2.908643      31.034421
   O       9.025702      11.349249       0.357271
   O      17.983501       4.917800      12.426135
   O       1.538647      15.857901      13.025543
   O       7.217015       2.424815      31.152970
   O      13.355211      14.859718      30.813000
   O       6.914242       8.716473       9.458801
   O      11.171278       4.966980       6.460485
   O       8.942026       8.523378      12.074055
   O      29.178156      17.375024       8.918980
   O       6.325991       0.052954      14.081206
   O      30.299298       9.484906       0.727017
   O      15.721631      26.704493       0.810355
   O       8.894475      10.680994      10.051714
   O       9.860216      12.350769       8.139789
   O       4.120168       8.097588       8.542377
   O       3.263065       1.898359       4.305630
   O      17.864693       4.302277       4.606772
   O      12.771907       3.099761       2.882283
   O      15.453620      12.066706       7.371146
   O      12.801374      10.459019      13.497522
   O       4.353601       4.329405       3.597529
   O      17.815919      15.690899       3.819592
   O      13.471177      23.553613      31.114168
   O       4.883824       0.223606       9.669674
   O       4.728514      27.919381      13.437425
   O       3.840564      29.719590      29.882495
   O      26.315552      16.089638       8.621226
   O       6.892682      10.609128       4.440817
   O      10.428613       1.904111       7.753826
   O      15.347748       5.281446       2.249091
   O       8.483639      15.156829      11.077241
   O       0.806325      30.832769      21.631998
   O      11.823057       5.726111      17.811333
   O       2.836531      12.647152       9.081532
   O       5.572569       2.800244      10.339181
   O       4.247535       4.319208      27.957877
   O      14.515179       6.509883      10.716717
   O       8.261657       8.625202      17.509963
   O      30.968279       5.237644       4.630619
   O       0.886947       2.568927       6.503845
   O       9.797831       8.495585       6.364955
   O       5.282221       6.998915      11.680295
   O      12.404881       0.795233       3.979384
   O      14.636669       5.582529       6.122665
   O       3.454755      29.956371       8.157062
   O      19.320559      14.433288       7.593080
   O      15.349427      11.072744       9.892798
   O       5.761435      15.924435      13.672240
   O      31.222777       1.536720       4.080651
   O       9.345711      28.292015       4.451975
   O      10.351365       8.235170      14.964809
   O       6.638482      10.690562      12.232697
   O       3.223563      30.295821       1.018273
   O      11.772764      12.803322       2.188476
   O       3.021830      17.017987       1.189321
   O       4.573905      12.580606      11.670890
   O      12.681616       8.941436       1.327654
   O       6.068729      12.513994      15.013406
   O      14.568653      30.893266       3.354912
   O       0.920567       7.187329      30.084114
   O      11.259470      29.411476       2.761472
   O       4.019469      16.743219       9.590330
   O       8.012492       4.337072       9.645979
   O       0.341472       3.952577      26.199861
   O       2.411572       8.567474      10.826356
   O       6.967479      18.192309      10.027881
   O       2.033655      15.035126       8.367597
   O       7.601897       2.941819       6.871392
   O       8.439350      10.595264      19.390465
   O       5.778330       8.038139       4.723348
   O       2.177962      10.739912       5.297777
   O      12.977038      17.821311       9.304430
   O      14.893071       8.674191      12.498384
   O      15.634359      13.786748       3.731770
   O      10.263803      20.691211      15.103775
   O       3.697515      15.168955      17.253100
   O       5.679064      15.287188      11.061640
   O       0.970017       3.669995      12.858597
   O       8.411547      17.048591      13.221417
   O      15.782263       4.860083      14.505780
   O      31.109356      18.536367       7.054166
   O       1.928119      11.929887       1.573371
   O       9.388203       2.331260       4.990113
   O       7.124043      12.903652       8.699115
   O       4.839852       0.930938      20.612289
   O      11.150723       6.612072       4.266037
   O       6.491818       3.426138      28.643874
   O      16.264632      15.346209      11.403927
   O       4.681594       1.792600       7.180326
   O      16.279252       7.471184      14.927772
   O       5.189884      12.337798       2.990120
   O       9.316738      12.893174      13.038425
   O      11.262612       7.106187       8.284352
   O       2.544877      13.257030      13.526794
   O       9.285459      19.702216      11.670124
   O      14.301073      12.687890      14.713404
   O      27.436478      10.178898      25.044680
   O      12.175073       4.748111      29.611866
   O       0.959451      18.558228       0.701252
   O       9.492544      10.804651      15.176118
   O      11.872011       9.391385      18.969497
   O       4.682472       1.687909      25.417938
   O       8.958940       7.471799      28.665869
   O       9.525506      12.300900      17.435416
   O      19.408348      24.601069      23.077877
   O       8.806469       1.838763      22.610463
   O       7.900160      29.164874      30.886940
   O       9.983081      13.033410      21.977390
   O      10.981247      13.926014      14.825783
   O       7.042802      13.631499      26.546836
   O      30.837316      15.437541      21.225624
   O      14.545674       3.810157      23.525940
   O       6.003233      11.031222      20.139375
   O      10.962696      28.009870      31.286270
   O       7.773662       7.232528      25.842692
   O       9.317582       9.681896      27.304629
   O      13.673588      10.005744      22.849246
   O       6.702051      14.832200      28.835010
   O      16.804823       4.320548      17.115733
   O      27.214959       1.138393      29.375449
   O      10.549084      13.236048      27.375445
   O       0.547318      29.243433      28.342597
   O      16.574958      10.726384       1.746967
   O       4.659749       1.406103       2.042004
   O       2.491897       8.516092      21.820242
   O       9.513920      30.987314      17.081256
   O      30.803767      11.452219      20.261473
   O      13.632873       7.164792      18.926870
   O      15.267327      15.415890      17.994472
   O      13.695749      31.358489      26.861848
   O      31.019272      16.220713       3.798395
   O       4.782471      28.677003      24.203829
   O      13.213240      13.442686      17.100618
   O       2.448247      31.004970      27.741144
   O      11.576896       8.978960      25.714892
   O       3.003731       3.876800       6.781789
   O       8.418172      16.952016      17.342560
   O       1.529178       3.439642      19.817556
   O      27.644465       7.418237      17.415400
   O      11.625032      30.450089      22.492426
   O      10.857227       0.649765      26.136872
   O       4.590509      16.709407       3.462258
   O       3.470841       9.180900      24.217440
   O       9.814953       2.464302      12.756419
   O       7.331183       5.458024      30.103866
   O      10.828175       4.858594      20.163505
   O      17.734973      14.468013      18.602107
   O      14.605827       5.649375      29.471088
   O       4.393692       3.178284      19.250284
   O      12.529372       6.532643      25.896030
   O      14.761138      29.554223       8.859320
   O       4.079931       4.566027      24.844101
   O       0.466685      30.210398       0.121499
   O       5.154760      19.016462      23.443608
   O       0.731014       6.401457      21.550573
   O       1.210595      10.876399      10.209121
   O       9.174135       4.331079      26.001682
   O       7.182987       6.352374      18.327616
   O       1.167600      19.858430      25.515159
   O       1.382959       4.828949      28.372467
   O       6.366364       0.129226      30.120944
   O       1.694598      15.781223      25.250226
   O       7.042627      25.670599      30.928020
   O       6.773789       9.987898      15.529093
   O      12.021873       7.566053      23.207299
   O       9.443800       4.385160       2.960958
   O      30.155817       6.895256      23.325719
   O       2.692708       8.773091      17.279865
   O       2.596831       6.930121      19.390168
   O       1.613091       1.637908      26.238717
   O       5.538639       5.448555      22.703740
   O      14.513882       6.209835      21.909868
   O       1.271698       3.461984      22.386485
   O      14.590162      13.886828      20.893749
   O      14.518376       9.271477      28.422778
   O       6.256615      10.814270      27.838891
   O       3.767420      28.834665      26.867488
   O      14.943049       1.217300      24.694598
   O      15.136810      29.004263      29.170903
   O       3.453692       9.099422      28.848859
   O       0.414548      25.102334      22.834225
   O       7.203979      14.280074      16.735565
   O      29.742665      16.226821      17.453437
   O       9.782098       3.023111      30.583524
   O       9.947532      16.108204      15.432349
   O       4.388651       8.917112       2.476306
   O      10.383547      30.474253      19.979651
   O       3.107100       4.787420      16.681810
   O      11.304811       1.561379      23.741989
   O       1.501745      11.081509      21.869594
   O       6.872383       4.058057       2.238590
   O       6.416229       3.223025      12.804303
   O      30.701862      10.379213      27.351969
   O       4.116025      15.185427      28.337517
   O       4.421920       7.860910      15.390705
   O       8.425361      10.436716      24.883951
   O       7.212011       2.433101      25.715001
   O       3.546317       7.721926      26.554768
   O       1.190092      12.507384      26.164028
   O       6.791167       9.164849       0.956964
   O      10.848531       9.208409      30.789907
   O      11.931826      11.628342      20.463679
   O       5.865817       7.593732      29.080711
   O       2.285326      13.777775       5.941054
   O       4.099550      12.490373      26.843715
   O      30.883086       7.800366      26.987584
   O       1.283268      10.476932      24.397236
   O       7.215883      31.061720      27.402066
   O      29.514320      12.576399      31.209044
   O       8.392461       8.981720      22.110456
   O       6.004585       5.373964      26.555381
   O       9.643462      12.885019      24.896031
   O      29.889997       3.516300       0.689700
   O      10.377235       7.640438      20.662455
   O       7.977124       5.534734      13.641997
   O      11.995118      10.324571      28.646001
   O       0.932076       6.521083      24.796451
   O      11.856417       4.503884      22.848157
   O       3.670639      12.723973      15.945089
   O       4.006171      12.213516      31.145528
   O       9.265448      26.337656       1.120329
   O       3.077583      19.299864       4.136653
   O       0.894053      14.280921      23.402538
   O       5.705486       6.562247       0.792253
   O       0.863212      26.518192       8.271069
   O      15.224482      21.772943      13.454110
   O       3.653185       4.942547       9.698747
   O       6.121955      25.625561       2.215585
   O      13.579399      23.786301       6.600061
   O       9.308354      25.506950       9.217228
   O       8.952428      16.692683       9.018634
   O       6.316468      20.052483       2.109537
   O      12.087875      24.983993       1.709341
   O       7.482626      20.207564       6.374232
   O      11.622036       2.911730      17.224013
   O       3.694434      28.052745       6.354526
   O       4.460940      21.715790       0.961237
   O      10.384402      27.835167      13.166397
   O      29.614383      29.455457       5.729735
   O      13.863763      16.019906       7.303134
   O       6.735555      22.035246       4.165530
   O      14.271906      14.996739      13.580490
   O      16.597883      26.100780       9.272032
   O       4.782882      25.545551       6.753379
   O      11.846258       1.016470      12.972378
   O      11.881112       3.886665       9.431290
   O      21.968171      11.097100       4.997810
   O       4.770614      19.108855       6.389690
   O      13.549477      30.039377       6.211664
   O      30.743087      19.203848      15.100759
   O      16.193868       1.184187      13.751734
   O      12.622571      23.900443      10.291763
   O      30.245889      20.975450       7.681873
   O       6.454946      14.856706       2.392546
   O       2.786479      27.922205       9.805077
   O      11.607288      19.483012       1.345012
   O      13.827829      27.085114       5.347024
   O      11.379517      18.036278      16.517321
   O       7.741181       0.515010      11.799927
   O       7.290034      23.553537       9.366163
   O      15.806966      18.822242       1.975756
   O       5.205651      24.664061      11.299974
   O      21.028461      18.064133       1.714615
   O      11.485889      21.673427      18.622984
   O       9.756757      25.370235       5.125707
   O       2.651534      19.409089      18.076883
   O       8.086913      16.028772       6.361526
   O       9.344182      16.614972      30.081756
   O      11.081492      17.434101       7.586872
   O      11.324721       6.170627      13.044937
   O       1.925514      19.897972       8.126963
   O      10.293972      15.701937       2.964247
   O      18.627511      16.649223       6.088082
   O      10.603305      27.133825      28.832900
   O      13.733431      21.427038      29.164557
   O      17.890374       1.815320      10.209488
   O       4.116862      21.688361       8.190844
   O      15.868925      24.866717       2.771276
   O      10.833613      14.805960       0.385733
   O      12.622386      13.079549       5.066241
   O       8.514182      19.717877      17.039156
   O       8.431481      24.748957      28.484308
   O      29.215104      21.406621      10.485422
   O       8.856383      22.264196       0.710004
   O       9.719695      22.620764       9.780425
   O      14.973358      15.306909      28.605878
   O       1.393591      30.941966       4.743600
   O       1.295729      16.963086      17.643943
   O      14.575146      16.710951      20.434452
   O      11.140477      20.209096       7.532318
   O      11.648853      20.085880      10.129382
   O       4.705114      23.814685      30.377502
   O      11.402423      26.963833       8.474280
   O      15.563406      23.197249      10.258128
   O       1.617218      22.517309       9.821773
   O       5.272632      16.651932       7.122090
   O      11.216637      23.132251       7.414002
   O       5.975405      25.029888      14.660418
   O      13.060297      21.642463       2.014821
   O       7.207914      28.778093       7.610027
   O       0.647428      18.793329       3.323716
   O      14.311253      29.212390       1.381911
   O      13.354602       2.528627      11.337542
   O       5.906970      27.864501      15.656544
   O       1.367837      18.676834      10.434365
   O      19.640915      14.521572       2.174026
   O      13.456385      27.862696      10.570724
   O       4.444726      21.099663      16.842991
   O       2.838309      20.291490      30.847088
   O       4.618016      19.616472      10.034124
   O       1.234787      22.938212       1.319170
   O       8.719772      27.425673      10.985528
   O       8.259735      24.241085       2.943490
   O       1.759281      27.154619      12.193412
   O      15.212673      15.596678       1.186081
   O      29.471661      29.013899       2.012081
   O      18.270777      18.173054       2.772017
   O       5.504167      27.917371       9.700707
   O       8.366879      24.143243      20.135309
   O       3.015737      21.886675       3.311301
   O       0.175332      28.228070      14.109874
   O      12.118570      29.778238      12.446093
   O       1.989958      24.304036       5.830120
   O       8.462725      22.661285      13.906407
   O      11.384495      25.482758      14.808282
   O       3.523853      24.224917       8.836801
   O       4.272531      30.453033      12.363085
   O      11.419493      30.652443       9.688383
   O      17.950647      24.790997       4.871891
   O       9.327885      19.629685       2.567558
   O       4.508638      23.003420       5.517164
   O       9.026631      28.722809      15.580991
   O       0.022514      23.692839      19.231418
   O       4.121791      21.217983      22.084786
   O       7.584827      25.976651       7.118036
   O      15.450009      18.183306      12.135066
   O      29.133764       8.322940       8.321920
   O       2.924175      25.995537       3.714738
   O      14.458259      19.988825       3.950739
   O      10.893035      29.189716       6.712293
   O       3.781259      11.115911      18.120219
   O      13.492699      24.243263       3.988763
   O      10.175596      19.151917      30.332436
   O      13.342539       1.587491       6.494985
   O       6.408965      19.880443      15.343052
   O      18.144963      23.190373      11.434377
   O       2.255779      28.723179       3.197638
   O       4.100105      19.127117      20.283106
   O      13.617519      15.687570      10.920547
   O      28.886953       1.370374       9.005417
   O       1.069950      31.280219       7.450535
   O      13.677844       4.762506      12.732187
   O      31.170246      22.154358      25.074075
   O      14.915379      28.938010      24.245475
   O       0.877309      26.880653      20.785952
   O      10.087241      26.161967      23.262429
   O      18.590141       1.056148      17.434912
   O       5.427495      14.966559      24.546196
   O       8.226938      15.844574      24.392502
   O      17.219727      29.820857      26.478483
   O       8.832193       4.386490      23.260237
   O      15.600981      19.950798      19.570378
   O       8.662920      20.880635      23.503185
   O       5.707873       1.764169      23.004262
   O      10.188649      18.859911      19.157971
   O       9.767767      15.868607      27.614749
   O       1.897544      22.862477      23.612780
   O       7.593101      14.511544      21.759745
   O       7.790702      28.076391      22.669751
   O      11.853765      16.256609      25.790165
   O       6.322371      25.421816      22.677648
   O       8.948695       1.978342      28.085200
   O      12.659934      27.898090      23.150266
   O       7.067996       2.917974      18.167239
   O      18.550705      10.863587      17.077451
   O       7.458503      25.196154      25.183988
   O       9.911104      28.038256      21.070876
   O       2.373498      18.358623      23.780936
   O      11.211479      20.105385      28.085665
   O       6.417070      11.245070      30.516131
   O      12.025636      28.327412      17.574026
   O       6.102823      14.178228      19.364125
   O      12.124906      31.033978      17.763038
   O       7.823265      21.779852      18.843689
   O      14.480715       0.512247      18.549302
   O      13.060104      18.695296      26.714647
   O       9.708536      29.918223      24.551191
   O       4.020701      16.935312      26.255049
   O      16.235297      31.283436      16.229742
   O       6.727450      22.368612      22.164216
   O       9.498314      15.999256      19.660280
   O       8.314658      14.406612       4.263896
   O       6.008594       2.486121      15.388608
   O      26.009666      20.055194      20.152023
   O       4.716779      26.315933      29.300027
   O      13.752960      19.644521      15.918492
   O      12.265286      20.862461      21.283191
   O       7.182610      28.271660       2.019003
   O       1.108582      20.727577      19.828749
   O       9.737747      24.240960      12.270473
   O      12.628881      22.175701      23.479627
   O      17.344593      17.537512      20.362195
   O      15.199618      29.962283      20.553959
   O      12.506946      24.398096      26.165539
   O       6.338394      28.043375      20.347981
   O      16.374045      23.348546      25.165766
   O      12.717580      21.510459      12.235118
   O       4.998281       8.653415      20.514038
   O       1.458504      21.383777      28.647082
   O      10.163300       4.570513      11.212940
   O       2.293457      29.003443      23.070460
   O       7.576407      25.821654      12.708957
   O       6.604630      17.984423      29.531962
   O      13.772295      25.124038      16.009529
   O       6.638265      30.784689      24.595640
   O       3.406764      22.793485      26.077716
   O       5.617868      17.117450       0.785970
   O       6.313535      20.922734      27.542744
   O       3.479612      19.811910      26.726643
   O      10.110755      26.034486      19.143784
   O      14.779836      22.560933      20.474142
   O      14.744807      25.348002      24.499656
   O       2.178632      16.955468      20.738660
   O       2.334432      24.692059      17.264428
   O       9.374872      26.239224      16.610213
   O       3.831490      18.344092      29.107231
   O      10.234392      23.330164      22.095045
   O      16.593590      25.606320      21.533670
   O       5.890028      12.566298      22.345930
   O      17.421902      27.379996      24.883209
   O      15.332355      21.494917      26.990121
   O      10.635092      27.821412      25.844641
   O       3.482417      13.149347      19.754606
   O      11.280206      14.042092      19.101032
   O      19.258510      20.167193       4.522182
   O      27.573645      27.582757      30.796354
   O      28.196103      10.913676      13.720270
   O       9.175254       2.405031      16.624740
   O       5.825692      30.407306      16.935932
   O       9.240726      11.861609      28.938113
   O       8.727118      30.283377       9.927896
   O       7.920321      20.381249      29.931317
   O      13.814614      26.287716      21.240129
   O       6.105164      26.753929      26.956747
   O      13.187502      22.415464      16.486842
   O       8.520692       1.675766      20.008986
   O      10.500112      21.675306      25.150021
   O       6.746829      20.796525      12.695664
   O      30.514099      24.070976      26.596245
   O       0.926852      27.618664       1.201531
   O       6.911546      30.998039      19.493498
   O      11.150766       2.049639      19.672223
   O      13.569493      26.230523      27.829310
   O       7.833082      24.170047      16.278368
   O      30.156324      23.329924       2.775924
   O       6.761426      28.658429       5.080254
   O       9.753062      18.913670      21.889563
   O      14.144354      27.989395      19.260562
   O       1.497832      23.925629      27.600925
   O       1.834300       2.133779      29.427943
   O       5.503041      23.528688      27.549811
   O      26.762725      23.065519      28.838627
   O       6.754940      19.888678      20.770274
   O      11.436473      17.246601      23.075388
   O      27.960205      26.516539      20.654204
   O       4.018580      27.010435      21.323375
   O       5.712750      11.436937      24.745136
   O      15.738752      25.212204      29.189077
   O       7.205983      19.524741      25.424434
   O      17.390052      24.485704      14.816647
   O       6.792649      17.357759      22.248122
   O      13.075433      28.661978      26.552965
   O      31.116979      17.863988      22.284622
   O       7.515919      17.394786      26.977822
   O      15.355482      26.384196      11.764215
   O      10.305531      23.117614      27.526345
   O      12.166925      14.568198      21.975414
   O       2.444038      26.629148      28.147308
   O       2.283130       0.737204      19.893870
   O       7.986916      28.442523      27.665042
   O      16.983212      12.936599      16.508936
   O      26.464104      10.099820      11.670923
   O      19.750230      12.251213       6.178742
   O      20.537922       8.272025      28.376046
   O      24.967947      17.233936       6.060679
   O      22.737989       8.531118       8.684144
   O      24.865806      30.243606      10.163613
   O      29.564991      12.976908       3.495686
   O      26.473467      22.372329       7.066170
   O      24.317490       0.900694       3.811394
   O      24.872904       5.367906      10.001820
   O      24.131799      18.079936       2.933653
   O      20.919690      14.517018       9.558308
   O      22.536548       6.760298      10.473658
   O      19.913799       9.684557       3.927777
   O      21.639655       1.422345       4.892297
   O      21.506413      16.868653       6.197170
   O       1.504211       1.156242      11.678784
   O      24.416657       2.228061       8.171642
   O      29.633192      15.466685       1.727223
   O      25.244948      12.026287       9.822897
   O      24.918938      20.423503       2.296961
   O      28.034330       3.724241       5.708572
   O      20.033305       9.628279      13.187561
   O      17.961169      10.803367       7.512901
   O      20.911199       4.533184      10.790942
   O      31.310504      12.604704      16.850876
   O      28.794649      28.394110      15.722461
   O      24.097491       5.532127       5.868600
   O      21.861999      30.608451      29.984553
   O      26.804677       9.241814       0.805668
   O      22.535273       3.391335       1.188533
   O      26.907086      17.930115       4.427276
   O       3.415349       2.832552      14.564935
   O      22.642781      11.249494      30.472821
   O      25.389746       3.114513       5.826744
   O      27.338149      16.839151       2.017868
   O      21.888022       3.221250       8.533368
   O      30.203771       5.755042       8.956562
   O      29.732139       1.790221      14.316033
   O      17.673240      11.835330       4.285142
   O      18.013641       4.248817       9.344069
   O      17.252710       6.771345       1.370083
   O      28.174739       0.215421       6.453157
   O       1.212844       5.906476      10.854357
   O      19.443506      12.266793      10.148859
   O      18.794252       8.458017      30.863978
   O      24.399102      27.557917       9.709857
   O      28.921905       8.506552       5.426578
   O      26.113932       4.450705       1.134934
   O      29.088208      16.672295       5.523908
   O       0.620243       9.057175      13.515941
   O      21.317927       3.982928       4.077098
   O      31.293456       9.564160       6.188814
   O      27.663471       3.983692      29.132160
   O      18.533005       2.996911       6.927120
   O      20.851258       2.620836      17.298034
   O      25.355609      14.064509       7.160287
   O      14.858793       8.217552       4.930448
   O      15.395572       8.526664      31.241707
   O      23.843454      30.701031       7.753002
   O      22.485487      12.103286       8.096893
   O      22.560089      15.882928      31.056962
   O      20.426777      28.872563      12.590371
   O      29.163738       3.488587      11.661409
   O      17.465355       9.467045      12.016725
   O      26.780500       3.821345       9.263050
   O      22.591275       7.664453       1.241835
   O      26.502792       9.004738       8.920575
   O       0.268705       9.860122      16.380045
   O      16.126243      23.442998       0.527273
   O      21.278193       7.908049       6.589242
   O      30.307174      10.645573       8.664387
   O      24.478501       2.333726      11.471042