&GLOBAL
  PRINT_LEVEL MEDIUM
  PROJECT H2O-ADMMQ-OPTX_geopt
  RUN_TYPE GEO_OPT
&END GLOBAL

&MOTION
  &GEO_OPT
    MAX_ITER 1
  &END GEO_OPT
&END MOTION

&FORCE_EVAL
  METHOD Quickstep
  &DFT
    BASIS_SET_FILE_NAME BASIS_ccGRB_UZH
    BASIS_SET_FILE_NAME BASIS_ADMM_UZH
    POTENTIAL_FILE_NAME POTENTIAL_UZH
    &AUXILIARY_DENSITY_MATRIX_METHOD
      ADMM_PURIFICATION_METHOD NONE
      EXCH_CORRECTION_FUNC OPTX
      EXCH_SCALING_MODEL NONE
      METHOD CHARGE_CONSTRAINED_PROJECTION
    &END AUXILIARY_DENSITY_MATRIX_METHOD
    &MGRID
      CUTOFF 240
      REL_CUTOFF 40
    &END MGRID
    &QS
      EPS_DEFAULT 1.0E-12
      METHOD GPW
    &END QS
    &SCF
      IGNORE_CONVERGENCE_FAILURE
      MAX_SCF 5
      SCF_GUESS ATOMIC
    &END SCF
    &XC
      &HF
        FRACTION 1.0
        &INTERACTION_POTENTIAL
          CUTOFF_RADIUS 2.0
          POTENTIAL_TYPE TRUNCATED
        &END INTERACTION_POTENTIAL
        &SCREENING
          EPS_SCHWARZ 1.0E-10
          EPS_SCHWARZ_FORCES 1.0E-10
        &END SCREENING
      &END HF
      &XC_FUNCTIONAL NONE
      &END XC_FUNCTIONAL
    &END XC
  &END DFT
  &SUBSYS
    &CELL
      ABC 4.5 4.5 4.5
    &END CELL
    &COORD
      O   0.000000    0.000000   -0.045587
      H   0.000000   -0.757136    0.510545
      H   0.000000    0.757136    0.510545
    &END COORD
    &KIND H
      BASIS_SET ccGRB-D-q1
      BASIS_SET AUX_FIT admm-dz-q1
      POTENTIAL GTH-HYB-q1
    &END KIND
    &KIND O
      BASIS_SET ccGRB-D-q6
      BASIS_SET AUX_FIT admm-dz-q6
      POTENTIAL GTH-HYB-q6
    &END KIND
    &TOPOLOGY
    &END TOPOLOGY
  &END SUBSYS
&END FORCE_EVAL
