&FORCE_EVAL
    METHOD Quickstep
    &DFT
        BASIS_SET_FILE_NAME BASIS_ccGRB_UZH
        BASIS_SET_FILE_NAME BASIS_ADMM_UZH
        POTENTIAL_FILE_NAME POTENTIAL_UZH
        &MGRID
            CUTOFF 240
            REL_CUTOFF 50
        &END MGRID
        &AUXILIARY_DENSITY_MATRIX_METHOD
            ADMM_PURIFICATION_METHOD NONE
            METHOD BASIS_PROJECTION
            EXCH_SCALING_MODEL MERLOT
        &END
        &POISSON
            POISSON_SOLVER MT
            PERIODIC NONE
        &END 
        LSD
        MULTIPLICITY 3
        &QS
            EPS_DEFAULT 1.0E-12
            METHOD GPW
        &END
        &SCF
            SCF_GUESS ATOMIC
            MAX_SCF 3
        &END SCF
        &XC
            &XC_FUNCTIONAL
               &PBE
                  SCALE_X 0.55
               &END
            &END XC_FUNCTIONAL
            &HF
                FRACTION 0.45
                &SCREENING
                   EPS_SCHWARZ 1.0E-10
                   EPS_SCHWARZ_FORCES 1.0E-10
                &END
            &END
        &END XC
    &END DFT
    &SUBSYS
        &CELL
            ABC 4.0 4.0 6.0
            PERIODIC NONE
        &END CELL
        &TOPOLOGY
        &END
        &COORD
            O   0.000000    0.000000    0.000000
            O   0.000000    0.000000    1.200000
        &END COORD
        &KIND H
            BASIS_SET ccGRB-D-q1
            BASIS_SET AUX_FIT admm-dz-q1
            POTENTIAL GTH-HYB-q1
        &END KIND
        &KIND O
            BASIS_SET ccGRB-D-q6
            BASIS_SET AUX_FIT admm-dz-q6
            POTENTIAL GTH-HYB-q6
        &END KIND
    &END SUBSYS
&END FORCE_EVAL
&GLOBAL
    PROJECT O2-ADMMP-HYB_geopt
    PRINT_LEVEL MEDIUM
    RUN_TYPE GEO_OPT
&END GLOBAL
&MOTION
   &GEO_OPT
      MAX_ITER 1
   &END
&END MOTION
