@SET RESTART_WFN          TRUE
@SET WFN_FILE             HeH-water-noconstraint-1_0.wfn
@SET PROJECT_NAME         HeH-water-cdft-state-1
@SET WRITE_WFN            1
@SET CHARGE               1
@SET WRITE_CUBE           FALSE
@SET XYZFILE              HeH-water.xyz
@SET BECKE_ACTIVE         TRUE
@SET BECKE_FRAGMENT       FALSE
@SET MAX_SCF              5
! He+ H
@SET BECKE_TARGET_1       0.0
@SET BECKE_STR_1          0.0
! He H+
@SET BECKE_TARGET_2       2.0
@SET BECKE_STR_2          0.0
@SET BECKE_GLOBAL_CUTOFF  TRUE
@SET BECKE_CUTOFF_ELEMENT FALSE
@SET BECKE_ADJUST_SIZE    FALSE
@SET BECKE_ATOMIC_CHARGES TRUE
@SET BECKE_CAVITY_CONFINE FALSE
@SET BECKE_CAVITY_SHAPE   VDW
@SET BECKE_CAVITY_PRINT   FALSE
@SET BECKE_SHOULD_SKIP    FALSE
@SET BECKE_IN_MEMORY      FALSE
&GLOBAL
  PRINT_LEVEL MEDIUM
  PROJECT ${PROJECT_NAME}
  RUN_TYPE ENERGY
&END GLOBAL

&FORCE_EVAL
  METHOD QMMM
  @SET BECKE_STR ${BECKE_STR_1}
  @SET BECKE_TARGET ${BECKE_TARGET_1}
  @INCLUDE subsys.inc
  @INCLUDE qmmm-common-params.inc
  @INCLUDE dft-common-params.inc
  @INCLUDE mm-common-params.inc
&END FORCE_EVAL
