&GLOBAL
  PROJECT ethene-restraint2
  RUN_TYPE md
&END GLOBAL

&MOTION
  &CONSTRAINT
    &COLLECTIVE
      COLVAR 1
      MOLECULE 1
      TARGET [deg] 0.0
      &RESTRAINT
        K [kcalmol] 4.90
      &END RESTRAINT
    &END COLLECTIVE
    &COLLECTIVE
      COLVAR 2
      MOLECULE 1
      TARGET [deg] 180.0
      &RESTRAINT
        K [kcalmol] 4.90
      &END RESTRAINT
    &END COLLECTIVE
    &COLLECTIVE
      COLVAR 3
      MOLECULE 1
      TARGET [deg] -180.0
      &RESTRAINT
        K [kcalmol] 4.90
      &END RESTRAINT
    &END COLLECTIVE
    &COLLECTIVE
      COLVAR 4
      MOLECULE 1
      TARGET [deg] 0.0
      &RESTRAINT
        K [kcalmol] 4.90
      &END RESTRAINT
    &END COLLECTIVE
  &END CONSTRAINT
  &MD
    ENSEMBLE NVE
    STEPS 2
    TEMPERATURE 298
    TIMESTEP 0.5
  &END MD
&END MOTION

&FORCE_EVAL
  METHOD FIST
  &MM
    &FORCEFIELD
      PARMTYPE CHM
      PARM_FILE_NAME ../sample_pot/ethene_fake.pot
      &CHARGE
        ATOM CE2
        CHARGE -0.42
      &END CHARGE
      &CHARGE
        ATOM HE2
        CHARGE 0.21
      &END CHARGE
    &END FORCEFIELD
    &POISSON
      &EWALD
        ALPHA .44
        EWALD_TYPE spme
        GMAX 24
        O_SPLINE 6
      &END EWALD
    &END POISSON
  &END MM
  &SUBSYS
    &CELL
      ABC 24.955 24.955 24.955
    &END CELL
    &COLVAR
      &TORSION
        ATOMS 3 1 2 4
      &END TORSION
    &END COLVAR
    &COLVAR
      &TORSION
        ATOMS 3 1 2 6
      &END TORSION
    &END COLVAR
    &COLVAR
      &TORSION
        ATOMS 5 1 2 4
      &END TORSION
    &END COLVAR
    &COLVAR
      &TORSION
        ATOMS 5 1 2 6
      &END TORSION
    &END COLVAR
    &TOPOLOGY
      COORDINATE pdb
      COORD_FILE_NAME ../sample_pdb/ethene.pdb
    &END TOPOLOGY
  &END SUBSYS
&END FORCE_EVAL
