&GLOBAL
  PROJECT H2O-meta-combine
  RUN_TYPE md
&END GLOBAL

&MOTION
  &CONSTRAINT
    &COLLECTIVE
      COLVAR 1
      MOLECULE 1
      &RESTRAINT
        K [kcalmol*rad^-2] 55.0
      &END RESTRAINT
    &END COLLECTIVE
  &END CONSTRAINT
  &MD
    ENSEMBLE NVE
    STEPS 10
    TEMPERATURE 298
    TIMESTEP 2.5
  &END MD
  &PRINT
    &RESTART
      &EACH
        MD 1
      &END EACH
    &END RESTART
  &END PRINT
&END MOTION

&FORCE_EVAL
  METHOD FIST
  &MM
    &FORCEFIELD
      PARMTYPE CHM
      PARM_FILE_NAME ../sample_pot/water.pot
      &CHARGE
        ATOM OT
        CHARGE -0.8476
      &END CHARGE
      &CHARGE
        ATOM HT
        CHARGE 0.4238
      &END CHARGE
    &END FORCEFIELD
    &POISSON
      &EWALD
        ALPHA .44
        EWALD_TYPE spme
        GMAX 24
        O_SPLINE 6
      &END EWALD
    &END POISSON
  &END MM
  &SUBSYS
    &CELL
      ABC 24.955 24.955 24.955
    &END CELL
    &COLVAR
      &COMBINE_COLVAR
        ERROR_LIMIT 1.0E-9
        FUNCTION (CV1^P+CV2^P)^(1./P)
        PARAMETERS P
        VALUES 4.0
        VARIABLES CV1 CV2
        &COLVAR
          &DISTANCE
            ATOMS 1 2
          &END DISTANCE
        &END COLVAR
        &COLVAR
          &DISTANCE
            ATOMS 1 3
          &END DISTANCE
        &END COLVAR
      &END COMBINE_COLVAR
    &END COLVAR
    &TOPOLOGY
      COORDINATE pdb
      COORD_FILE_NAME ../sample_pdb/water_1.pdb
    &END TOPOLOGY
  &END SUBSYS
&END FORCE_EVAL
