&GLOBAL
  PROJECT H2O-restraint
  RUN_TYPE md
&END GLOBAL

&MOTION
  &CONSTRAINT
    &COLLECTIVE
      COLVAR 1
      MOLECULE 1
      TARGET [angstrom] 0.957
      &RESTRAINT
        K [kcalmol*angstrom^-2] 450.0
      &END RESTRAINT
    &END COLLECTIVE
    &COLLECTIVE
      COLVAR 2
      MOLECULE 1
      TARGET [angstrom] 0.9572
      &RESTRAINT
        K [kcalmol*angstrom^-2] 450.0
      &END RESTRAINT
    &END COLLECTIVE
    &COLLECTIVE
      COLVAR 3
      MOLECULE 1
      TARGET [deg] 104.52
      &RESTRAINT
        K [kcalmol*rad^-2] 55.0
      &END RESTRAINT
    &END COLLECTIVE
  &END CONSTRAINT
  &MD
    ENSEMBLE NVE
    STEPS 2
    TEMPERATURE 298
    TIMESTEP 2.5
  &END MD
&END MOTION

&FORCE_EVAL
  METHOD FIST
  &MM
    &FORCEFIELD
      PARMTYPE CHM
      PARM_FILE_NAME ../sample_pot/water_fake.pot
      &CHARGE
        ATOM OT
        CHARGE -0.8476
      &END CHARGE
      &CHARGE
        ATOM HT
        CHARGE 0.4238
      &END CHARGE
    &END FORCEFIELD
    &POISSON
      &EWALD
        ALPHA .44
        EWALD_TYPE spme
        GMAX 24
        O_SPLINE 6
      &END EWALD
    &END POISSON
  &END MM
  &SUBSYS
    &CELL
      ABC 24.955 24.955 24.955
    &END CELL
    &COLVAR
      &DISTANCE
        ATOMS 1 2
      &END DISTANCE
    &END COLVAR
    &COLVAR
      &DISTANCE
        ATOMS 1 3
      &END DISTANCE
    &END COLVAR
    &COLVAR
      &ANGLE
        ATOMS 2 1 3
      &END ANGLE
    &END COLVAR
    &TOPOLOGY
      COORDINATE pdb
      COORD_FILE_NAME ../sample_pdb/water_1.pdb
    &END TOPOLOGY
  &END SUBSYS
&END FORCE_EVAL
