&GLOBAL
  PRINT_LEVEL DEBUG
  PROJECT h2o2_amber
  RUN_TYPE md
&END GLOBAL

&MOTION
  &MD
    ENSEMBLE NVE
    STEPS 1
    TEMPERATURE 0.0
    TIMESTEP 1.0
  &END MD
&END MOTION

&FORCE_EVAL
  METHOD FIST
  &MM
    &FORCEFIELD
      EI_SCALE14 0.8333333
      PARMTYPE CHM
      PARM_FILE_NAME ../sample_pot/h2o2_amber.pot
      SHIFT_CUTOFF .false.
      ! PARM91
      ! VDW_SCALE14 0.5
      ! EI_SCALE14  0.5
      ! PARM94 and Following
      VDW_SCALE14 0.5
    &END FORCEFIELD
    &POISSON
      &EWALD
        ALPHA .36
        EWALD_TYPE ewald
        GMAX 51
      &END EWALD
    &END POISSON
  &END MM
  &SUBSYS
    &CELL
      ABC 20.0 20.0 20.0
    &END CELL
    &PRINT
      &TOPOLOGY_INFO
        UTIL_INFO
      &END TOPOLOGY_INFO
    &END PRINT
    &TOPOLOGY
      CONNECTIVITY UPSF
      CONN_FILE_NAME ../sample_psf/h2o2_amber.psf
      COORDINATE PDB
      COORD_FILE_NAME ../sample_pdb/h2o2_amber.pdb
    &END TOPOLOGY
  &END SUBSYS
&END FORCE_EVAL

# Amber results
# BOND    =        2.2271  ANGLE   =        0.3320  DIHED      =        0.6088
# VDWAALS =       -0.0014  EEL     =       -0.0159  HBOND      =        0.0000
# 1-4 VDW =        0.0000  1-4 EEL =       20.9514  RESTRAINT  =        0.0000