&GLOBAL
  PROJECT nh3-meta-2
  RUN_TYPE md
&END GLOBAL

&MOTION
  &FREE_ENERGY
    &METADYN
      DO_HILLS
      LAGRANGE
      NT_HILLS 3
      WW 1.0e-2
      &METAVAR
        COLVAR 1
        LAMBDA 0.1
        MASS 10.0
        SCALE 0.02
      &END METAVAR
    &END METADYN
  &END FREE_ENERGY
  &MD
    ENSEMBLE NVE
    STEPS 50
    TEMPERATURE 100.0
    TEMP_TOL 10.0
    TIMESTEP 1.0
  &END MD
&END MOTION

&FORCE_EVAL
  METHOD FIST
  &MM
    &FORCEFIELD
      PARMTYPE CHM
      PARM_FILE_NAME ../sample_pot/nh3.pot
    &END FORCEFIELD
    &POISSON
      &EWALD
        ALPHA .44
        EWALD_TYPE spme
        GMAX 30
        O_SPLINE 6
      &END EWALD
    &END POISSON
  &END MM
  &SUBSYS
    &CELL
      ABC 10.0 10.0 10.0
    &END CELL
    &COLVAR
      &ANGLE
        ATOMS 2 1 3
      &END ANGLE
    &END COLVAR
    &TOPOLOGY
      CONNECTIVITY UPSF
      CONN_FILE_NAME ../sample_psf/nh3.psf
      COORDINATE pdb
      COORD_FILE_NAME ../sample_pdb/nh3_1mol.pdb
    &END TOPOLOGY
  &END SUBSYS
&END FORCE_EVAL
