&GLOBAL
  PROJECT NH3-ref
  RUN_TYPE md
&END GLOBAL

&MOTION
  &FREE_ENERGY
    &METADYN
      NT_HILLS 1
      &METAVAR
        COLVAR 1
        SCALE 0.02
      &END METAVAR
      &PRINT
        &COLVAR
          &EACH
            METADYNAMICS 1
          &END EACH
        &END COLVAR
        &HILLS OFF
        &END HILLS
      &END PRINT
    &END METADYN
  &END FREE_ENERGY
  &MD
    ENSEMBLE REFTRAJ
    STEPS 51
    &REFTRAJ
      EVAL NONE
      TRAJ_FILE_NAME NH3-pos-1.xyz
    &END REFTRAJ
  &END MD
&END MOTION

#CPQA DEPENDS nh3-meta-1.inp
&FORCE_EVAL
  METHOD FIST
  &MM
    &FORCEFIELD
      PARMTYPE CHM
      PARM_FILE_NAME ../sample_pot/nh3.pot
    &END FORCEFIELD
    &POISSON
      &EWALD
        ALPHA .44
        EWALD_TYPE spme
        GMAX 30
        O_SPLINE 6
      &END EWALD
    &END POISSON
  &END MM
  &SUBSYS
    &CELL
      ABC 10.0 10.0 10.0
    &END CELL
    &COLVAR
      &DISTANCE_POINT_PLANE
        ATOMS_PLANE 2 3 4
        ATOM_POINT 1
      &END DISTANCE_POINT_PLANE
    &END COLVAR
    &TOPOLOGY
      CONNECTIVITY UPSF
      CONN_FILE_NAME ../sample_psf/nh3.psf
      COORDINATE pdb
      COORD_FILE_NAME ../sample_pdb/nh3_1mol.pdb
    &END TOPOLOGY
  &END SUBSYS
&END FORCE_EVAL
