&GLOBAL
  PRINT_LEVEL HIGH
  PROJECT nh3_wat-restraint-fixd
  RUN_TYPE GEO_OPT
&END GLOBAL

&EXT_RESTART
  RESTART_FILE_NAME nh3_wat-restraint-fixd-1.restart
&END EXT_RESTART

&MOTION
  &CONSTRAINT
    &FIXED_ATOMS
      LIST 3
      LIST 4
      &RESTRAINT
        K [kcalmol*angstrom^-2] 100.0
      &END RESTRAINT
    &END FIXED_ATOMS
    &FIXED_ATOMS
      LIST 2
      &RESTRAINT
        K [kcalmol*angstrom^-2] 100.0
      &END RESTRAINT
    &END FIXED_ATOMS
    &FIXED_ATOMS
      LIST 5
      &RESTRAINT
        K [kcalmol*angstrom^-2] 100.0
      &END RESTRAINT
    &END FIXED_ATOMS
  &END CONSTRAINT
  &GEO_OPT
    MAX_ITER 100
    OPTIMIZER BFGS
  &END GEO_OPT
&END MOTION

#CPQA DEPENDS nh3_wat-restraint-fixd-3.inp
&FORCE_EVAL
  METHOD FIST
  &MM
    &FORCEFIELD
      PARMTYPE CHM
      PARM_FILE_NAME ../sample_pot/charmm.pot
      &CHARGE
        ATOM NH3
        CHARGE -1.14
      &END CHARGE
      &CHARGE
        ATOM HC
        CHARGE 0.38
      &END CHARGE
      &CHARGE
        ATOM OT
        CHARGE -0.8
      &END CHARGE
      &CHARGE
        ATOM HT
        CHARGE 0.4
      &END CHARGE
      &SPLINE
        RCUT_NB 6.9
      &END SPLINE
    &END FORCEFIELD
    &POISSON
      &EWALD
        ALPHA .5
        EWALD_TYPE ewald
        GMAX 21
      &END EWALD
    &END POISSON
  &END MM
  &SUBSYS
    &CELL
      ABC 13.858 13.858 13.858
    &END CELL
    &TOPOLOGY
      COORDINATE PDB
      COORD_FILE_NAME ../sample_pdb/NH3_WAT.pdb
    &END TOPOLOGY
  &END SUBSYS
&END FORCE_EVAL
