&GLOBAL
  PROJECT md_gal21
  RUN_TYPE energy
&END GLOBAL

&MOTION
  &CONSTRAINT
    &FIXED_ATOMS
      LIST 1..192  !Pt atoms
    &END FIXED_ATOMS
    &G3X3
      ATOMS 1 2 3
      DISTANCES 1.808845716 1.808845716 2.860856174
      MOLNAME WAT  !To be specified in the coord.inc file
    &END G3X3
  &END CONSTRAINT
  &MD
    ENSEMBLE NVT
    STEPS 10
    TEMPERATURE 298
    TIMESTEP 2
    &THERMOSTAT
    &END THERMOSTAT
  &END MD
  &PRINT
    &TRAJECTORY
      &EACH
        MD 1
      &END EACH
    &END TRAJECTORY
  &END PRINT
&END MOTION

&MULTIPLE_FORCE_EVALS
  FORCE_EVAL_ORDER 1 2 3
&END MULTIPLE_FORCE_EVALS

&FORCE_EVAL
  METHOD MIXED
  &MIXED
    GROUP_PARTITION 1 1
    # MIXING_TYPE LINEAR_COMBINATION
    MIXING_TYPE GENMIX
    &GENERIC
      # X: Energy force_eval 2
      # Y: Energy force_eval 3
      MIXING_FUNCTION X+Y
      VARIABLES X Y
    &END GENERIC
  &END MIXED
  &SUBSYS
    &CELL
      ABC 16.8721334845359721 19.4822616182002832 75
      ALPHA_BETA_GAMMA 90 90 90
      PERIODIC XYZ
    &END CELL
    &COORD
      @INCLUDE "coord-gal21.inc"
    &END COORD
    &TOPOLOGY
      &GENERATE
        BONDPARM_FACTOR 0.95
      &END GENERATE
    &END TOPOLOGY
  &END SUBSYS
&END FORCE_EVAL

&FORCE_EVAL
  METHOD FIST
  &MM
    &FORCEFIELD
      IGNORE_MISSING_CRITICAL_PARAMS T
      MULTIPLE_POTENTIAL .TRUE.
      &CHARGE
        ATOM O
        CHARGE -0.830
      &END CHARGE
      &CHARGE
        ATOM Pt
        CHARGE 0.0
      &END CHARGE
      &CHARGE
        ATOM H
        CHARGE 0.415
      &END CHARGE
      &NONBONDED
        &LENNARD-JONES
          ATOMS O O
          EPSILON [kcalmol] 0.102
          RCUT 10
          SIGMA [angstrom] 3.188
        &END LENNARD-JONES
      &END NONBONDED
      &SPLINE
        EMAX_SPLINE 10
      &END SPLINE
    &END FORCEFIELD
    &POISSON
      &EWALD
        EWALD_TYPE spme
        GMAX 17 20 75  !About box dimensions
      &END EWALD
    &END POISSON
  &END MM
&END FORCE_EVAL

&FORCE_EVAL
  METHOD FIST
  &MM
    &FORCEFIELD
      IGNORE_MISSING_CRITICAL_PARAMS T
      &NONBONDED
        &GAL21
          A -48399.51277185474 18486.892036112804
          A1 -45.03531580496108 2.2912089535351723 0.9952972316569941
          A2 35.580119531527174 -9.91621141032723 0.7804880180017064
          A3 -106.48217251468913 29.06440141041192 -1.8553892798403497
          A4 -14.13835574840837 -1.9537083062459715e-10 0.19129810724417187
          AH 35728.40150389513 -3751.73899676257
          ATOMS O Pt
          B 3.4989779 .0988938
          BH 4.5412501 -.1265630
          BXY .6451191 .0010102
          BZ .1214708 .0003720
          C 917.455856665695
          EPSILON -0.9358113879523 9.09851523151946 -5.424038077984534
          FIT_EXPRESS FALSE
          METALS Pt Cu
          R 1.9000000 4.0
          RCUT 10
          &GCN
            @INCLUDE "gcn.inc"
          &END GCN
        &END GAL21
      &END NONBONDED
      &SPLINE
        EMAX_SPLINE 10
      &END SPLINE
    &END FORCEFIELD
    &POISSON
      &EWALD
        EWALD_TYPE spme
        GMAX 17 20 75  !About box size
      &END EWALD
    &END POISSON
  &END MM
&END FORCE_EVAL
