&GLOBAL
  PRINT_LEVEL MEDIUM
  PROJECT H2O-BP-sr
  RUN_TYPE ENERGY
  &TIMINGS
    THRESHOLD 0.000000001
  &END TIMINGS
&END GLOBAL

&FORCE_EVAL
  METHOD Quickstep
  &DFT
    BASIS_SET_FILE_NAME BASIS_MOLOPT
    BASIS_SET_FILE_NAME BASIS_ADMM
    POTENTIAL_FILE_NAME GTH_POTENTIALS
    &AUXILIARY_DENSITY_MATRIX_METHOD
      ADMM_PURIFICATION_METHOD NONE
      EXCH_CORRECTION_FUNC DEFAULT_LIBXC
      METHOD BASIS_PROJECTION
    &END AUXILIARY_DENSITY_MATRIX_METHOD
    &MGRID
      CUTOFF 100
      REL_CUTOFF 30
    &END MGRID
    &POISSON
      PERIODIC NONE
      PSOLVER MT
    &END POISSON
    &QS
      EPS_FILTER_MATRIX 0.0e0
      EPS_PGF_ORB 1.0E-12
      METHOD GPW
    &END QS
    &SCF
      EPS_SCF 1.0E-6
      MAX_SCF 10
      SCF_GUESS ATOMIC
      &OT ON
        MINIMIZER DIIS
        PRECONDITIONER FULL_ALL
      &END OT
      &OUTER_SCF
        EPS_SCF 1.0E-6
        MAX_SCF 10
      &END OUTER_SCF
    &END SCF
    &XC
      &HF
        FRACTION 0.25
        &INTERACTION_POTENTIAL
          OMEGA 0.5
          POTENTIAL_TYPE SHORTRANGE
        &END INTERACTION_POTENTIAL
        &MEMORY
          EPS_STORAGE_SCALING 0.1
          MAX_MEMORY 900
        &END MEMORY
        &SCREENING
          EPS_SCHWARZ 1.0E-6
          SCREEN_ON_INITIAL_P FALSE
        &END SCREENING
      &END HF
      &XC_FUNCTIONAL
        &PBE
          SCALE_C 1.0
          SCALE_X 0.75
        &END PBE
      &END XC_FUNCTIONAL
    &END XC
  &END DFT
  &SUBSYS
    &CELL
      ABC 6.0 6.0 6.0
      PERIODIC NONE
    &END CELL
    &COORD
      O       0.000000    0.000000    -0.211000
      H       0.000000   -0.844000     0.495000
      H       0.000000    0.744000     0.495000
    &END COORD
    &KIND H
      BASIS_SET DZVP-MOLOPT-GTH
      BASIS_SET AUX_FIT cFIT3
      POTENTIAL GTH-PBE-q1
    &END KIND
    &KIND O
      BASIS_SET DZVP-MOLOPT-GTH
      BASIS_SET AUX_FIT cFIT3
      POTENTIAL GTH-PBE-q6
    &END KIND
  &END SUBSYS
&END FORCE_EVAL
