&GLOBAL
  PRINT_LEVEL LOW
  PROJECT TEST1
  RUN_TYPE ENERGY
&END GLOBAL

&FORCE_EVAL
  METHOD Quickstep
  &DFT
    BASIS_SET_FILE_NAME BASIS_MOLOPT_UZH
    POTENTIAL_FILE_NAME POTENTIAL_UZH
    &HARRIS_METHOD ON
    &END HARRIS_METHOD
    &MGRID
      CUTOFF 200
    &END MGRID
    &QS
      EPS_DEFAULT 1.E-10
    &END QS
    &SCF
      EPS_SCF 1.0E-5
      SCF_GUESS ATOMIC
    &END SCF
    &XC
      &XC_FUNCTIONAL
        &PADE
        &END PADE
      &END XC_FUNCTIONAL
    &END XC
  &END DFT
  &SUBSYS
    &CELL
      ABC 10.0 10.0 10.0
    &END CELL
    &COORD
      O     0.000000     0.000000     0.000000    H2O1
      H     0.000000     0.000000     1.000000    H2O1
      H     0.942809     0.000000    -0.333333    H2O1
      O    -1.617979    -0.948062    -2.341650    H2O2
      H    -2.529195    -1.296822    -2.122437    H2O2
      H    -1.534288    -0.833088    -3.331486    H2O2
    &END COORD
    &KIND H
      BASIS_SET ORB DZVP-MOLOPT-GGA-GTH-q1
      POTENTIAL GTH-GGA-q1
    &END KIND
    &KIND O
      BASIS_SET ORB DZVP-MOLOPT-GGA-GTH-q6
      POTENTIAL GTH-GGA-q6
    &END KIND
  &END SUBSYS
&END FORCE_EVAL
