&GLOBAL
  PRINT_LEVEL LOW
  PROJECT cc02
  RUN_TYPE DEBUG
&END GLOBAL

&DEBUG
  CHECK_ATOM_FORCE 1 xyz
  DE 0.001
  DEBUG_DIPOLE .FALSE.
  DEBUG_FORCES .TRUE.
  DEBUG_POLARIZABILITY .FALSE.
  DEBUG_STRESS_TENSOR .FALSE.
  EPS_NO_ERROR_CHECK 1.E-4
  MAX_RELATIVE_ERROR 0.05
  STOP_ON_MISMATCH T
&END DEBUG

&FORCE_EVAL
  METHOD Quickstep
  &DFT
    BASIS_SET_FILE_NAME BASIS_MOLOPT_UZH
    POTENTIAL_FILE_NAME POTENTIAL_UZH
    &HARRIS_METHOD ON
    &END HARRIS_METHOD
    &MGRID
      CUTOFF 300
      REL_CUTOFF 60
    &END MGRID
    &QS
      EPS_DEFAULT 1.E-14
    &END QS
    &SCF
      SCF_GUESS NONE
    &END SCF
    &XC
      &VDW_POTENTIAL
        DISPERSION_FUNCTIONAL PAIR_POTENTIAL
        &PAIR_POTENTIAL
          PARAMETER_FILE_NAME dftd3.dat
          REFERENCE_FUNCTIONAL PBE
          TYPE DFTD3(BJ)
        &END PAIR_POTENTIAL
      &END VDW_POTENTIAL
      &XC_FUNCTIONAL PBE
      &END XC_FUNCTIONAL
    &END XC
  &END DFT
  &SUBSYS
    &CELL
      ABC 6.0 6.0 6.0
    &END CELL
    &COORD
      O         0.094933   -0.000368    0.895642
      C        -0.031077   -0.000121   -0.307326
      H        -0.090437    0.947608   -0.895642
      H        -0.094933   -0.947608   -0.895562
    &END COORD
    &KIND H
      BASIS_SET ORB DZVP-MOLOPT-GGA-GTH-q1
      POTENTIAL GTH-GGA-q1
    &END KIND
    &KIND C
      BASIS_SET ORB DZVP-MOLOPT-GGA-GTH-q4
      POTENTIAL GTH-GGA-q4
    &END KIND
    &KIND O
      BASIS_SET ORB DZVP-MOLOPT-GGA-GTH-q6
      POTENTIAL GTH-GGA-q6
    &END KIND
  &END SUBSYS
&END FORCE_EVAL
