@SET MY_OMEGA 0.5
&FORCE_EVAL
  METHOD Quickstep
  &DFT
    BASIS_SET_FILE_NAME BASIS_MOLOPT
    &AUXILIARY_DENSITY_MATRIX_METHOD
      ADMM_PURIFICATION_METHOD MO_DIAG
      METHOD BASIS_PROJECTION
    &END AUXILIARY_DENSITY_MATRIX_METHOD
    &MGRID
      CUTOFF 100
      REL_CUTOFF 30
    &END MGRID
    &POISSON
      PERIODIC NONE
      PSOLVER MT
    &END POISSON
    &QS
      EPS_FILTER_MATRIX 0.0e0
      EPS_PGF_ORB 1.0E-12
      METHOD GPW
    &END QS
    &SCF
      EPS_SCF 1.0E-6
      IGNORE_CONVERGENCE_FAILURE
      MAX_SCF 10
      SCF_GUESS RESTART
      &OT ON
      &END OT
    &END SCF
    &XC
      &HF
        FRACTION 1.0
        &INTERACTION_POTENTIAL
          OMEGA ${MY_OMEGA}
          POTENTIAL_TYPE LONGRANGE
        &END INTERACTION_POTENTIAL
        &MEMORY
          EPS_STORAGE_SCALING 0.1
          MAX_MEMORY 900
        &END MEMORY
        &SCREENING
          EPS_SCHWARZ 1.0E-6
          SCREEN_ON_INITIAL_P FALSE
        &END SCREENING
      &END HF
      &XC_FUNCTIONAL
        &LDA_C_PMGB06
          _OMEGA ${MY_OMEGA}
          SCALE -1.0
        &END LDA_C_PMGB06
        &LDA_C_PW
        &END LDA_C_PW
        &LDA_X
        &END LDA_X
        &LDA_X_ERF
          _OMEGA ${MY_OMEGA}
          SCALE -1.0
        &END LDA_X_ERF
      &END XC_FUNCTIONAL
    &END XC
  &END DFT
  &SUBSYS
    &CELL
      ABC 8.0 8.0 8.0
      PERIODIC NONE
    &END CELL
    &COORD
      C   0.0000   0.0000   0.0000
      H   0.6297   0.6297   0.6297
      H   -0.6297   -0.6297   0.6297
      H   -0.6297   0.6297   -0.6297
      H   0.6297   -0.6297   -0.6297
    &END COORD
    &KIND H
      BASIS_SET TZV2P-MOLOPT-GTH
      BASIS_SET AUX_FIT SZV-MOLOPT-GTH
      POTENTIAL_TYPE GTH
      &POTENTIAL
        1    0    0    0
        0.20049539759096       2   -4.17780338804233    0.72403926676805
        0
      &END POTENTIAL
    &END KIND
    &KIND C
      BASIS_SET TZV2P-MOLOPT-GTH
      BASIS_SET AUX_FIT SZV-MOLOPT-GTH
      POTENTIAL_TYPE GTH
      &POTENTIAL
        2    2    0    0
        0.34484877437875       2   -8.75763235228307    1.30101698272829
        1
        0.30376576912506       1    9.58644539759870
      &END POTENTIAL
    &END KIND
  &END SUBSYS
&END FORCE_EVAL

&GLOBAL
  PRINT_LEVEL MEDIUM
  PROJECT CH4-rsLDA
  RUN_TYPE ENERGY_FORCE
  &TIMINGS
    THRESHOLD 0.000000001
  &END TIMINGS
&END GLOBAL
