&GLOBAL
  PRINT_LEVEL MEDIUM
  PROJECT CH4-HSE06
  RUN_TYPE ENERGY_FORCE
  &TIMINGS
    THRESHOLD 0.000000001
  &END TIMINGS
&END GLOBAL

&FORCE_EVAL
  METHOD Quickstep
  &DFT
    BASIS_SET_FILE_NAME BASIS_MOLOPT
    POTENTIAL_FILE_NAME GTH_POTENTIALS
    &AUXILIARY_DENSITY_MATRIX_METHOD
      ADMM_PURIFICATION_METHOD MO_DIAG
      METHOD BASIS_PROJECTION
    &END AUXILIARY_DENSITY_MATRIX_METHOD
    &MGRID
      CUTOFF 100
      REL_CUTOFF 30
    &END MGRID
    &POISSON
      PERIODIC NONE
      PSOLVER MT
    &END POISSON
    &QS
      EPS_FILTER_MATRIX 0.0e0
      EPS_PGF_ORB 1.0E-12
      METHOD GPW
    &END QS
    &SCF
      EPS_SCF 1.0E-6
      IGNORE_CONVERGENCE_FAILURE
      MAX_SCF 10
      SCF_GUESS ATOMIC
      &OT ON
      &END OT
    &END SCF
    &XC
      &HF
        FRACTION 0.25
        &INTERACTION_POTENTIAL
          OMEGA 0.11
          # For HSE SHORTRANGE is better, we use MIX_CL just for testing purposes here
          POTENTIAL_TYPE MIX_CL
          SCALE_COULOMB 1.0
          SCALE_LONGRANGE -1.0
        &END INTERACTION_POTENTIAL
        &MEMORY
          EPS_STORAGE_SCALING 0.1
          MAX_MEMORY 900
        &END MEMORY
        &SCREENING
          EPS_SCHWARZ 1.0E-6
          SCREEN_ON_INITIAL_P FALSE
        &END SCREENING
      &END HF
      &XC_FUNCTIONAL
        &PBE
          SCALE_C 1.0
          SCALE_X 0.0
        &END PBE
        &XWPBE
          OMEGA 0.11
          SCALE_X -0.25
          SCALE_X0 1.0
        &END XWPBE
      &END XC_FUNCTIONAL
    &END XC
  &END DFT
  &SUBSYS
    &CELL
      ABC 8.0 8.0 8.0
      PERIODIC NONE
    &END CELL
    &COORD
      C   0.0000   0.0000   0.0000
      H   0.6297   0.6297   0.6297
      H   -0.6297   -0.6297   0.6297
      H   -0.6297   0.6297   -0.6297
      H   0.6297   -0.6297   -0.6297
    &END COORD
    &KIND H
      BASIS_SET TZV2P-MOLOPT-GTH
      BASIS_SET AUX_FIT SZV-MOLOPT-GTH
      POTENTIAL GTH-PBE-q1
    &END KIND
    &KIND C
      BASIS_SET TZV2P-MOLOPT-GTH
      BASIS_SET AUX_FIT SZV-MOLOPT-GTH
      POTENTIAL GTH-PBE-q4
    &END KIND
  &END SUBSYS
&END FORCE_EVAL
