&FORCE_EVAL
  METHOD SIRIUS
  &PW_DFT
     &CONTROL
      PROCESSING_UNIT CPU
      STD_EVP_SOLVER_NAME LAPACK
      GEN_EVP_SOLVER_NAME LAPACK
      VERBOSITY 1
      CYCLIC_BLOCK_SIZE 32
     &END CONTROL
     &PARAMETERS
       ELECTRONIC_STRUCTURE_METHOD  pseudopotential
       SMEARING_WIDTH 0.01
       USE_SYMMETRY TRUE
       NUM_MAG_DIMS 1
       GK_CUTOFF 6.0
       PW_CUTOFF 20.00
       NUM_DFT_ITER 100
       NGRIDK 2 2 2
      &END PARAMETERS
     &ITERATIVE_SOLVER
      RESIDUAL_TOLERANCE 1e-5
       ENERGY_TOLERANCE 1e-10
      NUM_STEPS 20
       SUBSPACE_SIZE 4
       TYPE DAVIDSON
       CONVERGE_BY_ENERGY 1
     &END ITERATIVE_SOLVER
     &MIXER
       TYPE broyden2
       MAX_HISTORY 8
     &END MIXER
  &END PW_DFT
  &DFT
    &XC
      &XC_FUNCTIONAL
        &LDA_X
        &END LDA_X
        &LDA_C_PZ
        &END LDA_C_PZ
      &END XC_FUNCTIONAL
    &END XC
  &END DFT
  &SUBSYS
    &CELL
      A [bohr] -3.85500000000000000000 0.0 3.85500000000000000000
      B [bohr] 0.0 3.85500000000000000000 3.85500000000000000000
      C [bohr] -3.85500000000000000000 3.85500000000000000000 0.0
    &END CELL
    &COORD
      SCALED
      Au 0.0  0.0  0.0
    &END COORD
    &KIND Au
      POTENTIAL GTH-LDA-q11
    &END KIND
  &END SUBSYS
&END FORCE_EVAL
&GLOBAL
  PROJECT Gold
  PRINT_LEVEL MEDIUM
&END GLOBAL
