&GLOBAL
  PRINT_LEVEL MEDIUM
  PROJECT Gold
&END GLOBAL

&FORCE_EVAL
  METHOD SIRIUS
  &DFT
    &XC
      &XC_FUNCTIONAL
        &LDA_C_PZ
        &END LDA_C_PZ
        &LDA_X
        &END LDA_X
      &END XC_FUNCTIONAL
    &END XC
  &END DFT
  &PW_DFT
    &CONTROL
      CYCLIC_BLOCK_SIZE 32
      GEN_EVP_SOLVER_NAME LAPACK
      PROCESSING_UNIT CPU
      STD_EVP_SOLVER_NAME LAPACK
      VERBOSITY 1
    &END CONTROL
    &ITERATIVE_SOLVER
      CONVERGE_BY_ENERGY 1
      ENERGY_TOLERANCE 1e-10
      NUM_STEPS 20
      RESIDUAL_TOLERANCE 1e-5
      SUBSPACE_SIZE 4
      TYPE DAVIDSON
    &END ITERATIVE_SOLVER
    &MIXER
      MAX_HISTORY 8
      TYPE broyden2
    &END MIXER
    &PARAMETERS
      ELECTRONIC_STRUCTURE_METHOD pseudopotential
      GK_CUTOFF 6.0
      NGRIDK 2 2 2
      NUM_DFT_ITER 100
      NUM_MAG_DIMS 1
      PW_CUTOFF 20.00
      SMEARING_WIDTH 0.01
      USE_SYMMETRY TRUE
    &END PARAMETERS
  &END PW_DFT
  &SUBSYS
    &CELL
      A [bohr] -3.85500000000000000000 0.0 3.85500000000000000000
      B [bohr] 0.0 3.85500000000000000000 3.85500000000000000000
      C [bohr] -3.85500000000000000000 3.85500000000000000000 0.0
    &END CELL
    &COORD
      SCALED
      Au 0.0  0.0  0.0
    &END COORD
    &KIND Au
      POTENTIAL GTH-LDA-q11
    &END KIND
  &END SUBSYS
&END FORCE_EVAL
