&FORCE_EVAL
  METHOD SIRIUS
  &PW_DFT
     &CONTROL
      "cyclic_block_size" : 16,
      "processing_unit" : "cpu",
      "std_evp_solver_type" : "lapack",
      "gen_evp_solver_type" : "lapack",
      "verbosity" : 1,
      "verification" : 0,
      "print_forces" : true,
      "print_stress" : true
     &END CONTROL
     &PARAMETER
      "electronic_structure_method" : "pseudopotential",
      "xc_functionals" : ["XC_LDA_X", "XC_LDA_C_PZ"],
      "smearing_width" : 0.02,
      "use_symmetry" : true,
      "num_mag_dims" : 1,
      "gk_cutoff" : 6.0,
      "pw_cutoff" : 25.00,
      "energy_tol" : 1e-8,
      "num_dft_iter" : 100,
      "ngridk" : [4,4,4],
      "reduce_gvec": 1
     &END PARAMETER
     &SOLVER 
      "energy_tolerance" : 1e-2,
      "residual_tolerance" : 1e-6,
      "num_steps" : 20,
      "subspace_size" : 4,
      "type" : "davidson",
      "converge_by_energy" : 1
     &END SOLVER
     &MIXER
      "beta" : 0.7,
      "type" : "broyden1",
      "max_history" : 8
     &END MIXER
  &END PW_DFT
  &SUBSYS
    &CELL
      ABC 5.5415878223 5.5415878223 5.5415878223
    &END CELL
    &COORD
      SCALED
      Fe 0.0  0.0  0.0
      Fe 0.5  0.5  0.5
    &END COORD
    &KIND Fe
      POTENTIAL UPF Fe.pbe-spn-rrkjus_psl.0.2.1.UPF.json
    &END KIND
  &END SUBSYS
&END FORCE_EVAL
&GLOBAL
  PROJECT Fe
  PRINT_LEVEL MEDIUM
&END GLOBAL
