&FORCE_EVAL
  METHOD SIRIUS
  &PW_DFT
    &CONTROL
      processing_unit cpu
      std_evp_solver_type lapack
      gen_evp_solver_type lapack
      verbosity 1
      cyclic_block_size 2
      print_forces true
      print_stress true
      cyclic block size 32
    &END CONTROL
    &PARAMETERS
      electronic_structure_method pseudopotential
      smearing_width 0.001
      use_symmetry true
      num_mag_dims 1
      spin_orbit false
      gk_cutoff 6.0
      pw_cutoff 20.00
      energy_tol 1e-10
      potential_tol 1e-8
      num_dft_iter 100
      ngridk 1 1 1
    &END PARAMETERS
    &ITERATIVE_SOLVER
      tolerance 1e-5
      num_steps 20
      subspace_size 4
      type davidson
      converge_by_energy 1
    &END ITERATIVE_SOLVER
    &MIXER
      type broyden1
      max_history 8
    &END MIXER
  &END PW_DFT
  &DFT
     &XC
      &XC_FUNCTIONAL
        &LIBXC
          FUNCTIONAL XC_LDA_X
        &END LIBXC
        &LIBXC
          FUNCTIONAL XC_LDA_C_PZ
        &END LIBXC
      &END XC_FUNCTIONAL
    &END XC
  &END DFT
  &SUBSYS
    &CELL
      A 10.00000000000000000000 0.0 0.00000000000000000000
      B 0.0 10.0000000000000000000 0.00000000000000000000
      C 0.00000000000000000000 0.00000000000000000000 10.0
    &END CELL
    &COORD
      H 0.0  0.0  0.0
      H 0.0  0.0  0.72
    &END COORD
    &KIND H
#      POTENTIAL UPF H.pbe-rrkjus_psl.0.1.UPF.json
      POTENTIAL GTH-PADE
    &END KIND
  &END SUBSYS
&END FORCE_EVAL
&GLOBAL
  PROJECT H2
  PRINT_LEVEL MEDIUM
&END GLOBAL
