&GLOBAL
  PRINT_LEVEL MEDIUM
  PROJECT He-full-potential
  RUN_TYPE ENERGY
&END GLOBAL

&FORCE_EVAL
  METHOD SIRIUS
  &DFT
    &XC
      &XC_FUNCTIONAL
        &LDA_C_VWN
        &END LDA_C_VWN
        &LDA_X
        &END LDA_X
      &END XC_FUNCTIONAL
    &END XC
  &END DFT
  &PW_DFT
    &CONTROL
      GEN_EVP_SOLVER_NAME lapack
      PROCESSING_UNIT cpu
      STD_EVP_SOLVER_NAME lapack
      VERBOSITY 2
    &END CONTROL
    &ITERATIVE_SOLVER
      CONVERGE_BY_ENERGY 0
      ENERGY_TOLERANCE 1e-4
      NUM_STEPS 8
      RESIDUAL_TOLERANCE 1e-5
      SUBSPACE_SIZE 8
      TYPE davidson
    &END ITERATIVE_SOLVER
    &MIXER
      BETA 0.95
      MAX_HISTORY 8
      TYPE anderson
    &END MIXER
    &PARAMETERS
      AUTO_RMT 0
      AW_CUTOFF 8.0
      CORE_RELATIVITY none
      DENSITY_TOL 1e-7
      ELECTRONIC_STRUCTURE_METHOD full_potential_lapwlo
      ENERGY_TOL 1e-7
      LMAX_APW 8
      LMAX_POT 8
      LMAX_RHO 8
      MOLECULE true
      NGRIDK 1 1 1
      NUM_DFT_ITER 20
      NUM_FV_STATES 10
      PW_CUTOFF 20.00
      SMEARING_WIDTH 0.05
      USE_SYMMETRY true
      VALENCE_RELATIVITY none
    &END PARAMETERS
    &SETTINGS
      MIN_OCCUPANCY 0
    &END SETTINGS
  &END PW_DFT
  &SUBSYS
    &CELL
      A [bohr] 10.0 0.0 0.0
      B [bohr] 0 10.0 0.0
      C [bohr] 0.0 0.0 10.0
    &END CELL
    &COORD
      SCALED
      He 0.0 0.0 0.0
    &END COORD
    &KIND He
      POTENTIAL UPF "He.json"
    &END KIND
  &END SUBSYS
&END FORCE_EVAL
