&FORCE_EVAL
  METHOD SIRIUS
  &PW_DFT
    &CONTROL
       PROCESSING_UNIT cpu
       STD_EVP_SOLVER_TYPE lapack
       GEN_EVP_SOLVER_TYPE lapack
       VERBOSITY 2
    &END CONTROL
    &PARAMETERS
       ELECTRONIC_STRUCTURE_METHOD  full_potential_lapwlo
       SMEARING_WIDTH 0.05
       USE_SYMMETRY true
       NUM_MAG_DIMS 0
       NUM_FV_STATES 40
       AW_CUTOFF 8.0
       PW_CUTOFF 20.00
       AUTO_RMT 0
       ENERGY_TOL 1e-7
       POTENTIAL_TOL 1e-7
       NUM_DFT_ITER 20
       NGRIDK 1 1 1
       MOLECULE true
       lmax_apw 8
       lmax_pot 8
       lmax_rho 8
    &END PARAMETERS
    &ITERATIVE_SOLVER
       ENERGY_TOLERANCE 1e-4
       RESIDUAL_TOLERANCE 1e-5
       NUM_STEPS 8
       SUBSPACE_SIZE 8
       TYPE davidson
       CONVERGE_BY_ENERGY 0
    &END ITERATIVE_SOLVER
    &MIXER
       BETA 0.95
       TYPE broyden1
       MAX_HISTORY 8
    &END MIXER
  &END PW_DFT
    &DFT
      &XC
         &XC_FUNCTIONAL
            &LIBXC
               FUNCTIONAL XC_LDA_X
            &END LIBXC
            &LIBXC
               FUNCTIONAL XC_LDA_C_PZ
            &END LIBXC
         &END XC_FUNCTIONAL
      &END XC
    &END DFT

  &SUBSYS
    &CELL
      A [bohr] 10.0 0.0 0.0
      B [bohr] 0 10.0 0.0
      C [bohr] 0.0 0.0 10.0
    &END CELL
    &COORD
      SCALED
        He 0.0 0.0 0.0
    &END COORD
    &KIND He
      POTENTIAL UPF "He.json"
    &END KIND
  &END SUBSYS
&END FORCE_EVAL
&GLOBAL
  PROJECT He-full-potential
  PRINT_LEVEL MEDIUM
  RUN_TYPE ENERGY
&END GLOBAL
