&FORCE_EVAL
  METHOD Quickstep
  &DFT
    BASIS_SET_FILE_NAME GTH_BASIS_SETS
    POTENTIAL_FILE_NAME GTH_POTENTIALS
    &MGRID
      CUTOFF 50
    &END MGRID
    &QS
    &END QS
    &SCF
      MAX_SCF 4
      SCF_GUESS ATOMIC
      &OT
        ALGORITHM IRAC
        ORTHO_IRAC LWDN
        EPS_IRAC_SWITCH 0.0E0
        MIXED_PRECISION T
        MINIMIZER DIIS
        PRECONDITIONER FULL_KINETIC
        PRECOND_SOLVER DEFAULT
      &END OT
    &END SCF
    &XC
      &XC_FUNCTIONAL PADE
      &END XC_FUNCTIONAL
    &END XC
  &END DFT
  &SUBSYS
    &CELL
      ABC 4.00 4.00 4.00
    &END CELL
    &COORD
 O    0.000000    0.000000    0.119173
 H    0.000000    0.759392   -0.476691
 H    0.000000   -0.759392   -0.476691
    &END COORD
    &KIND H
      BASIS_SET SZV-GTH
      POTENTIAL GTH-PADE-q1
    &END KIND
    &KIND O
      BASIS_SET SZV-GTH
      POTENTIAL GTH-PADE-q6
    &END KIND
  &END SUBSYS
&END FORCE_EVAL
&GLOBAL
  PROJECT h2o_ot_precond_1_mp
  RUN_TYPE ENERGY
  PRINT_LEVEL LOW
&END GLOBAL
