&GLOBAL
  PRINT_LEVEL LOW
  PROJECT H2O_rtp
  RUN_TYPE RT_PROPAGATION
&END GLOBAL

&MOTION
  &MD
    STEPS 2
    TIMESTEP [au_t] 0.1
  &END MD
&END MOTION

&FORCE_EVAL
  METHOD Quickstep
  &DFT
    BASIS_SET_FILE_NAME BASIS_MOLOPT
    POTENTIAL_FILE_NAME POTENTIAL
    !RESTART_FILE_NAME H2O_rtp-RESTART.rtpwfn
    &MGRID
      CUTOFF 200
    &END MGRID
    &PRINT
      &MOMENTS
        PERIODIC .TRUE.
        ! FILENAME dipole
      &END MOMENTS
    &END PRINT
    &QS
    &END QS
    &REAL_TIME_PROPAGATION
      APPLY_DELTA_PULSE
      DELTA_PULSE_DIRECTION 1 0 0
      DELTA_PULSE_SCALE 0.001
      EPS_ITER 1.0E-9
      EXP_ACCURACY 1.0E-10
      INITIAL_WFN SCF_WFN  ! RT_RESTART
      MAT_EXP PADE
      MAX_ITER 50
      PERIODIC .FALSE.
      PROPAGATOR ETRS
    &END REAL_TIME_PROPAGATION
    &SCF
      MAX_SCF 20
      SCF_GUESS ATOMIC
    &END SCF
    &XC
      &XC_FUNCTIONAL PADE
      &END XC_FUNCTIONAL
    &END XC
  &END DFT
  &SUBSYS
    &CELL
      ABC 7 7 7
    &END CELL
    &COORD
      O   0.000000    0.000000   -0.065587 H2O
      H   0.000000   -0.757136    0.520545 H2O
      H   0.000000    0.757136    0.520545 H2O
    &END COORD
    &KIND H
      BASIS_SET DZVP-MOLOPT-GTH
      POTENTIAL GTH-PADE-q1
    &END KIND
    &KIND O
      BASIS_SET DZVP-MOLOPT-GTH
      POTENTIAL GTH-PADE-q6
    &END KIND
  &END SUBSYS
&END FORCE_EVAL

!&EXT_RESTART
!  RESTART_FILE_NAME H2O_rtp-1.restart
!&END