&FORCE_EVAL
    METHOD Quickstep
    &DFT
        BASIS_SET_FILE_NAME EMSL_BASIS_SETS
        POTENTIAL_FILE_NAME POTENTIAL
        AUTO_BASIS RI_HFX SMALL
        LSD
        &MGRID
            CUTOFF 200
            REL_CUTOFF 50
        &END MGRID
        &QS
            METHOD GAPW
        &END QS
        &SCF
            SCF_GUESS ATOMIC
            MAX_SCF 5
            &OT
                PRECONDITIONER FULL_ALL
            &END
        &END SCF
        &XC
            &XC_FUNCTIONAL NONE
            &END XC_FUNCTIONAL
            &HF
                &RI T
                    RI_FLAVOR MO
                &END
                &SCREENING
                    EPS_SCHWARZ 1.0E-10
                    SCREEN_P_FORCES FALSE
                &END
                &MEMORY
                    MAX_MEMORY  10
                &END
            &END
        &END XC
    &END DFT
    &SUBSYS
        &CELL
            ABC 5.0 5.0 5.0
            PERIODIC NONE
        &END CELL
        &COORD
            C   0.000000    0.000000    0.1581
            H   0.000000    0.000000    -0.9487
        &END COORD
        &KIND H
            BASIS_SET 6-31Gx
            POTENTIAL ALL
        &END KIND
        &KIND C
            BASIS_SET 6-31Gx
            POTENTIAL ALL
        &END KIND
    &END SUBSYS
&END FORCE_EVAL
&GLOBAL
    PROJECT CH-hfx-ri-mo
    RUN_TYPE ENERGY
    PRINT_LEVEL MEDIUM
&END GLOBAL
