&FORCE_EVAL
  METHOD Quickstep
  &DFT
    BASIS_SET_FILE_NAME ../../../data/BASIS_SET
    POTENTIAL_FILE_NAME ../../../data/POTENTIAL
    &MGRID
      CUTOFF 200
      NGRIDS 4
      REL_CUTOFF 20
    &END MGRID
    &QS
      EPS_DEFAULT 1.0E-12
      EPS_GVG 1.0E-6
      EPS_PGF_ORB 1.0E-6
    &END QS
    &SCF
      EPS_SCF 1.0E-6
      MAX_SCF 2
      SCF_GUESS atomic
	&OT
	&END OT
    &END SCF
    &XC
      &XC_FUNCTIONAL Pade
      &END XC_FUNCTIONAL
    &END XC
  &END DFT
  &SUBSYS
    &CELL
      ABC 6.000 6.000 6.000
    &END CELL
    &COORD
    C    4.256246762        -5.427190440        -2.644365321
    C   -3.603190774        0.7300500631E-01    -4.956001081
    &END COORD
    &KIND O
      BASIS_SET DZVP-GTH-PADE
      POTENTIAL GTH-PADE-q6
    &END KIND
    &KIND C
      BASIS_SET DZVP-GTH-PADE
      POTENTIAL GTH-PADE-q4
    &END KIND
  &END SUBSYS
&END FORCE_EVAL
&GLOBAL
  PROJECT test-shrt
  RUN_TYPE MD
  PRINT_LEVEL LOW
  &TIMINGS
    THRESHOLD 0.0
  &END TIMINGS
&END GLOBAL
&MOTION
  &MD
    ENSEMBLE NVT
    STEPS 1
    TIMESTEP 0.5
    TEMPERATURE 300.0
    &THERMOSTAT
      &NOSE
        LENGTH 3
        YOSHIDA 3
        TIMECON 1000.
        MTS 2
      &END NOSE
    &END
  &END MD
&END MOTION
