&GLOBAL
  PRINT_LEVEL LOW
  PROJECT w3-filter-2
  RUN_TYPE energy
&END GLOBAL

&FORCE_EVAL
  METHOD Quickstep
  &DFT
    BASIS_SET_FILE_NAME GTH_BASIS_SETS
    POTENTIAL_FILE_NAME GTH_POTENTIALS
    &MGRID
      CUTOFF 50
    &END MGRID
    &QS
    &END QS
    &SCF
      IGNORE_CONVERGENCE_FAILURE
      MAX_SCF 2
      &OT
        ALGORITHM IRAC
        EPS_IRAC_FILTER_MATRIX 1E-1
        EPS_IRAC_SWITCH 0.0E0
        MINIMIZER DIIS
        ORTHO_IRAC POLY
        PRECONDITIONER FULL_KINETIC
      &END OT
    &END SCF
    &XC
      &XC_FUNCTIONAL PADE
      &END XC_FUNCTIONAL
    &END XC
  &END DFT
  &SUBSYS
    &CELL
      ABC 10 4 4
    &END CELL
    &COORD
      O    0.000000    0.000000    0.119173
      H    0.000000    0.759392   -0.476691
      H    0.000000   -0.759392   -0.476691
      O    2.000000    0.000000    0.119173
      H    2.000000    0.759392   -0.476691
      H    2.000000   -0.759392   -0.476691
      O    4.000000    0.000000    0.119173
      H    4.000000    0.759392   -0.476691
      H    4.000000   -0.759392   -0.476691
      O    6.000000    0.000000    0.119173
      H    6.000000    0.759392   -0.476691
      H    6.000000   -0.759392   -0.476691
      O    8.000000    0.000000    0.119173
      H    8.000000    0.759392   -0.476691
      H    8.000000   -0.759392   -0.476691
    &END COORD
    &KIND H
      BASIS_SET sZV-GTH
      POTENTIAL GTH-PADE-q1
    &END KIND
    &KIND O
      BASIS_SET sZV-GTH
      POTENTIAL GTH-PADE-q6
    &END KIND
  &END SUBSYS
&END FORCE_EVAL
