&GLOBAL
  PROJECT O2-UKS-NMR-6
  PRINT_LEVEL LOW
  RUN_TYPE LINEAR_RESPONSE
&END GLOBAL
&FORCE_EVAL
  &DFT
    UNRESTRICTED_KOHN_SHAM T
    MULTIPLICITY 3
    BASIS_SET_FILE_NAME ../../../data/GTH_BASIS_SETS
    POTENTIAL_FILE_NAME ../../../data/GTH_POTENTIALS
    &MGRID
      CUTOFF 100
    &END MGRID
    &SCF
      SCF_GUESS ATOMIC
      MAX_SCF 10
    &END SCF
    &XC
      &XC_FUNCTIONAL BLYP
      &END XC_FUNCTIONAL
    &END XC
  &END DFT
  &PROPERTIES
    &LINRES
       &LOCALIZE
       &END
       MAX_ITER 10
       PRECONDITIONER FULL_S_INVERSE
       &NMR
       &END
    &END
  &END
  &SUBSYS
    &CELL
      ABC 4.0 4.0 4.0
    &END CELL
    &COORD
   O           0.000000  0.000000  0.608000
   O           0.000000  0.000000 -0.608000
    &END COORD
    &KIND O
      BASIS_SET DZVP-GTH
      POTENTIAL GTH-BLYP-q6
    &END KIND
  &END SUBSYS
&END FORCE_EVAL
