&GLOBAL
  PREFERRED_DIAG_LIBRARY SL
  PRINT_LEVEL LOW
  PROJECT CH2O_stda-xtb-s-1
  RUN_TYPE ENERGY_FORCE
&END GLOBAL

&FORCE_EVAL
  METHOD Quickstep
  &DFT
    &EXCITED_STATES
      STATE 1
    &END EXCITED_STATES
    &QS
      METHOD xTB
    &END QS
    &SCF
      MAX_SCF 20
      SCF_GUESS atomic
    &END SCF
  &END DFT
  &PROPERTIES
    &TDDFPT
      CONVERGENCE [eV] 1.0e-5
      EV_SHIFT [eV] 0.5
      KERNEL sTDA
      MAX_ITER 50
      NSTATES 1
      OE_CORR SHIFT
      &STDA
        FRACTION 0.5
      &END STDA
    &END TDDFPT
  &END PROPERTIES
  &SUBSYS
    &CELL
      ABC 8.0 8.0 8.0
      PERIODIC NONE
    &END CELL
    &COORD
      O         0.094933   -0.000368    0.895642
      C        -0.031077   -0.000121   -0.307326
      H        -0.090437    0.947608   -0.895642
      H        -0.094933   -0.947608   -0.895562
    &END COORD
    &TOPOLOGY
      &CENTER_COORDINATES
      &END CENTER_COORDINATES
    &END TOPOLOGY
  &END SUBSYS
&END FORCE_EVAL
