&FORCE_EVAL
  METHOD Quickstep
  &PROPERTIES
    &TDDFPT
       KERNEL sTDA
       &sTDA
          FRACTION 0.50
       &END sTDA
       NSTATES      5
       MAX_ITER    50
       CONVERGENCE [eV] 1.0e-7
       RKS_TRIPLETS F
    &END TDDFPT
  &END PROPERTIES
  &DFT
    &QS
       METHOD xTB
       &xTB
         DO_EWALD F
       &END
    &END QS
    &EXCITED_STATES T
       STATE 1
    &END EXCITED_STATES
    &SCF
      SCF_GUESS ATOMIC 
      &OT
         PRECONDITIONER FULL_SINGLE_INVERSE
         MINIMIZER DIIS
      &END
      &OUTER_SCF
         MAX_SCF  10
         EPS_SCF 1.0E-7
      &END
      MAX_SCF  50
      EPS_SCF 1.0E-7
    &END SCF
  &END DFT
  &SUBSYS
    &CELL
      ABC [angstrom] 6.0 6.0 6.0
      PERIODIC NONE
    &END
    &COORD
    O   0.000000    0.000000    0.000000
    H   0.000000   -0.757136    0.580545
    H   0.000000    0.757136    0.580545
    &END COORD
    &TOPOLOGY
     &CENTER_COORDINATES
     &END
    &END
  &END SUBSYS
  &PRINT
     &FORCES
     &END
  &END
&END FORCE_EVAL
&GLOBAL
  PRINT_LEVEL LOW
  PROJECT ftest
  RUN_TYPE DEBUG
##  RUN_TYPE ENERGY_FORCE
&END GLOBAL
&DEBUG
   DEBUG_FORCES .TRUE.
   DEBUG_STRESS_TENSOR .FALSE.
   DEBUG_DIPOLE .FALSE.
   DEBUG_POLARIZABILITY .FALSE.
   STOP_ON_MISMATCH T
   DE 0.0002
&END

