&GLOBAL
  PRINT_LEVEL MEDIUM
  PROJECT CH3-PBE0_TC_LRC
  RUN_TYPE ENERGY_FORCE
  &TIMINGS
    THRESHOLD 0.000000001
  &END TIMINGS
&END GLOBAL

&FORCE_EVAL
  METHOD Quickstep
  &DFT
    BASIS_SET_FILE_NAME BASIS_MOLOPT
    LSD
    POTENTIAL_FILE_NAME GTH_POTENTIALS
    &MGRID
      CUTOFF 100
      REL_CUTOFF 30
    &END MGRID
    &POISSON
      PERIODIC NONE
      PSOLVER MT
    &END POISSON
    &QS
      EPS_FILTER_MATRIX 0.0e0
      EPS_PGF_ORB 1.0E-12
      METHOD GPW
    &END QS
    &SCF
      EPS_SCF 1.0E-6
      IGNORE_CONVERGENCE_FAILURE
      MAX_SCF 10
      SCF_GUESS ATOMIC
      &OT ON
      &END OT
    &END SCF
    &XC
      &HF
        FRACTION 0.25
        &INTERACTION_POTENTIAL
          CUTOFF_RADIUS 2.0
          POTENTIAL_TYPE TRUNCATED
          T_C_G_DATA t_c_g.dat
        &END INTERACTION_POTENTIAL
        &MEMORY
          EPS_STORAGE_SCALING 0.1
          MAX_MEMORY 900
        &END MEMORY
        &SCREENING
          EPS_SCHWARZ 1.0E-6
          SCREEN_ON_INITIAL_P FALSE
        &END SCREENING
      &END HF
      &XC_FUNCTIONAL
        &PBE
          SCALE_C 1.0
          SCALE_X 0.75
        &END PBE
        &PBE_HOLE_T_C_LR
          CUTOFF_RADIUS 2.0
          SCALE_X 0.25
        &END PBE_HOLE_T_C_LR
      &END XC_FUNCTIONAL
    &END XC
  &END DFT
  &SUBSYS
    &CELL
      ABC 8.0 8.0 8.0
      PERIODIC NONE
    &END CELL
    &COORD
      C       0.0000   0.0000   0.0000
      H       0.0000   1.0728   0.0000
      H       0.9291   -0.5364 0.0000
      H      -0.9291 -0.5364 0.0000
    &END COORD
    &KIND H
      BASIS_SET SZV-MOLOPT-GTH
      POTENTIAL GTH-PBE-q1
    &END KIND
    &KIND C
      BASIS_SET SZV-MOLOPT-GTH
      POTENTIAL GTH-PBE-q4
    &END KIND
  &END SUBSYS
&END FORCE_EVAL
