&FORCE_EVAL
  METHOD Quickstep
  &DFT
    BASIS_SET_FILE_NAME ../../../data/EMSL_BASIS_SETS
    POTENTIAL_FILE_NAME ../../../data/POTENTIAL
    &MGRID
      CUTOFF 200 
      REL_CUTOFF 50
    &END MGRID
    &QS
      METHOD GAPW
    &END QS
    &SCF
      &OT on
       PRECONDITIONER FULL_ALL
      &END OT
      EPS_SCF 1.0E-6
      SCF_GUESS ATOMIC 
      MAX_SCF 1
    &END SCF
    &XC
      DENSITY_CUTOFF  1.0E-9
      GRADIENT_CUTOFF 1.0E-9
      &XC_FUNCTIONAL
        &BECKE88
          SCALE_X 0.95238
        &END
        &BECKE88_LR
          OMEGA 0.33
          SCALE_X -0.94979
        &END
        &LYP
          SCALE_C 1.0
        &END
        &XALPHA
          SCALE_X -0.13590
        &END
      &END XC_FUNCTIONAL
      &HF
       &SCREENING
         EPS_SCHWARZ 1.0E-7
       &END
       &MEMORY
         MAX_MEMORY 100
       &END
       &INTERACTION_POTENTIAL
         POTENTIAL_TYPE MIX_CL_TRUNC
         OMEGA 0.33
         SCALE_LONGRANGE 0.94979
         SCALE_COULOMB 0.18352
         ! should be cell L/2 but large enough for the erf to decay
         CUTOFF_RADIUS 2.5
         T_C_G_DATA ../../../data/t_c_g.dat
       &END
      &END
    &END XC
  &END DFT
  &SUBSYS
    &CELL
      ABC 6 6 6
    &END CELL
    &COORD
      Ne   0.0   0.0   0.0
    &END COORD
    &KIND Ne
      BASIS_SET 6-31Gxx
      POTENTIAL ALL
    &END KIND
  &END SUBSYS
&END FORCE_EVAL
&GLOBAL
  PROJECT Ne-hybrid-rcam-b3lyp
  PRINT_LEVEL MEDIUM 
  RUN_TYPE ENERGY
&END GLOBAL
