&FORCE_EVAL
  &DFT
    BASIS_SET_FILE_NAME GTH_BASIS_SETS
    POTENTIAL_FILE_NAME POTENTIAL
    &MGRID
      CUTOFF 120
      REL_CUTOFF 30
    &END MGRID
    &QS
      METHOD GPW
      EPS_DEFAULT 1.0E-10
      EXTRAPOLATION USE_GUESS
    &END QS
    &SCF
      EPS_SCF 1.0E-4
      SCF_GUESS ATOMIC 
      MAX_SCF  20
      &MIXING
          METHOD DIRECT_P_MIXING
          ALPHA   0.70
      &END
      CHOLESKY OFF
      EPS_EIGVAL 1.e-5
    &END SCF
    &XC
      &XC_FUNCTIONAL PADE
      &END XC_FUNCTIONAL
    &END XC
    &KPOINTS
       SCHEME MONKHORST-PACK 1 1 1
       SYMMETRY OFF 
       WAVEFUNCTIONS REAL
       EPS_GEO 1.e-8
       FULL_GRID ON 
       VERBOSE F
       PARALLEL_GROUP_SIZE  0
    &END KPOINTS
    &PRINT
       &BAND_STRUCTURE
          ADDED_MOS 2
          FILE_NAME xx.bs
          &KPOINT_SET
             UNITS  B_VECTOR
             SPECIAL_POINT  Gamma 0.0 0.0 0.0
             SPECIAL_POINT  X     1.0 0.0 0.0
             NPOINTS     10
          &END
          &KPOINT_SET
             UNITS  B_VECTOR
             SPECIAL_POINT  0.0 0.0 0.0
             SPECIAL_POINT  0.5 0.5 0.5
             SPECIAL_POINT  1.0 0.0 0.0
             NPOINTS     5
          &END
       &END BAND_STRUCTURE
       &KS_CSR_WRITE
         BINARY .TRUE.
         UPPER_TRIANGULAR .TRUE.
         THRESHOLD 1.0E-4
       &END
       &S_CSR_WRITE
         BINARY .TRUE.
         UPPER_TRIANGULAR .TRUE.
         THRESHOLD 1.0E-4
       &END
    &END PRINT
  &END DFT
  &SUBSYS
    &TOPOLOGY
      MULTIPLE_UNIT_CELL 1 1 1
    &END
    &CELL
      ABC 3.56683 3.56683 3.56683
      MULTIPLE_UNIT_CELL 1 1 1
    &END CELL
    &COORD
     SCALED
     C     0.000000    0.000000    0.000000
     C     0.500000    0.500000    0.000000
     C     0.500000    0.000000    0.500000
     C     0.000000    0.500000    0.500000
     C     0.250000    0.250000    0.250000
     C     0.250000    0.750000    0.750000
     C     0.750000    0.250000    0.750000
     C     0.750000    0.750000    0.250000
    &END COORD
    &KIND C
      BASIS_SET DZVP-GTH
      POTENTIAL GTH-PADE-q4
    &END KIND
  &END SUBSYS
&END FORCE_EVAL
&GLOBAL
  PROJECT C
  PRINT_LEVEL LOW
&END GLOBAL
