&GLOBAL
  PRINT_LEVEL MEDIUM
  PROJECT hBN_gpw_pbe0
  RUN_TYPE ENERGY_FORCE
&END GLOBAL

&FORCE_EVAL
  METHOD Quickstep
  STRESS_TENSOR ANALYTICAL
  &DFT
    AUTO_BASIS RI_HFX SMALL
    BASIS_SET_FILE_NAME BASIS_pob
    LSD
    POTENTIAL_FILE_NAME POTENTIAL_UZH
    SORT_BASIS EXP
    &AUXILIARY_DENSITY_MATRIX_METHOD
      ADMM_PURIFICATION_METHOD NONE
      EXCH_CORRECTION_FUNC PBEX
    &END AUXILIARY_DENSITY_MATRIX_METHOD
    &KPOINTS
      SCHEME MONKHORST-PACK 3 3 1
    &END KPOINTS
    &MGRID
      CUTOFF 150
      REL_CUTOFF 30
    &END MGRID
    &QS
      METHOD GPW
    &END QS
    &SCF
      IGNORE_CONVERGENCE_FAILURE
      MAX_SCF 1
      SCF_GUESS ATOMIC
    &END SCF
    &XC
      &HF
        FRACTION 0.45
        &INTERACTION_POTENTIAL
          !this is too small for a real calculation. The only requirement is that it is
          !smaller than N_kp * L/2 in each direction. Potential range has a drastic effect
          !on efficiency, as it greatly increses the number of periodic images to consider
          CUTOFF_RADIUS 1.0
          POTENTIAL_TYPE TRUNCATED
        &END INTERACTION_POTENTIAL
        &RI
          MEMORY_CUT 2
          NGROUPS 2
          RI_METRIC IDENTITY
        &END RI
      &END HF
      &XC_FUNCTIONAL
        &PBE
          SCALE_X 0.55
        &END PBE
      &END XC_FUNCTIONAL
    &END XC
  &END DFT
  &PRINT
    &STRESS_TENSOR
      COMPONENTS
    &END STRESS_TENSOR
  &END PRINT
  &SUBSYS
    &CELL
      !note: this is not a realistic cell, but denser cells would be too expensive for a test
      ABC 5.5 5.5 15.0
      ALPHA_BETA_GAMMA 90.0 90.0 120.0
    &END CELL
    &COORD
      SCALED
      B 0.3233333 0.6766667 0.0
      N 0.6466667 0.3433333 0.0
    &END COORD
    &KIND B
      BASIS_SET pob-TZVP
      BASIS_SET AUX_FIT pob-DZVP
      POTENTIAL GTH-PBE0-q3
    &END KIND
    &KIND N
      BASIS_SET pob-TZVP
      BASIS_SET AUX_FIT pob-DZVP
      POTENTIAL GTH-PBE0-q5
    &END KIND
    &TOPOLOGY
    &END TOPOLOGY
  &END SUBSYS
&END FORCE_EVAL
