&GLOBAL
  PRINT_LEVEL LOW
  PROJECT dipole
  RUN_TYPE ENERGY_FORCE
  ##  RUN_TYPE DEBUG
&END GLOBAL

&DEBUG
  DE 0.0002
  DEBUG_DIPOLE .TRUE.
  DEBUG_FORCES .FALSE.
  DEBUG_POLARIZABILITY .TRUE.
  DEBUG_STRESS_TENSOR .FALSE.
  EPS_NO_ERROR_CHECK 5.e-5
&END DEBUG

&FORCE_EVAL
  METHOD Quickstep
  &DFT
    BASIS_SET_FILE_NAME BASIS_SET
    BASIS_SET_FILE_NAME BASIS_ADMM
    &AUXILIARY_DENSITY_MATRIX_METHOD
      ADMM_PURIFICATION_METHOD NONE
      EXCH_CORRECTION_FUNC BECKE88X
      EXCH_SCALING_MODEL NONE
      METHOD BASIS_PROJECTION
    &END AUXILIARY_DENSITY_MATRIX_METHOD
    &EFIELD
    &END EFIELD
    &MGRID
      CUTOFF 100
    &END MGRID
    &PRINT
      &MOMENTS ON
        PERIODIC .FALSE.
        REFERENCE COM
      &END MOMENTS
    &END PRINT
    &QS
      EPS_DEFAULT 1.e-10
      METHOD GPW
    &END QS
    &SCF
      EPS_SCF 1.0E-6
      MAX_SCF 100
      SCF_GUESS RESTART
      &OT OFF
        MINIMIZER DIIS
        PRECONDITIONER FULL_SINGLE_INVERSE
      &END OT
      &OUTER_SCF
        EPS_SCF 1.0E-6
        MAX_SCF 10
      &END OUTER_SCF
    &END SCF
    &XC
      &HF
        FRACTION 0.25
        &INTERACTION_POTENTIAL
          CUTOFF_RADIUS 2.0
          POTENTIAL_TYPE TRUNCATED
          T_C_G_DATA t_c_g.dat
        &END INTERACTION_POTENTIAL
        &MEMORY
          EPS_STORAGE_SCALING 0.1
          MAX_MEMORY 900
        &END MEMORY
        &SCREENING
          EPS_SCHWARZ 1.0E-6
          SCREEN_ON_INITIAL_P FALSE
        &END SCREENING
      &END HF
      &XC_FUNCTIONAL
        &PBE
          SCALE_C 1.0
          SCALE_X 0.75
        &END PBE
      &END XC_FUNCTIONAL
    &END XC
  &END DFT
  &PROPERTIES
    &LINRES
      EPS 1.e-5
      PRECONDITIONER FULL_ALL
      &POLAR
        DO_RAMAN T
        PERIODIC_DIPOLE_OPERATOR F
      &END POLAR
    &END LINRES
  &END PROPERTIES
  &SUBSYS
    &CELL
      ABC [angstrom] 6.0 6.0 6.0
      PERIODIC NONE
    &END CELL
    &COORD
      O   0.000000    0.000000   -0.065587
      H   0.000000   -0.757136    0.520545
      H   0.000000    0.757136    0.520545
    &END COORD
    &KIND H
      BASIS_SET DZV-GTH-PADE
      BASIS_SET AUX_FIT FIT3
      POTENTIAL GTH-PADE-q1
    &END KIND
    &KIND O
      BASIS_SET DZVP-GTH-PADE
      BASIS_SET AUX_FIT FIT3
      POTENTIAL GTH-PADE-q6
    &END KIND
    &TOPOLOGY
      &CENTER_COORDINATES
      &END CENTER_COORDINATES
    &END TOPOLOGY
  &END SUBSYS
&END FORCE_EVAL
