&FORCE_EVAL
  METHOD Quickstep
  &PROPERTIES
    &LINRES
       PRECONDITIONER FULL_ALL
       EPS 1.e-14
       &POLAR
          DO_RAMAN T
          PERIODIC_DIPOLE_OPERATOR F
       &END
    &END
  &END
  &DFT
    BASIS_SET_FILE_NAME BASIS_SET
    &QS
      METHOD GPW
      EPS_DEFAULT 1.e-14
    &END QS
    &EFIELD
    &END
    &SCF
      SCF_GUESS ATOMIC
      &OT ON
         PRECONDITIONER FULL_SINGLE_INVERSE
         MINIMIZER DIIS
      &END
      &OUTER_SCF
         MAX_SCF  10
         EPS_SCF 1.0E-8
      &END
      MAX_SCF  100
      EPS_SCF 1.0E-8
    &END SCF
    &XC
      &XC_FUNCTIONAL 
        &BECKE88
          SCALE_X 0.95238
        &END
        &BECKE88_LR
          OMEGA 0.33
          SCALE_X -0.94979
        &END
        &LYP
          SCALE_C 1.0
        &END
        &XALPHA
          SCALE_X -0.13590
        &END
      &END XC_FUNCTIONAL
      &HF
       &SCREENING
         EPS_SCHWARZ 1.0E-12
       &END
       &MEMORY
         MAX_MEMORY 100
       &END
       &INTERACTION_POTENTIAL
         POTENTIAL_TYPE MIX_CL
         OMEGA 0.33
         SCALE_LONGRANGE 0.94979
         SCALE_COULOMB 0.18352
       &END
      &END
    &END XC
    &PRINT
      &MOMENTS ON
         PERIODIC .FALSE.
         REFERENCE COM
      &END
    &END
    &POISSON
       PERIODIC NONE
       POISSON_SOLVER MT
    &END POISSON
  &END DFT
  &SUBSYS
    &CELL
      ABC [angstrom] 6.0 6.0 6.0
      PERIODIC NONE
    &END
    &COORD
    O   0.000000    0.000000   -0.065587
    H   0.000000   -0.757136    0.520545
    H   0.000000    0.757136    0.520545
    &END COORD
    &TOPOLOGY
     &CENTER_COORDINATES
     &END
    &END
    &KIND H
      BASIS_SET DZV-GTH-PADE
      POTENTIAL GTH-PADE-q1
    &END KIND
    &KIND O
      BASIS_SET DZVP-GTH-PADE
      POTENTIAL GTH-PADE-q6
    &END KIND
  &END SUBSYS
&END FORCE_EVAL
&GLOBAL
  PRINT_LEVEL LOW
  PROJECT dipole
  RUN_TYPE DEBUG
&END GLOBAL

&DEBUG
   DEBUG_FORCES .FALSE.
   DEBUG_STRESS_TENSOR .FALSE.
   DEBUG_DIPOLE .TRUE.
   DEBUG_POLARIZABILITY .TRUE.
   DE 0.000005
   EPS_NO_ERROR_CHECK 5.e-5
&END


