&FORCE_EVAL
  METHOD Quickstep
  &PROPERTIES
    &LINRES
       PRECONDITIONER FULL_ALL
       EPS 1.e-10
       &POLAR
          DO_RAMAN T
          PERIODIC_DIPOLE_OPERATOR F
       &END
    &END
  &END
  &DFT
    BASIS_SET_FILE_NAME BASIS_SET
    BASIS_SET_FILE_NAME BASIS_ADMM
    &QS
      METHOD GPW
      EPS_DEFAULT 1.e-10
    &END QS
    &AUXILIARY_DENSITY_MATRIX_METHOD
      ADMM_PURIFICATION_METHOD NONE
      EXCH_CORRECTION_FUNC BECKE88X
      EXCH_SCALING_MODEL NONE
      METHOD BASIS_PROJECTION
    &END
    &EFIELD
    &END
    &SCF
      SCF_GUESS RESTART
      &OT OFF
         PRECONDITIONER FULL_SINGLE_INVERSE
         MINIMIZER DIIS
      &END
      &OUTER_SCF
         MAX_SCF  10
         EPS_SCF 1.0E-7
      &END
      MAX_SCF  100
      EPS_SCF 1.0E-7
    &END SCF
    &XC
      &XC_FUNCTIONAL
        &HYB_MGGA_XC_WB97M_V
        &END HYB_MGGA_XC_WB97M_V
      &END XC_FUNCTIONAL
      &HF
        FRACTION 1.000
        &SCREENING
           EPS_SCHWARZ 1.0E-6
        &END
        &INTERACTION_POTENTIAL
           POTENTIAL_TYPE MIX_CL
           SCALE_COULOMB   0.15
           SCALE_LONGRANGE 0.85
           OMEGA 0.30
        &END
        &MEMORY
          MAX_MEMORY  10
        &END
      &END
      &vdW_POTENTIAL
         DISPERSION_FUNCTIONAL NON_LOCAL
         &NON_LOCAL
           TYPE RVV10
           PARAMETERS 6.0 0.01
           VERBOSE_OUTPUT
           KERNEL_FILE_NAME rVV10_kernel_table.dat
           CUTOFF 30
         &END NON_LOCAL
      &END vdW_POTENTIAL
    &END XC
    &PRINT
      &MOMENTS ON
         PERIODIC .FALSE.
         REFERENCE COM
      &END
    &END
  &END DFT
  &SUBSYS
    &CELL
      ABC [angstrom] 6.0 6.0 6.0
      PERIODIC NONE
    &END
    &COORD
    O   0.000000    0.000000   -0.065587
    H   0.000000   -0.757136    0.520545
    H   0.000000    0.757136    0.520545
    &END COORD
    &TOPOLOGY
     &CENTER_COORDINATES
     &END
    &END
    &KIND H
      BASIS_SET DZV-GTH-PADE
      BASIS_SET AUX_FIT FIT3
      POTENTIAL GTH-PADE-q1
    &END KIND
    &KIND O
      BASIS_SET DZVP-GTH-PADE
      BASIS_SET AUX_FIT FIT3
      POTENTIAL GTH-PADE-q6
    &END KIND
  &END SUBSYS
&END FORCE_EVAL
&GLOBAL
  PRINT_LEVEL LOW
  PROJECT dipole
  RUN_TYPE DEBUG
&END GLOBAL

&DEBUG
   DEBUG_FORCES .FALSE.
   DEBUG_STRESS_TENSOR .FALSE.
   DEBUG_DIPOLE .TRUE.
   DEBUG_POLARIZABILITY .TRUE.
   DE 0.0002
   EPS_NO_ERROR_CHECK 5.e-5
&END


