&GLOBAL
  PRINT_LEVEL LOW
  PROJECT dipole
  RUN_TYPE DEBUG
&END GLOBAL

&DEBUG
  DE 0.0002
  DEBUG_DIPOLE .TRUE.
  DEBUG_FORCES .FALSE.
  DEBUG_POLARIZABILITY .TRUE.
  DEBUG_STRESS_TENSOR .FALSE.
  EPS_NO_ERROR_CHECK 5.e-5
&END DEBUG

&FORCE_EVAL
  METHOD Quickstep
  &DFT
    BASIS_SET_FILE_NAME BASIS_SET
    &EFIELD
    &END EFIELD
    &PRINT
      &MOMENTS ON
        PERIODIC .FALSE.
        REFERENCE COM
      &END MOMENTS
    &END PRINT
    &QS
      EPS_DEFAULT 1.e-10
      METHOD GPW
    &END QS
    &SCF
      EPS_SCF 1.0E-7
      MAX_SCF 100
      SCF_GUESS RESTART
      &OT OFF
        MINIMIZER DIIS
        PRECONDITIONER FULL_SINGLE_INVERSE
      &END OT
      &OUTER_SCF
        EPS_SCF 1.0E-7
        MAX_SCF 10
      &END OUTER_SCF
    &END SCF
    &XC
      &XC_FUNCTIONAL
        &HYB_MGGA_XC_WB97M_V
        &END HYB_MGGA_XC_WB97M_V
      &END XC_FUNCTIONAL
      2ND_DERIV_ANALYTICAL F
      &HF
        FRACTION 1.000
        &INTERACTION_POTENTIAL
          OMEGA 0.30
          POTENTIAL_TYPE MIX_CL
          SCALE_COULOMB 0.15
          SCALE_LONGRANGE 0.85
        &END INTERACTION_POTENTIAL
        &MEMORY
          MAX_MEMORY 10
        &END MEMORY
        &SCREENING
          EPS_SCHWARZ 1.0E-6
        &END SCREENING
      &END HF
      &VDW_POTENTIAL
        DISPERSION_FUNCTIONAL NON_LOCAL
        &NON_LOCAL
          CUTOFF 30
          KERNEL_FILE_NAME rVV10_kernel_table.dat
          PARAMETERS 6.0 0.01
          TYPE RVV10
          VERBOSE_OUTPUT
        &END NON_LOCAL
      &END VDW_POTENTIAL
    &END XC
  &END DFT
  &PROPERTIES
    &LINRES
      EPS 1.e-10
      PRECONDITIONER FULL_ALL
      &POLAR
        DO_RAMAN T
        PERIODIC_DIPOLE_OPERATOR F
      &END POLAR
    &END LINRES
  &END PROPERTIES
  &SUBSYS
    &CELL
      ABC [angstrom] 6.0 6.0 6.0
      PERIODIC NONE
    &END CELL
    &COORD
      O   0.000000    0.000000   -0.065587
      H   0.000000   -0.757136    0.520545
      H   0.000000    0.757136    0.520545
    &END COORD
    &KIND H
      BASIS_SET DZV-GTH-PADE
      POTENTIAL GTH-PADE-q1
    &END KIND
    &KIND O
      BASIS_SET DZVP-GTH-PADE
      POTENTIAL GTH-PADE-q6
    &END KIND
    &TOPOLOGY
      &CENTER_COORDINATES
      &END CENTER_COORDINATES
    &END TOPOLOGY
  &END SUBSYS
&END FORCE_EVAL
