&GLOBAL
  PROJECT hex-ice 
  RUN_TYPE MD
  PRINT_LEVEL LOW
&END GLOBAL

&MOTION
  &MD
     ENSEMBLE NVE
     TIMESTEP 0.5
     TEMPERATURE 300
     STEPS 4
  &END
&END

&FORCE_EVAL
  METHOD QS
  STRESS_TENSOR ANALYTICAL
  &DFT
    &PRINT
    &END PRINT

    POTENTIAL_FILE_NAME GTH_POTENTIALS
    BASIS_SET_FILE_NAME GTH_BASIS_SETS

    &QS
      ALMO_SCF T
      EPS_DEFAULT 1.0E-8
    &END QS
    
    &ALMO_SCF
      EPS_FILTER                 1.0E-8
      ALMO_ALGORITHM             DIAG
      ALMO_SCF_GUESS             ATOMIC
      ALMO_EXTRAPOLATION_ORDER   3

      &ALMO_OPTIMIZER_DIIS
        MAX_ITER                 100
        EPS_ERROR                5.0E-4
        N_DIIS                   5
      &END

      DELOCALIZE_METHOD          NONE
      
    &END ALMO_SCF
    
    &MGRID
      CUTOFF 200
      NGRIDS 4
    &END MGRID
    &XC
      &XC_FUNCTIONAL BLYP
      &END XC_FUNCTIONAL
    &END XC
  &END DFT
  &SUBSYS
    &CELL
@INCLUDE '../regtest-almo-1/ice.cell'
      MULTIPLE_UNIT_CELL 1 1 1 
    &END CELL
    &TOPOLOGY
      MULTIPLE_UNIT_CELL 1 1 1
    &END
    &COORD
@INCLUDE '../regtest-almo-1/ice.xyz'
    &END COORD
    &KIND H
      BASIS_SET SZV-GTH 
      POTENTIAL GTH-BLYP-q1
    &END KIND
    &KIND O
      BASIS_SET SZV-GTH
      POTENTIAL GTH-BLYP-q6
    &END KIND
  &END SUBSYS
&END FORCE_EVAL

