@SET RESTART_WFN              TRUE
@SET WFN_FILE                 HeH-noconstraint-1_0.wfn
@SET PROJECT_NAME             HeH-cdft-state-1
@SET WRITE_WFN                1
@SET CHARGE                   1
@SET WRITE_CUBE               FALSE
@SET CENTER_SYS               ON
@SET XYZFILE                  HeH.xyz
@SET HIRSHFELD_ACTIVE         TRUE
@SET HIRSHFELD_FRAGMENT       FALSE
@SET PRINT_WEIGHT_FUNCTION    FALSE
@SET MAX_SCF                  5
! He+ H
@SET HIRSHFELD_TARGET_1       0.0
@SET HIRSHFELD_STR_1          0.0
! He H+
@SET HIRSHFELD_TARGET_2       2.0
@SET HIRSHFELD_STR_2          0.0
@SET HIRSHFELD_SHAPEFN        GAUSSIAN
@SET GAUSSIAN_SHAPE           COVALENT
&GLOBAL
  PREFERRED_DIAG_LIBRARY SL
  PRINT_LEVEL MEDIUM
  PROJECT ${PROJECT_NAME}
  RUN_TYPE ENERGY
&END GLOBAL

&FORCE_EVAL
  METHOD QS
  @SET HIRSHFELD_STR ${HIRSHFELD_STR_1}
  @SET HIRSHFELD_TARGET ${HIRSHFELD_TARGET_1}
  @INCLUDE dft-common-params.inc
  @INCLUDE subsys.inc
&END FORCE_EVAL
