&GLOBAL
  PRINT_LEVEL MEDIUM
  PROGRAM_NAME TEST
  PROJECT eig
  RUN_TYPE NONE
&END GLOBAL

&TEST
  &EIGENSOLVER
    DIAG_METHOD syevd
    N 13
  &END EIGENSOLVER
  &EIGENSOLVER
    DIAG_METHOD syevd
    N 7
  &END EIGENSOLVER
  &EIGENSOLVER
    DIAG_METHOD syevx
    N 13
  &END EIGENSOLVER
  &EIGENSOLVER
    DIAG_METHOD syevx
    EIGENVALUES 5
    N 13
  &END EIGENSOLVER
&END TEST
