&GLOBAL
  PRINT_LEVEL MEDIUM
  PROGRAM_NAME TEST
  PROJECT test_02
  RUN_TYPE NONE
  &TIMINGS
    THRESHOLD 0.00000000001
  &END TIMINGS
&END GLOBAL

&TEST
  &RS_PW_TRANSFER
    GRID 150 150 150
    HALO_SIZE 17
    N_LOOP 3
    RS2PW TRUE
    &RS_GRID
      DISTRIBUTION_TYPE DISTRIBUTED
    &END RS_GRID
  &END RS_PW_TRANSFER
&END TEST
