&GLOBAL
  PRINT_LEVEL MEDIUM
  PROGRAM_NAME TEST
  PROJECT test_01
  RUN_TYPE NONE
&END GLOBAL

&TEST
  CLEBSCH_GORDON 10
  COPY 10
  ERI 1
  FFT 10
  MATMUL 7
  MEMORY 64000000
  MPI 4
&END TEST
