&GLOBAL
  PROJECT CH2O_t-1
  RUN_TYPE ENERGY
  PRINT_LEVEL LOW
&END GLOBAL
&FORCE_EVAL
  METHOD Quickstep
  &PROPERTIES
    &TDDFPT
       NSTATES       2
       MAX_ITER    500
       CONVERGENCE [eV] 1.0e-7
       RKS_TRIPLETS T
       &XC
          &XC_FUNCTIONAL PBE
          &END XC_FUNCTIONAL
          2ND_DERIV_ANALYTICAL  T
       &END XC
    &END TDDFPT
  &END PROPERTIES
  &DFT
    LSD
    BASIS_SET_FILE_NAME GTH_BASIS_SETS
    POTENTIAL_FILE_NAME POTENTIAL
    &MGRID
      CUTOFF 250
    &END MGRID
    &QS
    &END QS
    &POISSON
     POISSON_SOLVER MT
     PERIODIC NONE
    &END POISSON
    &SCF
      MAX_SCF 100
      EPS_SCF 1.e-5
      SCF_GUESS ATOMIC
    &END SCF
    &XC
      &XC_FUNCTIONAL PBE
      &END XC_FUNCTIONAL
    &END XC
  &END DFT
  &SUBSYS
    &CELL
      ABC 6.0 6.0 6.0
      PERIODIC NONE
    &END CELL
    &TOPOLOGY
     &CENTER_COORDINATES
     &END
    &END TOPOLOGY
    &COORD
  O         0.094933   -0.000368    0.895642
  C        -0.031077   -0.000121   -0.307326
  H        -0.090437    0.947608   -0.895642
  H        -0.094933   -0.947608   -0.895562
    &END COORD
    &KIND O
      BASIS_SET DZVP-GTH
      POTENTIAL GTH-PBE-q6
    &END KIND
    &KIND C
      BASIS_SET DZVP-GTH
      POTENTIAL GTH-PBE-q4
    &END KIND
    &KIND H
      BASIS_SET DZVP-GTH
      POTENTIAL GTH-PBE-q1
    &END KIND
  &END SUBSYS
&END FORCE_EVAL
