&GLOBAL
  PRINT_LEVEL LOW
  PROJECT CH2O_t-1
  RUN_TYPE ENERGY
&END GLOBAL

&FORCE_EVAL
  METHOD Quickstep
  &DFT
    BASIS_SET_FILE_NAME GTH_BASIS_SETS
    POTENTIAL_FILE_NAME POTENTIAL
    &MGRID
      CUTOFF 200
    &END MGRID
    &POISSON
      PERIODIC NONE
      POISSON_SOLVER MT
    &END POISSON
    &QS
    &END QS
    &SCF
      EPS_SCF 1.e-5
      MAX_SCF 100
      SCF_GUESS ATOMIC
    &END SCF
    &XC
      &XC_FUNCTIONAL PBE
      &END XC_FUNCTIONAL
    &END XC
  &END DFT
  &PROPERTIES
    &TDDFPT
      CONVERGENCE [eV] 1.0e-6
      MAX_ITER 500
      NSTATES 2
      RKS_TRIPLETS T
      &XC
        &XC_FUNCTIONAL PBE
        &END XC_FUNCTIONAL
        2ND_DERIV_ANALYTICAL  F
      &END XC
    &END TDDFPT
  &END PROPERTIES
  &SUBSYS
    &CELL
      ABC 5.0 5.0 5.0
      PERIODIC NONE
    &END CELL
    &COORD
      O         0.094933   -0.000368    0.895642
      C        -0.031077   -0.000121   -0.307326
      H        -0.090437    0.947608   -0.895642
      H        -0.094933   -0.947608   -0.895562
    &END COORD
    &KIND O
      BASIS_SET DZVP-GTH
      POTENTIAL GTH-PBE-q6
    &END KIND
    &KIND C
      BASIS_SET DZVP-GTH
      POTENTIAL GTH-PBE-q4
    &END KIND
    &KIND H
      BASIS_SET DZVP-GTH
      POTENTIAL GTH-PBE-q1
    &END KIND
    &TOPOLOGY
      &CENTER_COORDINATES
      &END CENTER_COORDINATES
    &END TOPOLOGY
  &END SUBSYS
&END FORCE_EVAL
