&GLOBAL
  PRINT_LEVEL LOW
  PROJECT H2O
  RUN_TYPE ENERGY
&END GLOBAL

&FORCE_EVAL
  METHOD Quickstep
  &DFT
    BASIS_SET_FILE_NAME BASIS_SET
    POTENTIAL_FILE_NAME POTENTIAL
    &MGRID
      CUTOFF 200
      REL_CUTOFF 40
    &END MGRID
    &QS
      EPS_DEFAULT 1.E-14
      METHOD GPW
    &END QS
    &SCF
      EPS_SCF 1.E-6
      MAX_SCF 100
    &END SCF
    &XC
      &XC_FUNCTIONAL PBE0
      &END XC_FUNCTIONAL
    &END XC
  &END DFT
  &PROPERTIES
    &TDDFPT
      CONVERGENCE 1.0e-08
      MAX_ITER 50
      NSTATES 3
      &XC
        &XC_KERNEL GGAfxc
          C_CAA 0.170, 2.355,-2.550
          C_CAB 1.000, 0.755,-4.600
          C_XAA 1.000, 0.635, 0.940
          GAMMA 0.004, 0.006, 0.250
          SCALE_C 1.0
          SCALE_X 0.80
        &END XC_KERNEL
      &END XC
    &END TDDFPT
  &END PROPERTIES
  &SUBSYS
    &CELL
      ABC 5.0 5.0 5.0
    &END CELL
    &COORD
      O   0.000000    0.000000   -0.065587 H2O
      H   0.000000   -0.757136    0.520545 H2O
      H   0.000000    0.757136    0.520545 H2O
    &END COORD
    &KIND H
      BASIS_SET DZVP-GTH-PADE
      POTENTIAL GTH-PADE-q1
    &END KIND
    &KIND O
      BASIS_SET DZVP-GTH-PADE
      POTENTIAL GTH-PADE-q6
    &END KIND
  &END SUBSYS
&END FORCE_EVAL
