&GLOBAL
  PRINT_LEVEL LOW
  PROJECT o2_hf3c
  RUN_TYPE ENERGY
&END GLOBAL

&FORCE_EVAL
  METHOD QS
  &DFT
    BASIS_SET_FILE_NAME BASIS_MINIX
    LSD
    POTENTIAL_FILE_NAME POTENTIAL
    &MGRID
      CUTOFF 200
      REL_CUTOFF 30
    &END MGRID
    &POISSON
      PERIODIC NONE
      PSOLVER MT
    &END POISSON
    &QS
      METHOD GAPW
    &END QS
    &SCF
      EPS_SCF 1.0e-6
      IGNORE_CONVERGENCE_FAILURE
      MAX_SCF 1
      SCF_GUESS ATOMIC
    &END SCF
    &XC
      &GCP_POTENTIAL
        DELTA_ENERGY H 0.04240
        DELTA_ENERGY O 0.47901
        DELTA_ENERGY C 0.27995
        DELTA_ENERGY N 0.35791
        GLOBAL_PARAMETERS 0.1290 1.1549 1.1763 1.1526
        VERBOSE T
      &END GCP_POTENTIAL
      &HF
        &SCREENING
          EPS_SCHWARZ 1.0E-6
        &END SCREENING
      &END HF
      &VDW_POTENTIAL
        DISPERSION_FUNCTIONAL PAIR_POTENTIAL
        &PAIR_POTENTIAL
          D3_REFERENCE_CODE
          REFERENCE_FUNCTIONAL HF3C
          SHORT_RANGE_CORRECTION TRUE
          SHORT_RANGE_CORRECTION_PARAMETERS 0.03 0.70 1.50 0.75
          TYPE DFTD3(BJ)
          &PRINT_DFTD
          &END PRINT_DFTD
        &END PAIR_POTENTIAL
      &END VDW_POTENTIAL
      &XC_FUNCTIONAL NONE
      &END XC_FUNCTIONAL
    &END XC
  &END DFT
  &SUBSYS
    &CELL
      ABC 10.0 10.0 10.0
      PERIODIC NONE
    &END CELL
    &COORD
      UNIT bohr
      O     0.000000    0.000000    0.000000
      O     4.000000    0.000000    0.000000
    &END COORD
    &KIND H
      BASIS_SET minix
      POTENTIAL ALL
    &END KIND
    &KIND C
      BASIS_SET minix
      POTENTIAL ALL
    &END KIND
    &KIND O
      BASIS_SET minix
      POTENTIAL ALL
    &END KIND
    &KIND N
      BASIS_SET minix
      POTENTIAL ALL
    &END KIND
  &END SUBSYS
&END FORCE_EVAL
