&GLOBAL
  PRINT_LEVEL LOW
  PROJECT h2_as_fci_roks
  RUN_TYPE ENERGY
&END GLOBAL

&FORCE_EVAL
  METHOD QS
  &DFT
    CHARGE 1
    MULTIPLICITY 2
    ROKS T
    &ACTIVE_SPACE
      ACTIVE_ELECTRONS 1
      ACTIVE_ORBITALS 2
      AS_SOLVER FCI
      MAX_ITER 1
      SCF_EMBEDDING F
      &ERI
        METHOD GPW_HALF_TRANSFORM
        PERIODICITY 0 0 0
      &END ERI
      &ERI_GPW
        CUTOFF 500
      &END ERI_GPW
    &END ACTIVE_SPACE
    &MGRID
      CUTOFF 500
    &END MGRID
    &POISSON
      PERIODIC NONE
      POISSON_SOLVER ANALYTIC
    &END POISSON
    &QS
      METHOD GPW
    &END QS
    &SCF
      ADDED_MOS 3
      MAX_SCF 10
      &PRINT
        &RESTART OFF
        &END RESTART
      &END PRINT
    &END SCF
    &XC
      &HF 1.0
      &END HF
      &XC_FUNCTIONAL NONE
      &END XC_FUNCTIONAL
    &END XC
  &END DFT
  &SUBSYS
    &CELL
      ABC 6.0 6.0 6.0
      PERIODIC NONE
    &END CELL
    &COORD
      H 0.000 0.000  0.356
      H 0.000 0.000 -0.356
    &END COORD
    &KIND H
      BASIS_SET 6-31G*
      POTENTIAL GTH-HF
    &END KIND
  &END SUBSYS
&END FORCE_EVAL
