#CPQA INCLUDE dir1/C.inp
#CPQA INCLUDE ../BASIS_SET
#CPQA INCLUDE ../POTENTIAL
&GLOBAL
  PROJECT farming
  PROGRAM FARMING
  RUN_TYPE NONE
&END GLOBAL
&FARMING
  NGROUP 1
  &JOB
    DIRECTORY dir1
    INPUT_FILE_NAME C.inp
  &END JOB
  &JOB
    DIRECTORY dir1
    INPUT_FILE_NAME C.inp
  &END JOB
&END FARMING
