&GLOBAL
  PRINT_LEVEL MEDIUM
  PROJECT BSE_H2_PBE_CHOLESKY_OFF
  RUN_TYPE ENERGY
  &TIMINGS
    THRESHOLD 0.01
  &END TIMINGS
&END GLOBAL

&FORCE_EVAL
  METHOD Quickstep
  &DFT
    BASIS_SET_FILE_NAME BASIS_DIFFUSE
    POTENTIAL_FILE_NAME POTENTIAL
    &MGRID
      CUTOFF 300
      REL_CUTOFF 30
    &END MGRID
    &POISSON
      PERIODIC NONE
      PSOLVER MULTIPOLE
    &END POISSON
    &PRINT
      &MO
        ENERGIES T
      &END MO
    &END PRINT
    &QS
      METHOD GAPW
    &END QS
    &SCF
      CHOLESKY OFF
      EPS_SCF 1.0E-6
      MAX_SCF 200
      SCF_GUESS RESTART
    &END SCF
    &XC
      &WF_CORRELATION
        &RI_RPA
          &GW
            SELF_CONSISTENCY G0W0
            &BSE
              ENERGY_CUTOFF_EMPTY 60
              NUM_PRINT_EXC -1
              TDA ON
            &END BSE
          &END GW
        &END RI_RPA
      &END WF_CORRELATION
      &XC_FUNCTIONAL PBE
      &END XC_FUNCTIONAL
    &END XC
  &END DFT
  &SUBSYS
    &CELL
      ABC 6 6 6
      PERIODIC NONE
    &END CELL
    &COORD
      H  0 0.0 0.0
      H  0 0.0 0.74144
    &END COORD
    &KIND H
      BASIS_SET def2-SVP-custom-diffuse
      BASIS_SET RI_AUX def2-SVP-RIFIT-custom
      POTENTIAL ALL
    &END KIND
    &PRINT
      &ATOMIC_COORDINATES ON
      &END ATOMIC_COORDINATES
    &END PRINT
    &TOPOLOGY
      &CENTER_COORDINATES
      &END CENTER_COORDINATES
    &END TOPOLOGY
  &END SUBSYS
&END FORCE_EVAL
