&GLOBAL
  PRINT_LEVEL MEDIUM
  PROJECT BSE_H2O_PBE
  RUN_TYPE ENERGY
  &TIMINGS
    THRESHOLD 0.01
  &END TIMINGS
&END GLOBAL

&FORCE_EVAL
  METHOD Quickstep
  &DFT
    BASIS_SET_FILE_NAME HFX_BASIS
    POTENTIAL_FILE_NAME GTH_POTENTIALS
    &MGRID
      CUTOFF 100
      REL_CUTOFF 20
    &END MGRID
    &POISSON
      PERIODIC NONE
      POISSON_SOLVER WAVELET
    &END POISSON
    &QS
      EPS_DEFAULT 1.0E-15
      EPS_PGF_ORB 1.0E-30
      METHOD GPW
    &END QS
    &SCF
      EPS_SCF 1.0E-7
      MAX_SCF 100
      SCF_GUESS ATOMIC
      &PRINT
        &RESTART OFF
        &END RESTART
      &END PRINT
    &END SCF
    &XC
      &WF_CORRELATION
        &RI_RPA
          QUADRATURE_POINTS 100
          &GW
            CORR_MOS_OCC 1000
            CORR_MOS_VIRT 1000
            RI_SIGMA_X
            &BSE
              BSE_CUTOFF_OCC 60.0
              BSE_CUTOFF_VIRT 60.0
              BSE_METHOD FULLDIAG_TDA
            &END BSE
          &END GW
        &END RI_RPA
      &END WF_CORRELATION
      &XC_FUNCTIONAL PBE
      &END XC_FUNCTIONAL
    &END XC
  &END DFT
  &SUBSYS
    &CELL
      ABC [angstrom] 6.000 6.000 6.000
      PERIODIC NONE
    &END CELL
    &KIND H
      BASIS_SET DZVP-GTH
      BASIS_SET RI_AUX RI_DZVP-GTH
      POTENTIAL GTH-PBE-q1
    &END KIND
    &KIND O
      BASIS_SET DZVP-GTH
      BASIS_SET RI_AUX RI_DZVP-GTH
      POTENTIAL GTH-PBE-q6
    &END KIND
    &TOPOLOGY
      COORD_FILE_FORMAT xyz
      COORD_FILE_NAME H2O_gas.xyz
      &CENTER_COORDINATES
      &END CENTER_COORDINATES
    &END TOPOLOGY
  &END SUBSYS
&END FORCE_EVAL
