&GLOBAL
  PRINT_LEVEL LOW
  PROJECT H2O-64
  RUN_TYPE MD
  &TIMINGS
    THRESHOLD 0.001
  &END TIMINGS
&END GLOBAL

&MOTION
  &MD
    ENSEMBLE NVE
    STEPS 10
    TEMPERATURE 300.0
    TIMESTEP 0.5
  &END MD
&END MOTION

&FORCE_EVAL
  METHOD QS
  &DFT
    BASIS_SET_FILE_NAME BASIS_ADMM_UZH
    BASIS_SET_FILE_NAME BASIS_MOLOPT_UZH
    POTENTIAL_FILE_NAME POTENTIAL_UZH
    &AUXILIARY_DENSITY_MATRIX_METHOD
      ADMM_PURIFICATION_METHOD NONE
      EXCH_CORRECTION_FUNC NONE
      EXCH_SCALING_MODEL NONE
      METHOD BASIS_PROJECTION
    &END AUXILIARY_DENSITY_MATRIX_METHOD
    &ENERGY_CORRECTION
      ENERGY_FUNCTIONAL DCDFT
      &RESPONSE_SOLVER
        EPS 1.E-9
        MAX_ITER 50
        METHOD MO_SOLVER
        PRECONDITIONER FULL_SINGLE_INVERSE
      &END RESPONSE_SOLVER
      &XC
        &XC_FUNCTIONAL
          &MGGA_C_R2SCAN
          &END MGGA_C_R2SCAN
          &MGGA_X_R2SCAN
          &END MGGA_X_R2SCAN
        &END XC_FUNCTIONAL
      &END XC
    &END ENERGY_CORRECTION
    &MGRID
      CUTOFF 600
      REL_CUTOFF 60
    &END MGRID
    &QS
      EPS_DEFAULT 1.0E-12
      METHOD GPW
      MIN_PAIR_LIST_RADIUS -1
    &END QS
    &SCF
      EPS_SCF 1.E-7
      MAX_SCF 10
      SCF_GUESS ATOMIC
      &OT ON
        MINIMIZER DIIS
        PRECONDITIONER FULL_ALL
      &END OT
      &OUTER_SCF
        EPS_SCF 1.E-7
        MAX_SCF 10
      &END OUTER_SCF
      &PRINT
        &RESTART OFF
        &END RESTART
      &END PRINT
    &END SCF
    &XC
      &HF
        FRACTION 1.00
        &HF_INFO ON
        &END HF_INFO
        &INTERACTION_POTENTIAL
          CUTOFF_RADIUS 4.0
          POTENTIAL_TYPE TRUNCATED
          T_C_G_DATA t_c_g.dat
        &END INTERACTION_POTENTIAL
        &MEMORY
          EPS_STORAGE_SCALING 0.01
          MAX_MEMORY 500
        &END MEMORY
        &SCREENING
          EPS_SCHWARZ 1.0E-08
          SCREEN_ON_INITIAL_P .TRUE.
        &END SCREENING
      &END HF
      &XC_FUNCTIONAL NONE
      &END XC_FUNCTIONAL
    &END XC
  &END DFT
  &SUBSYS
    &CELL
      ABC 12.4138 12.4138 12.4138
    &END CELL
    &KIND H
      BASIS_SET ORB TZVP-MOLOPT-MGGA-GTH-q1
      BASIS_SET AUX_FIT admm-dz-q1
      POTENTIAL GTH-MGGA-q1
    &END KIND
    &KIND O
      BASIS_SET ORB TZVP-MOLOPT-MGGA-GTH-q6
      BASIS_SET AUX_FIT admm-dz-q6
      POTENTIAL GTH-MGGA-q6
    &END KIND
    &TOPOLOGY
      COORD_FILE_FORMAT xyz
      COORD_FILE_NAME geom.xyz
    &END TOPOLOGY
  &END SUBSYS
&END FORCE_EVAL
