&GLOBAL
  PRINT_LEVEL LOW
  PROJECT H2O-64
  RUN_TYPE MD
  &TIMINGS
    THRESHOLD 0.001
  &END TIMINGS
&END GLOBAL

&MOTION
  &MD
    ENSEMBLE NVE
    STEPS 10
    TEMPERATURE 300.0
    TIMESTEP 0.5
  &END MD
&END MOTION

&FORCE_EVAL
  METHOD QS
  &DFT
    BASIS_SET_FILE_NAME BASIS_MOLOPT_UZH
    POTENTIAL_FILE_NAME POTENTIAL_UZH
    &MGRID
      CUTOFF 280
      REL_CUTOFF 60
    &END MGRID
    &QS
      EPS_DEFAULT 1.0E-12
      METHOD GAPW
    &END QS
    &SCF
      EPS_SCF 1.E-7
      MAX_SCF 10
      SCF_GUESS ATOMIC
      &OT ON
        MINIMIZER DIIS
        PRECONDITIONER FULL_ALL
      &END OT
      &OUTER_SCF
        EPS_SCF 1.E-7
        MAX_SCF 10
      &END OUTER_SCF
      &PRINT
        &RESTART OFF
        &END RESTART
      &END PRINT
    &END SCF
    &XC
      &XC_FUNCTIONAL PBE
      &END XC_FUNCTIONAL
    &END XC
  &END DFT
  &SUBSYS
    &CELL
      ABC 12.4138 12.4138 12.4138
    &END CELL
    &KIND H
      BASIS_SET ORB TZVPP-MOLOPT-GGA-ae
      POTENTIAL ALL
    &END KIND
    &KIND O
      BASIS_SET ORB TZVPP-MOLOPT-GGA-ae
      POTENTIAL ALL
    &END KIND
    &TOPOLOGY
      COORD_FILE_FORMAT xyz
      COORD_FILE_NAME geom.xyz
    &END TOPOLOGY
  &END SUBSYS
&END FORCE_EVAL
