&FORCE_EVAL
  METHOD QS
  &DFT
     BASIS_SET_FILE_NAME  BASIS_ADMM_UZH
     BASIS_SET_FILE_NAME  BASIS_MOLOPT_UZH
     POTENTIAL_FILE_NAME  POTENTIAL_UZH
    &MGRID
      CUTOFF 400
      REL_CUTOFF 60
    &END MGRID
    &QS
      METHOD GPW
      EPS_DEFAULT 1.0E-12
      MIN_PAIR_LIST_RADIUS  -1
    &END QS
    &AUXILIARY_DENSITY_MATRIX_METHOD
        ADMM_PURIFICATION_METHOD NONE
        METHOD CHARGE_CONSTRAINED_PROJECTION
        EXCH_SCALING_MODEL MERLOT
        EXCH_CORRECTION_FUNC OPTX
    &END
    &SCF
      SCF_GUESS ATOMIC 
      EPS_SCF 1.E-7
      MAX_SCF 10
      &OUTER_SCF
         EPS_SCF 1.E-7
         MAX_SCF 10
      &END
      &OT ON
        MINIMIZER DIIS
        PRECONDITIONER FULL_SINGLE_INVERSE
      &END OT
      &PRINT
        &RESTART OFF
        &END
      &END
    &END SCF
    &XC
      &XC_FUNCTIONAL PBE
       &PBE
         SCALE_X 0.75
         SCALE_C 1.0
       &END PBE
      &END XC_FUNCTIONAL
      &HF
        &HF_INFO ON
        &END
        &SCREENING
          EPS_SCHWARZ 1.0E-08
          SCREEN_ON_INITIAL_P .TRUE.
        &END
        &MEMORY
          MAX_MEMORY  500
          EPS_STORAGE_SCALING 0.01
        &END
        &INTERACTION_POTENTIAL
          POTENTIAL_TYPE TRUNCATED
          CUTOFF_RADIUS 5.0
          T_C_G_DATA t_c_g.dat
        &END
        FRACTION 0.25
      &END
    &END XC
  &END DFT
  &SUBSYS
    &CELL
      ABC 12.4138 12.4138 12.4138
    &END CELL
    &TOPOLOGY
         COORD_FILE_NAME geom.xyz
         COORD_FILE_FORMAT xyz
    &END TOPOLOGY
    &KIND H
      BASIS_SET ORB TZVP-MOLOPT-HYB-GTH-q1
      BASIS_SET AUX_FIT admm-dz-q1
      POTENTIAL GTH-HYB-q1
    &END KIND
    &KIND O
      BASIS_SET ORB TZVP-MOLOPT-HYB-GTH-q6
      BASIS_SET AUX_FIT admm-dz-q6
      POTENTIAL GTH-HYB-q6
    &END KIND
  &END SUBSYS
&END FORCE_EVAL
&GLOBAL
  PROJECT H2O-64 
  RUN_TYPE MD
  PRINT_LEVEL LOW
  &TIMINGS
     THRESHOLD 0.001
  &END
&END GLOBAL
&MOTION
  &MD
    ENSEMBLE NVE
    STEPS 10
    TIMESTEP 0.5
    TEMPERATURE 300.0
  &END MD
&END MOTION
