&FORCE_EVAL
  METHOD QS
  &DFT
     BASIS_SET_FILE_NAME  BASIS_MOLOPT_UZH
     POTENTIAL_FILE_NAME  POTENTIAL_UZH
    &MGRID
      CUTOFF 800
      REL_CUTOFF 60
    &END MGRID
    &QS
      METHOD GPW
      EPS_DEFAULT 1.0E-12
    &END QS
    &SCF
      SCF_GUESS ATOMIC 
      EPS_SCF 1.E-7
      MAX_SCF 10
      &OUTER_SCF
         EPS_SCF 1.E-7
         MAX_SCF 10
      &END
      &OT ON
        MINIMIZER DIIS
        PRECONDITIONER FULL_SINGLE_INVERSE
      &END OT
      &PRINT
        &RESTART OFF
        &END
      &END
    &END SCF
    &XC
        &XC_FUNCTIONAL
          &MGGA_X_R2SCAN
          &END
          &MGGA_C_R2SCAN
          &END
        &END XC_FUNCTIONAL
    &END XC
  &END DFT
  &SUBSYS
    &CELL
      ABC 12.4138 12.4138 12.4138
    &END CELL
    &TOPOLOGY
         COORD_FILE_NAME geom.xyz
         COORD_FILE_FORMAT xyz
    &END TOPOLOGY
    &KIND H
      BASIS_SET ORB TZVP-MOLOPT-MGGA-GTH-q1
      POTENTIAL GTH-MGGA-q1
    &END KIND
    &KIND O
      BASIS_SET ORB TZVP-MOLOPT-MGGA-GTH-q6
      POTENTIAL GTH-MGGA-q6
    &END KIND
  &END SUBSYS
&END FORCE_EVAL
&GLOBAL
  PROJECT H2O-64 
  RUN_TYPE MD
  PRINT_LEVEL LOW
  &TIMINGS
     THRESHOLD 0.001
  &END
&END GLOBAL
&MOTION
  &MD
    ENSEMBLE NVE
    STEPS 10
    TIMESTEP 0.5
    TEMPERATURE 300.0
  &END MD
&END MOTION
