&GLOBAL
  PROJECT run-corr_dipm-RKS
  RUN_TYPE ENERGY
&END GLOBAL

&FORCE_EVAL
  METHOD Quickstep
  &DFT
    BASIS_SET_FILE_NAME BASIS_SET
    POTENTIAL_FILE_NAME GTH_POTENTIALS

    SURFACE_DIPOLE_CORRECTION TRUE
    SURF_DIP_DIR Z
    SURF_DIP_POS 22.650
    CORE_CORR_DIP TRUE

    CHARGE 0
    MULTIPLICITY 1

    &QS
       METHOD GPW
       EPS_DEFAULT 1.0E-8
    &END

    &POISSON
       PERIODIC XYZ
    &END

    &SCF
      SCF_GUESS ATOMIC
      MAX_SCF 100
      EPS_SCF 1.0E-4
      ADDED_MOS 10
      &DIAGONALIZATION
        ALGORITHM STANDARD  ! Do not change
      &END
      &MIXING
        METHOD BROYDEN_MIXING
      &END
      &SMEAR
        METHOD ENERGY_WINDOW
        WINDOW_SIZE 0.0037
      &END
      &OUTER_SCF
        MAX_SCF 10
        EPS_SCF 1.0E-4
      &END

      &PRINT
        &RESTART OFF
        &END RESTART
        &RESTART_HISTORY OFF
        &END RESTART_HISTORY
      &END PRINT
    &END SCF

    &XC
      &XC_FUNCTIONAL
         &PADE
         &END
      &END XC_FUNCTIONAL
    &END XC

  &END DFT

  &SUBSYS
    &CELL
      ABC [angstrom] 3.192 5.529 28.650
      PERIODIC XYZ
    &END CELL

    &TOPOLOGY
      COORD_FILE_NAME coord2Mg2Ne.xyz
      COORD_FILE_FORMAT XYZ
      &CENTER_COORDINATES FALSE
      &END
    &END

    &KIND Mg
      BASIS_SET DZVP-GTH-PADE-q2
      POTENTIAL GTH-PADE-q2
    &END KIND
    &KIND pNe
      ELEMENT Ne
      BASIS_SET SZV-GTH-PADE
      POTENTIAL GTH-PADE
      CORE_CORRECTION -0.0001
    &END KIND
  &END SUBSYS
&END FORCE_EVAL

