&FORCE_EVAL
  METHOD QMMM
  &DFT
    BASIS_SET_FILE_NAME ../GTH_BASIS_SETS
    POTENTIAL_FILE_NAME ../POTENTIAL
    &MGRID
      COMMENSURATE
      CUTOFF 150
    &END MGRID
    &QS
    &END QS
    &SCF
      SCF_GUESS atomic
      MAX_SCF 2
    &END SCF
    &XC
      &XC_FUNCTIONAL pade
      &END XC_FUNCTIONAL
    &END XC
  &END DFT
  &MM
    &FORCEFIELD
      &CHARGE
        ATOM Cu
        CHARGE 0
      &END CHARGE
      &CHARGE
        ATOM H
        CHARGE 0
      &END CHARGE
       &BOND
        ATOMS H H
         K 0.
         R0 0
       &END BOND
      &SPLINE
        EPS_SPLINE 1.E-5
        EMAX_SPLINE 2
       &END
     &NONBONDED
        &LENNARD-JONES
          atoms Cu Cu
          EPSILON 0
          SIGMA 0
          RCUT 8.4
        &END LENNARD-JONES
        &LENNARD-JONES
          atoms H H
          EPSILON 0
          SIGMA 0
          RCUT 8.4
        &END LENNARD-JONES
        &LENNARD-JONES
          atoms Cu H
          EPSILON 119.8
          SIGMA 3.405
          RCUT 8.4
        &END LENNARD-JONES
      &END NONBONDED
    &END FORCEFIELD
    &POISSON
      &EWALD
        EWALD_TYPE none
      &END EWALD
    &END POISSON
  &END MM
  &SUBSYS
    &CELL
      ABC 7.206 7.206 10.00
    &END CELL
    &COORD
 Cu   0.0000000000000000    0.0000000000000000    0.0000000000000000     
 Cu   3.6030000000000002    0.0000000000000000    0.0000000000000000     
 Cu   0.0000000000000000    3.6030000000000002    0.0000000000000000     
 Cu   3.6030000000000002    3.6030000000000002    0.0000000000000000     
 Cu   0.0000000000000000    0.0000000000000000    3.6030000000000002     
 Cu   3.6030000000000002    0.0000000000000000    3.6030000000000002     
 Cu   0.0000000000000000    3.6030000000000002    3.6030000000000002     
 Cu   3.6030000000000002    3.6030000000000002    3.6030000000000002     
 Cu   1.8015000000000001    1.8015000000000001    0.0000000000000000     
 Cu   5.4045000000000005    1.8015000000000001    0.0000000000000000     
 Cu   1.8015000000000001    5.4045000000000005    0.0000000000000000     
 Cu   5.4045000000000005    5.4045000000000005    0.0000000000000000     
 Cu   1.8015000000000001    1.8015000000000001    3.6030000000000002     
 Cu   5.4045000000000005    1.8015000000000001    3.6030000000000002     
 Cu   1.8015000000000001    5.4045000000000005    3.6030000000000002     
 Cu   5.4045000000000005    5.4045000000000005    3.6030000000000002     
 Cu   1.8015000000000001    0.0000000000000000    1.8015000000000001     
 Cu   5.4045000000000005    0.0000000000000000    1.8015000000000001     
 Cu   1.8015000000000001    3.6030000000000002    1.8015000000000001     
 Cu   5.4045000000000005    3.6030000000000002    1.8015000000000001     
 Cu   1.8015000000000001    0.0000000000000000    5.4045000000000005     
 Cu   5.4045000000000005    0.0000000000000000    5.4045000000000005     
 Cu   1.8015000000000001    3.6030000000000002    5.4045000000000005     
 Cu   5.4045000000000005    3.6030000000000002    5.4045000000000005     
 Cu   0.0000000000000000    1.8015000000000001    1.8015000000000001     
 Cu   3.6030000000000002    1.8015000000000001    1.8015000000000001     
 Cu   0.0000000000000000    5.4045000000000005    1.8015000000000001     
 Cu   3.6030000000000002    5.4045000000000005    1.8015000000000001     
 Cu   0.0000000000000000    1.8015000000000001    5.4045000000000005     
 Cu   3.6030000000000002    1.8015000000000001    5.4045000000000005     
 Cu   0.0000000000000000    5.4045000000000005    5.4045000000000005     
 Cu   3.6030000000000002    5.4045000000000005    5.4045000000000005 
 H    2.0                   2.5                   8.0
 H    3.0                   2.5                   8.0
    &END COORD

    &KIND H
      BASIS_SET DZVP-GTH
      POTENTIAL GTH-PADE-q1
    &END KIND

    &TOPOLOGY
      CONNECTIVITY OFF
    &END TOPOLOGY
  &END SUBSYS

  &QMMM
   CENTER NEVER
   &CELL
     ABC 7.206 7.206 10.00
   &END CELL
   NOCOMPATIBILITY
   &QM_KIND H
     MM_INDEX 33 34 
   &END QM_KIND
   &IMAGE_CHARGE
    MM_ATOM_LIST  23 30  
   &END IMAGE_CHARGE
  &END QMMM
&END FORCE_EVAL

&GLOBAL
  PROJECT Cu-H2-qmmm-image-4.inp
  RUN_TYPE md
&END GLOBAL

&MOTION
 &CONSTRAINT
  &FIXED_ATOMS
    COMPONENTS_TO_FIX XYZ
    LIST 23 30
  &END FIXED_ATOMS
 &END CONSTRAINT
  &MD
    ENSEMBLE NVE
    STEPS 1
    TIMESTEP 1.0
    TEMPERATURE 85.0
  &END MD
&END MOTION
