&GLOBAL
  PROJECT Cu-H2-qmmm-image-3
  RUN_TYPE md
&END GLOBAL

&MOTION
  &MD
    ENSEMBLE NVE
    STEPS 1
    TEMPERATURE 85.0
    TIMESTEP 1.0
  &END MD
&END MOTION

&FORCE_EVAL
  METHOD QMMM
  &DFT
    BASIS_SET_FILE_NAME ../GTH_BASIS_SETS
    POTENTIAL_FILE_NAME ../POTENTIAL
    &MGRID
      COMMENSURATE
      CUTOFF 300
    &END MGRID
    &QS
    &END QS
    &SCF
      IGNORE_CONVERGENCE_FAILURE
      MAX_SCF 2
      SCF_GUESS atomic
    &END SCF
    &XC
      &XC_FUNCTIONAL pade
      &END XC_FUNCTIONAL
    &END XC
  &END DFT
  &MM
    &FORCEFIELD
      &BOND
        ATOMS H H
        K 0.
        R0 0
      &END BOND
      &CHARGE
        ATOM Cu
        CHARGE 0
      &END CHARGE
      &CHARGE
        ATOM H
        CHARGE 0
      &END CHARGE
      &NONBONDED
        &LENNARD-JONES
          ATOMS Cu Cu
          EPSILON 0
          RCUT 8.4
          SIGMA 0
        &END LENNARD-JONES
        &LENNARD-JONES
          ATOMS H H
          EPSILON 0
          RCUT 8.4
          SIGMA 0
        &END LENNARD-JONES
        &LENNARD-JONES
          ATOMS Cu H
          EPSILON 119.8
          RCUT 8.4
          SIGMA 3.405
        &END LENNARD-JONES
      &END NONBONDED
      &SPLINE
        EMAX_SPLINE 2
        EPS_SPLINE 1.E-5
      &END SPLINE
    &END FORCEFIELD
    &POISSON
      &EWALD
        EWALD_TYPE none
      &END EWALD
    &END POISSON
  &END MM
  &QMMM
    NOCOMPATIBILITY
    &CELL
      ABC 7.206 7.206 10.00
    &END CELL
    &IMAGE_CHARGE
      DETERM_COEFF ITERATIVE
      MM_ATOM_LIST 23 30
    &END IMAGE_CHARGE
    &PRINT
      &IMAGE_CHARGE_INFO
      &END IMAGE_CHARGE_INFO
    &END PRINT
    &QM_KIND H
      MM_INDEX 33 34
    &END QM_KIND
  &END QMMM
  &SUBSYS
    &CELL
      ABC 7.206 7.206 10.00
    &END CELL
    &COORD
      Cu   0.0000000000000000    0.0000000000000000    0.0000000000000000
      Cu   3.6030000000000002    0.0000000000000000    0.0000000000000000
      Cu   0.0000000000000000    3.6030000000000002    0.0000000000000000
      Cu   3.6030000000000002    3.6030000000000002    0.0000000000000000
      Cu   0.0000000000000000    0.0000000000000000    3.6030000000000002
      Cu   3.6030000000000002    0.0000000000000000    3.6030000000000002
      Cu   0.0000000000000000    3.6030000000000002    3.6030000000000002
      Cu   3.6030000000000002    3.6030000000000002    3.6030000000000002
      Cu   1.8015000000000001    1.8015000000000001    0.0000000000000000
      Cu   5.4045000000000005    1.8015000000000001    0.0000000000000000
      Cu   1.8015000000000001    5.4045000000000005    0.0000000000000000
      Cu   5.4045000000000005    5.4045000000000005    0.0000000000000000
      Cu   1.8015000000000001    1.8015000000000001    3.6030000000000002
      Cu   5.4045000000000005    1.8015000000000001    3.6030000000000002
      Cu   1.8015000000000001    5.4045000000000005    3.6030000000000002
      Cu   5.4045000000000005    5.4045000000000005    3.6030000000000002
      Cu   1.8015000000000001    0.0000000000000000    1.8015000000000001
      Cu   5.4045000000000005    0.0000000000000000    1.8015000000000001
      Cu   1.8015000000000001    3.6030000000000002    1.8015000000000001
      Cu   5.4045000000000005    3.6030000000000002    1.8015000000000001
      Cu   1.8015000000000001    0.0000000000000000    5.4045000000000005
      Cu   5.4045000000000005    0.0000000000000000    5.4045000000000005
      Cu   1.8015000000000001    3.6030000000000002    5.4045000000000005
      Cu   5.4045000000000005    3.6030000000000002    5.4045000000000005
      Cu   0.0000000000000000    1.8015000000000001    1.8015000000000001
      Cu   3.6030000000000002    1.8015000000000001    1.8015000000000001
      Cu   0.0000000000000000    5.4045000000000005    1.8015000000000001
      Cu   3.6030000000000002    5.4045000000000005    1.8015000000000001
      Cu   0.0000000000000000    1.8015000000000001    5.4045000000000005
      Cu   3.6030000000000002    1.8015000000000001    5.4045000000000005
      Cu   0.0000000000000000    5.4045000000000005    5.4045000000000005
      Cu   3.6030000000000002    5.4045000000000005    5.4045000000000005
      H    2.0                   2.5                   8.0
      H    3.0                   2.5                   8.0
    &END COORD
    &KIND H
      BASIS_SET DZVP-GTH
      POTENTIAL GTH-PADE-q1
    &END KIND
    &TOPOLOGY
      CONNECTIVITY OFF
    &END TOPOLOGY
  &END SUBSYS
&END FORCE_EVAL
