
&FORCE_EVAL
  METHOD Quickstep
  &DFT
    BASIS_SET_FILE_NAME ./BASIS_STO
    POTENTIAL_FILE_NAME POTENTIAL
    &MGRID
      CUTOFF 250
      NGRIDS 5
    &END MGRID
    &QS
      METHOD GAPW
      STO_NG 4
    &END QS
    &SCF
      EPS_SCF 1.0E-6
      SCF_GUESS ATOMIC
      &OT ON
         MINIMIZER DIIS
         PRECONDITIONER FULL_ALL
      &END OT
    &END SCF
    &XC
      &XC_FUNCTIONAL Pade
      &END XC_FUNCTIONAL
    &END XC
  &END DFT
  &SUBSYS
    &CELL
      ABC 6.0 6.0 6.0
    &END CELL
    &COORD
    O   0.000000    0.000000   -0.065587
    H   0.000000   -0.757136    0.520545
    H   0.000000    0.757136    0.520545
    &END COORD
    &KIND H
      BASIS_SET ORB STO DZ_AE
      POTENTIAL ALL
    &END KIND
    &KIND O
      BASIS_SET ORB STO DZ_AE
      POTENTIAL ALL
    &END KIND
  &END SUBSYS
&END FORCE_EVAL
&GLOBAL
  PROJECT sto1
  PRINT_LEVEL MEDIUM
&END GLOBAL
