&GLOBAL
  PRINT_LEVEL LOW
  PROJECT HgMe2
  RUN_TYPE ENERGY
&END GLOBAL

&FORCE_EVAL
  &DFT
    CHARGE 0
    MULTIPLICITY 1
    &QS
      METHOD xTB
      &XTB
        DO_EWALD F
        GFN_TYPE 0
        VDW_POTENTIAL DFTD4
      &END XTB
    &END QS
    &SCF
      ADDED_MOS -1 -1
      SCF_GUESS NONE
      &SMEAR ON
        ELECTRONIC_TEMPERATURE 300
        METHOD Fermi_Dirac
      &END SMEAR
    &END SCF
  &END DFT
  &SUBSYS
    &CELL
      ABC 15 15 15
      PERIODIC NONE
    &END CELL
    &COORD
      Hg       9.00000000       9.00000000       9.00000000
      C       9.00000000       9.00000000      11.13605625
      C       9.00000000       9.00000000       6.86394375
      H       9.90033246       8.48019281      11.52082415
      H       9.90033246       9.51980719       6.47917585
      H       9.00000000      10.03961437      11.52082415
      H       8.09966754       9.51980719       6.47917585
      H       8.09966754       8.48019281      11.52082415
      H       9.00000000       7.96038563       6.47917585
    &END COORD
    &TOPOLOGY
      &CENTER_COORDINATES T
      &END CENTER_COORDINATES
    &END TOPOLOGY
  &END SUBSYS
&END FORCE_EVAL
