&GLOBAL
  PRINT_LEVEL LOW
  PROJECT Li8
  RUN_TYPE ENERGY
&END GLOBAL

&FORCE_EVAL
  &DFT
    CHARGE 0
    MULTIPLICITY 1
    &QS
      METHOD xTB
      &XTB
        DO_EWALD F
        GFN_TYPE 0
        VDW_POTENTIAL DFTD4
      &END XTB
    &END QS
    &SCF
      ADDED_MOS -1 -1
      SCF_GUESS NONE
      &SMEAR ON
        ELECTRONIC_TEMPERATURE 300
        METHOD Fermi_Dirac
      &END SMEAR
    &END SCF
  &END DFT
  &SUBSYS
    &CELL
      ABC 15 15 15
      PERIODIC NONE
    &END CELL
    &COORD
      Li       9.95063692       9.95064813       9.95055871
      Li       7.04935299       9.95068652       9.95059053
      Li       7.04930319       7.04931348       9.95063889
      Li       9.95069681       7.04933259       9.95061640
      Li       9.95058127       7.04944213       7.04936111
      Li       9.95054259       9.95055439       7.04940098
      Li       7.04945370       9.95057160       7.04938280
      Li       7.04941306       7.04946340       7.04937518
    &END COORD
    &TOPOLOGY
      &CENTER_COORDINATES T
      &END CENTER_COORDINATES
    &END TOPOLOGY
  &END SUBSYS
&END FORCE_EVAL
