&GLOBAL
  PRINT_LEVEL LOW
  PROJECT MoO2
  RUN_TYPE ENERGY
&END GLOBAL

&FORCE_EVAL
  &DFT
    CHARGE 0
    MULTIPLICITY 1
    &QS
      METHOD xTB
      &XTB
        GFN_TYPE 0
        VDW_POTENTIAL DFTD4
        DO_EWALD F
      &END XTB
    &END QS
    &SCF
      SCF_GUESS NONE
      ADDED_MOS -1 -1
      &SMEAR ON
        METHOD Fermi_Dirac
        ELECTRONIC_TEMPERATURE 300
      &END
    &END SCF
  &END DFT
  &SUBSYS
    &CELL
      ABC 15 15 15
      PERIODIC NONE
    &END CELL
    &COORD
Mo       8.00000000       8.00000000       8.47756544     
O       9.43106704       8.00000000       7.52243456     
O       6.56893296       8.00000000       7.52243456    
    &END COORD
    &TOPOLOGY
      &CENTER_COORDINATES T
      &END
    &END    
  &END SUBSYS
&END FORCE_EVAL
