&GLOBAL
  PRINT_LEVEL LOW
  PROJECT OsOF5
  RUN_TYPE ENERGY
&END GLOBAL

&FORCE_EVAL
  &DFT
    CHARGE 0
    MULTIPLICITY 2
    LSD
    &QS
      METHOD xTB
      &XTB
        GFN_TYPE 0
        VDW_POTENTIAL DFTD4
        DO_EWALD F
      &END XTB
    &END QS
    &SCF
      SCF_GUESS NONE
      ADDED_MOS -1 -1
      &SMEAR ON
        METHOD Fermi_Dirac
        FIXED_MAGNETIC_MOMENT 1
        ELECTRONIC_TEMPERATURE 300
      &END
    &END SCF
  &END DFT
  &SUBSYS
    &CELL
      ABC 15 15 15
      PERIODIC NONE
    &END CELL
    &COORD
Os       8.50000000       8.50000000       8.59845025      
O       8.50000000       8.50000000      10.31921044      
F       8.50000000       8.50000000       6.68078956     
F       7.15837480       9.84162520       8.43632659    
F       7.15837480       7.15837480       8.43632659   
F       9.84162520       7.15837480       8.43632659  
F       9.84162520       9.84162520       8.43632659 
    &END COORD
    &TOPOLOGY
      &CENTER_COORDINATES T
      &END
    &END    
  &END SUBSYS
&END FORCE_EVAL
