&GLOBAL
  PRINT_LEVEL LOW
  PROJECT RhF6
  RUN_TYPE ENERGY
&END GLOBAL

&FORCE_EVAL
  &DFT
    CHARGE 0
    MULTIPLICITY 2
    LSD
    &QS
      METHOD xTB
      &XTB
        GFN_TYPE 0
        VDW_POTENTIAL DFTD4
        DO_EWALD F
      &END XTB
    &END QS
    &SCF
      SCF_GUESS NONE
      ADDED_MOS -1 -1
      &SMEAR ON
        METHOD Fermi_Dirac
        FIXED_MAGNETIC_MOMENT 1
        ELECTRONIC_TEMPERATURE 300
      &END
    &END SCF
  &END DFT
  &SUBSYS
    &CELL
      ABC 15 15 15
      PERIODIC NONE
    &END CELL
    &COORD
Rh       8.50000000       8.50000000       8.50000000       
F       9.82982145       7.17017855       8.50000000       
F       9.82982145       9.82982145       8.50000000      
F       7.17017855       9.82982145       8.50000000     
F       7.17017855       7.17017855       8.50000000    
F       8.50000000       8.50000000      10.38066131   
F       8.50000000       8.50000000       6.61933869  
    &END COORD
    &TOPOLOGY
      &CENTER_COORDINATES T
      &END
    &END    
  &END SUBSYS
&END FORCE_EVAL
