&GLOBAL
  PRINT_LEVEL LOW
  PROJECT SbCl6-
  RUN_TYPE ENERGY
&END GLOBAL

&FORCE_EVAL
  &DFT
    CHARGE -1
    MULTIPLICITY 1
    &QS
      METHOD xTB
      &XTB
        GFN_TYPE 0
        VDW_POTENTIAL DFTD4
        DO_EWALD F
      &END XTB
    &END QS
    &SCF
      SCF_GUESS NONE
      ADDED_MOS -1 -1
      &SMEAR ON
        METHOD Fermi_Dirac
        ELECTRONIC_TEMPERATURE 300
      &END
    &END SCF
  &END DFT
  &SUBSYS
    &CELL
      ABC 15 15 15
      PERIODIC NONE
    &END CELL
    &COORD
Sb       9.50000000       9.50000000       9.50000000       
Cl       9.50000000      11.95775035       9.50000000      
Cl       9.50000000       9.50000000      11.95775035     
Cl      11.95775035       9.50000000       9.50000000    
Cl       9.50000000       9.50000000       7.04224965   
Cl       7.04224965       9.50000000       9.50000000  
Cl       9.50000000       7.04224965       9.50000000 
    &END COORD
    &TOPOLOGY
      &CENTER_COORDINATES T
      &END
    &END    
  &END SUBSYS
&END FORCE_EVAL
