&GLOBAL
  PRINT_LEVEL LOW
  PROJECT Se8
  RUN_TYPE ENERGY
&END GLOBAL

&FORCE_EVAL
  &DFT
    CHARGE 0
    MULTIPLICITY 1
    &QS
      METHOD xTB
      &XTB
        GFN_TYPE 0
        VDW_POTENTIAL DFTD4
        DO_EWALD F
      &END XTB
    &END QS
    &SCF
      SCF_GUESS NONE
      ADDED_MOS -1 -1
      &SMEAR ON
        METHOD Fermi_Dirac
        ELECTRONIC_TEMPERATURE 300
      &END
    &END SCF
  &END DFT
  &SUBSYS
    &CELL
      ABC 15 15 15
      PERIODIC NONE
    &END CELL
    &COORD
Se      12.00551297       8.46218255      10.07258817       
Se      10.53781745      12.00551297      10.07258817      
Se       6.99448703      10.53781745      10.07258817     
Se       8.46218255       6.99448703      10.07258817    
Se      12.00551297      10.53781745       8.92741183   
Se       8.46218255      12.00551297       8.92741183  
Se       6.99448703       8.46218255       8.92741183 
Se      10.53781745       6.99448703       8.92741183
    &END COORD
    &TOPOLOGY
      &CENTER_COORDINATES T
      &END
    &END    
  &END SUBSYS
&END FORCE_EVAL
