&GLOBAL
  PRINT_LEVEL LOW
  PROJECT SF6
  RUN_TYPE ENERGY
&END GLOBAL

&FORCE_EVAL
  &DFT
    CHARGE 0
    MULTIPLICITY 1
    &QS
      METHOD xTB
      &XTB
        GFN_TYPE 0
        VDW_POTENTIAL DFTD4
        DO_EWALD F
      &END XTB
    &END QS
    &SCF
      SCF_GUESS NONE
      ADDED_MOS -1 -1
      &SMEAR ON
        METHOD Fermi_Dirac
        ELECTRONIC_TEMPERATURE 300
      &END
    &END SCF
  &END DFT
  &SUBSYS
    &CELL
      ABC 15 15 15
      PERIODIC NONE
    &END CELL
    &COORD
S       8.50000000       8.50000000       8.50000059       
F       7.36135430       7.36135430       8.49999979      
F       8.50000000       8.50000000      10.11028775     
F       7.36135430       9.63864570       8.49999979    
F       8.50000000       8.50000000       6.88971225   
F       9.63864570       7.36135430       8.49999979  
F       9.63864570       9.63864570       8.49999979 
    &END COORD
    &TOPOLOGY
      &CENTER_COORDINATES T
      &END
    &END    
  &END SUBSYS
&END FORCE_EVAL
