&GLOBAL
  PRINT_LEVEL LOW
  PROJECT VH5
  RUN_TYPE ENERGY
&END GLOBAL

&FORCE_EVAL
  &DFT
    CHARGE 0
    MULTIPLICITY 1
    &QS
      METHOD xTB
      &XTB
        GFN_TYPE 0
        VDW_POTENTIAL DFTD4
        DO_EWALD F
      &END XTB
    &END QS
    &SCF
      SCF_GUESS NONE
      ADDED_MOS -1 -1
      &SMEAR ON
        METHOD Fermi_Dirac
        ELECTRONIC_TEMPERATURE 300
      &END
    &END SCF
  &END DFT
  &SUBSYS
    &CELL
      ABC 15 15 15
      PERIODIC NONE
    &END CELL
    &COORD
V       8.28834144       8.03692899       8.19278711      
H       8.83231652       8.10347687       6.63169078     
H       8.90444667       7.02652695       9.28471280    
H       8.90854359       8.94597409       9.36830922   
H       7.09810429       8.97347305       8.73749136  
H       7.09145641       7.06448557       8.65405171 
    &END COORD
    &TOPOLOGY
      &CENTER_COORDINATES T
      &END
    &END    
  &END SUBSYS
&END FORCE_EVAL
