&GLOBAL
  PRINT_LEVEL LOW
  PROJECT XeOF4
  RUN_TYPE ENERGY
&END GLOBAL

&FORCE_EVAL
  &DFT
    CHARGE 0
    MULTIPLICITY 1
    &QS
      METHOD xTB
      &XTB
        GFN_TYPE 0
        VDW_POTENTIAL DFTD4
        DO_EWALD F
      &END XTB
    &END QS
    &SCF
      SCF_GUESS NONE
      ADDED_MOS -1 -1
      &SMEAR ON
        METHOD Fermi_Dirac
        ELECTRONIC_TEMPERATURE 300
      &END
    &END SCF
  &END DFT
  &SUBSYS
    &CELL
      ABC 15 15 15
      PERIODIC NONE
    &END CELL
    &COORD
Xe       8.00000000       8.00000000       7.16264667      
O       8.00000000       8.00000000       8.98177411      
F       9.42951038       6.57048962       7.01822589     
F       9.42951038       9.42951038       7.01822589    
F       6.57048962       9.42951038       7.01822589   
F       6.57048962       6.57048962       7.01822589  
    &END COORD
    &TOPOLOGY
      &CENTER_COORDINATES T
      &END
    &END    
  &END SUBSYS
&END FORCE_EVAL
