
&FORCE_EVAL
  METHOD Quickstep
  &DFT
    &QS
      METHOD MNDOD
      &SE
       ANALYTICAL_GRADIENTS F
       STO_NG 6
      &END
    &END QS
    &SCF
      SCF_GUESS ATOMIC
    &END SCF
    &PRINT
      &AO_MATRICES
          CORE_HAMILTONIAN
          OVERLAP
      &END
    &END
  &END DFT
  &SUBSYS
    &CELL
      ABC 20.0 20.0 20.0
      UNIT ANGSTROM
      PERIODIC NONE
    &END CELL
    &COORD
       Br                   .00000000     .00000000     .00000000
       Cl                   .60673664    -.11133319    -.90673603
    &END COORD
    &PRINT
      &KINDS
        BASIS_SET
      &END
    &END
  &END SUBSYS
&END FORCE_EVAL
&GLOBAL
  PROJECT BrCl
  RUN_TYPE ENERGY_FORCE
&END GLOBAL
