&FORCE_EVAL
  METHOD Quickstep
  &PROPERTIES
     &ATOMIC
        ENERGY
     &END ATOMIC
  &END PROPERTIES
  &DFT
    &QS
      METHOD AM1
      &SE
        ANALYTICAL_GRADIENTS T
      &END
    &END QS
    &SCF
      SCF_GUESS ATOMIC
      EPS_SCF 1.0E-6
      MAX_SCF 200
      &OT T
        MINIMIZER DIIS
        PRECONDITIONER FULL_ALL
        LINESEARCH 3PNT
      &END OT
    &END SCF
  &END DFT
  &SUBSYS
    &CELL
      ABC 20.0 20.0 20.0
      PERIODIC NONE
    &END CELL
    &COORD
O -1.41388  -1.84021   0.000000
H -0.41911  -1.84021   0.000000
H -1.67014  -0.87900   0.000000
O  0.92195   1.19994   0.000000
H  1.29058   1.67975  -0.789668
H  1.29061   1.67973   0.789667
    &END COORD
  &END SUBSYS
&END FORCE_EVAL
&GLOBAL
  PROJECT dimer
  RUN_TYPE ENERGY
&END GLOBAL
