&GLOBAL
  PRINT_LEVEL LOW
  PROJECT h2o_gks_e
  RUN_TYPE ENERGY
&END GLOBAL

&FORCE_EVAL
  METHOD Quickstep
  &DFT
    &POISSON
      &EWALD
        ALPHA 0.5
        EWALD_TYPE EWALD
        GMAX 41 41 41
        &MULTIPOLES
          MAX_MULTIPOLE_EXPANSION QUADRUPOLE
        &END MULTIPOLES
      &END EWALD
    &END POISSON
    &QS
      METHOD PNNL
      &SE
        INTEGRAL_SCREENING SLATER
        PERIODIC EWALD
      &END SE
    &END QS
    &SCF
      EPS_SCF 1.0E-7
      MAX_SCF 20
      SCF_GUESS ATOMIC
      &OT T
        LINESEARCH 3PNT
        MINIMIZER CG
        PRECONDITIONER FULL_ALL
      &END OT
      &OUTER_SCF T
        EPS_SCF 1.0E-7
        MAX_SCF 20
      &END OUTER_SCF
    &END SCF
  &END DFT
  &SUBSYS
    &CELL
      ABC 20. 20. 20.
    &END CELL
    &COORD
      O         2.5484684372        0.0951686445        1.3760152337
      H         2.5185519068        0.1469943764        0.4327712422
      H         2.0984743607        0.8745672024        1.6669476451
    &END COORD
  &END SUBSYS
&END FORCE_EVAL
