&FORCE_EVAL
  METHOD Quickstep
  &DFT
    &QS
      METHOD AM1
      &SE
      &END SE
    &END QS
    &SCF
      SCF_GUESS MOPAC
      &OT
        PRECONDITIONER FULL_SINGLE_INVERSE
        MINIMIZER DIIS
      &END OT
      &OUTER_SCF
        MAX_SCF 20
        EPS_SCF 1.0E-9
      &END OUTER_SCF
      MAX_SCF 20
      EPS_SCF 1.0E-9
    &END SCF
    &PRINT
      &MOMENTS ON
        PERIODIC .FALSE.
        REFERENCE COM
      &END MOMENTS
    &END PRINT
  &END DFT
  &SUBSYS
    &CELL
      ABC 20.0 20.0 20.0
      PERIODIC NONE
    &END CELL
    &COORD
      O      .00000000     .00000000     .00000000
      H     1.05000000     .00000000     .00000000
      H     -.26289900    1.01655502     .00000000
    &END COORD
    &TOPOLOGY
     &CENTER_COORDINATES
     &END CENTER_COORDINATES
    &END TOPOLOGY
  &END SUBSYS
&END FORCE_EVAL

&GLOBAL
  PROJECT h2o_vib
  RUN_TYPE VIBRATIONAL_ANALYSIS
&END GLOBAL

&VIBRATIONAL_ANALYSIS
 INTENSITIES .TRUE.
 NPROC_REP 1
 DX 0.001
&END VIBRATIONAL_ANALYSIS
