&GLOBAL
  PROJECT h2o_vib
  RUN_TYPE VIBRATIONAL_ANALYSIS
&END GLOBAL

&VIBRATIONAL_ANALYSIS
  DX 0.001
  INTENSITIES .TRUE.
  NPROC_REP 1
&END VIBRATIONAL_ANALYSIS

&FORCE_EVAL
  METHOD Quickstep
  &DFT
    &PRINT
      &MOMENTS ON
        PERIODIC .FALSE.
        REFERENCE COM
      &END MOMENTS
    &END PRINT
    &QS
      METHOD AM1
      &SE
      &END SE
    &END QS
    &SCF
      EPS_SCF 1.0E-9
      MAX_SCF 20
      SCF_GUESS MOPAC
      &OT
        MINIMIZER DIIS
        PRECONDITIONER FULL_SINGLE_INVERSE
      &END OT
      &OUTER_SCF
        EPS_SCF 1.0E-9
        MAX_SCF 20
      &END OUTER_SCF
    &END SCF
  &END DFT
  &SUBSYS
    &CELL
      ABC 20.0 20.0 20.0
      PERIODIC NONE
    &END CELL
    &COORD
      O      .00000000     .00000000     .00000000
      H     1.05000000     .00000000     .00000000
      H     -.26289900    1.01655502     .00000000
    &END COORD
    &TOPOLOGY
      &CENTER_COORDINATES
      &END CENTER_COORDINATES
    &END TOPOLOGY
  &END SUBSYS
&END FORCE_EVAL
