&FORCE_EVAL
  METHOD Quickstep
  &DFT
    &QS
      METHOD PNNL
      &SE
        INTEGRAL_SCREENING  SLATER
      &END
    &END QS
    &SCF
      SCF_GUESS MOPAC
    &END SCF
  &END DFT
  &SUBSYS
    &CELL
      ABC 20.0 20.0 20.0
      PERIODIC NONE
    &END CELL
    &COORD
O    1.2025696987709971E+01    1.2412376840360351E+00    1.1100847567157336E+01
H    1.1959096889663195E+01    1.3409373770618183E+00    1.0106406672798471E+01
H    1.1593234139420252E+01    2.0327876480659519E+00    1.1421274324532323E+01
    &END COORD
  &END SUBSYS
&END FORCE_EVAL
&GLOBAL
  PROJECT h2o
  RUN_TYPE ENERGY
&END GLOBAL

