&FORCE_EVAL
  METHOD Quickstep
  &DFT
    &QS
      METHOD PNNL
      &SE
        INTEGRAL_SCREENING  SLATER
        PERIODIC EWALD_GKS
      &END
    &END QS
    &SCF
      EPS_SCF 1.0E-5
      MAX_SCF 30
      &OT ON
        PRECONDITIONER FULL_ALL
        MINIMIZER DIIS
      &END OT
      &OUTER_SCF ON
        EPS_SCF 1.0E-5
        MAX_SCF 10
      &END OUTER_SCF
      SCF_GUESS RANDOM
    &END SCF
    &POISSON
       &EWALD
          ALPHA 0.5
          GMAX  41 41 41
       &END EWALD
    &END POISSON
  &END DFT
  &SUBSYS
    &CELL
      ABC 40.0 40.0 40.0
    &END CELL
    &COORD
O    1.2025696987709971E+01    1.2412376840360351E+00    1.1100847567157336E+01
H    1.1959096889663195E+01    1.3409373770618183E+00    1.0106406672798471E+01
H    1.1593234139420252E+01    2.0327876480659519E+00    1.1421274324532323E+01
    &END COORD
  &END SUBSYS
&END FORCE_EVAL
&GLOBAL
  PROJECT h2o_gks_p
  RUN_TYPE ENERGY
&END GLOBAL
