&GLOBAL
  PROJECT h2op_2
  RUN_TYPE MD
&END GLOBAL

&MOTION
  &MD
    ENSEMBLE NVE
    STEPS 10
    TEMPERATURE 300.
    TIMESTEP 1.0
  &END MD
&END MOTION

&FORCE_EVAL
  METHOD Quickstep
  &DFT
    CHARGE 1
    LSD
    &QS
      METHOD AM1
      &SE
        ANALYTICAL_GRADIENTS F
      &END SE
    &END QS
    &SCF
      SCF_GUESS ATOMIC
    &END SCF
  &END DFT
  &SUBSYS
    &CELL
      ABC 20.0 20.0 20.0
      PERIODIC NONE
    &END CELL
    &COORD
      O                  -.13219527     .00026095     .00000000
      H                   .91780473     .00026095     .00000000
      H                  1.18066235    -.00440322     .00000000
    &END COORD
    &KIND H
      BASIS_SET DZVP-GTH-BLYP
      POTENTIAL GTH-BLYP-q1
    &END KIND
    &KIND O
      BASIS_SET DZVP-GTH-BLYP
      POTENTIAL GTH-BLYP-q6
    &END KIND
  &END SUBSYS
&END FORCE_EVAL
