#MOPAC REFERENCE
#
#          FINAL HEAT OF FORMATION =         17.03447 KCAL =         71.27223 KJ
#
#
#          TOTAL ENERGY            =      -277.982528055 EV
#          ELECTRONIC ENERGY       =       -352.61544 EV  POINT GROUP:     C*v
#          CORE-CORE REPULSION     =         74.63291 EV
#
&FORCE_EVAL
  METHOD Quickstep
  &DFT
    &QS
      METHOD MNDOD
      &SE
       ANALYTICAL_GRADIENTS F
       STO_NG 6
      &END

    &END QS
    &SCF
      SCF_GUESS MOPAC
    &END SCF
    &PRINT
      &MO
        EIGENVECTORS
        EIGENVALUES
      &END
      &AO_MATRICES
          DENSITY
          CORE_HAMILTONIAN
          OVERLAP
          KOHN_SHAM_MATRIX
      &END
    &END
  &END DFT
  &SUBSYS
    &CELL
      ABC 20.0 20.0 20.0
      PERIODIC NONE
    &END CELL
    &COORD
       H                    .00000000     .00000000     .00000000
       Cl                   .60673664    -.11133319    -.90673603
    &END COORD
    &PRINT
      &KINDS
        BASIS_SET
        SE_PARAMETERS
      &END
    &END
  &END SUBSYS
&END FORCE_EVAL
&GLOBAL

  PROJECT HCl
  RUN_TYPE ENERGY_FORCE
&END GLOBAL
