
&FORCE_EVAL
  METHOD Quickstep
  &DFT
    &QS
      METHOD MNDOD
      &SE
       ANALYTICAL_GRADIENTS F
      &END

    &END QS
    &SCF
      SCF_GUESS ATOMIC
    &END SCF
  &END DFT
  &SUBSYS
    &CELL
      ABC 20.0 20.0 20.0
      UNIT ANGSTROM
      PERIODIC NONE
    &END CELL
    &COORD
        H                   .00000000     .00000000     .00000000
       Cl                   .60673664    -.11133319    -.90673603
    &END COORD
  &END SUBSYS
&END FORCE_EVAL
&GLOBAL

  PROJECT H2O
  RUN_TYPE ENERGY_FORCE
&END GLOBAL
