&GLOBAL
  PROJECT hcl
  RUN_TYPE ENERGY_FORCE
&END GLOBAL

#MOPAC REFERENCE
#
#          FINAL HEAT OF FORMATION =         17.03447 KCAL =         71.27223 KJ
#
#
#          TOTAL ENERGY            =      -277.982528055 EV
#          ELECTRONIC ENERGY       =       -352.61544 EV  POINT GROUP:     C*v
#          CORE-CORE REPULSION     =         74.63291 EV
#
&FORCE_EVAL
  METHOD Quickstep
  &DFT
    &PRINT
      &AO_MATRICES
        CORE_HAMILTONIAN
        DENSITY
        KOHN_SHAM_MATRIX
        OVERLAP
      &END AO_MATRICES
      &MO
        EIGENVALUES
        EIGENVECTORS
      &END MO
    &END PRINT
    &QS
      METHOD MNDOD
      &SE
        ANALYTICAL_GRADIENTS F
        STO_NG 6
      &END SE
    &END QS
    &SCF
      SCF_GUESS MOPAC
    &END SCF
  &END DFT
  &SUBSYS
    &CELL
      ABC 20.0 20.0 20.0
      PERIODIC NONE
    &END CELL
    &COORD
      H                    .00000000     .00000000     .00000000
      Cl                   .60673664    -.11133319    -.90673603
    &END COORD
    &PRINT
      &KINDS
        BASIS_SET
        SE_PARAMETERS
      &END KINDS
    &END PRINT
  &END SUBSYS
&END FORCE_EVAL
