
&FORCE_EVAL
  &DFT
    &QS
      METHOD AM1
    &END QS
    &SCF
      SCF_GUESS ATOMIC
    &END SCF
  &END DFT
  &SUBSYS
    &CELL
      ABC 20.0 20.0 20.0
      UNIT ANGSTROM
      PERIODIC NONE
    &END CELL
    &COORD
        F                   .00000000     .00000000     .00000000
        H                   .40673664    -.11133319    -.90673603
    &END COORD
  &END SUBSYS
&END FORCE_EVAL
&GLOBAL
  PROGRAM Quickstep
  PROJECT H2O
  RUN_TYPE GEO_OPT
&END GLOBAL
&MOTION
  &GEOOPT
    MAX_ITER 20
  &END GEOOPT
&END MOTION
