&FORCE_EVAL
  METHOD Quickstep
  &DFT
    &QS
      METHOD PNNL
      &SE
        &COULOMB
          CUTOFF 3.1787
        &END COULOMB
        SCP T
        INTEGRAL_SCREENING  SLATER
        PERIODIC EWALD
      &END
    &END QS
    &SCF
      EPS_SCF 1.0E-8
      MAX_SCF 20
      &OT T
       PRECONDITIONER FULL_ALL
        MINIMIZER DIIS
        LINESEARCH 3PNT
        SCP_NDDO T
      &END OT
      &OUTER_SCF T
        EPS_SCF 1.0E-8
        MAX_SCF 20
      &END OUTER_SCF
      SCF_GUESS ATOMIC
    &END SCF
    &POISSON
      &EWALD
        EWALD_TYPE EWALD
        ALPHA  0.8
        GMAX 21 21 21
        &MULTIPOLES T
           MAX_MULTIPOLE_EXPANSION QUADRUPOLE
        &END MULTIPOLES
      &END EWALD
    &END POISSON
  &END DFT
  &SUBSYS
    &CELL
ABC 6.358 6.358 6.358
    &END CELL
    &COORD
  O         3.4613786876        5.6912049480        0.4543727289
  H         2.8183735096        5.2012524560       -0.0760381983
  H         2.9114406133        6.4013882133        0.9299789968
  O         0.2726839173        5.8131769039        3.6524426114
  H        -0.3305134720        5.2542646859        3.0350424519
  H         0.8608072875        6.3736221304        3.0591507235
  O         0.3733209371        2.7092162634        0.4720541405
  H        -0.1034698773        2.0668534417       -0.1013800786
  H        -0.2883205804        3.2313214887        0.9861387459
  O         5.1679371793        4.2946104941        2.0104883056
  H         4.5349860728        3.7358082901        2.5469828636
  H         4.6439911293        4.8921754874        1.4197090565
  O         1.9804166604        1.0500358045        2.0298628573
  H         2.5408437547        1.7234516156        2.4956106850
  H         1.3203099947        1.5937364881        1.5079432584
  O         1.8865307172        4.1962271939        5.1674455966
  H         1.1978491058        4.7123566273        4.6845538753
  H         1.4552978348        3.6225372508        5.7958754719
  O         3.5550539674        2.8142815783        3.4327698835
  H         2.9552982643        3.3909531502        4.0032656392
  H         3.9895494155        2.1557772081        4.0448159552
  O         5.1227218630        1.1112395839        5.1795427775
  H         5.7513589539        0.5921262315        4.6175072767
  H         4.6567143202        0.4540581626        5.7714857593
    &END COORD
  &END SUBSYS
&END FORCE_EVAL
&GLOBAL
  PROJECT ice-ewald
  RUN_TYPE ENERGY
&END GLOBAL
