&GLOBAL
  PROJECT sih_y
  RUN_TYPE ENERGY_FORCE
&END GLOBAL

&FORCE_EVAL
  METHOD Quickstep
  &DFT
    CHARGE=-1
    &PRINT
      &AO_MATRICES
        CORE_HAMILTONIAN
        DENSITY
        KOHN_SHAM_MATRIX
        OVERLAP
      &END AO_MATRICES
      &MO
        EIGENVALUES
        EIGENVECTORS
      &END MO
    &END PRINT
    &QS
      METHOD MNDOD
      &SE
        ANALYTICAL_GRADIENTS F
        STO_NG 6
      &END SE
    &END QS
    &SCF
      MAX_SCF 100
      SCF_GUESS ATOMIC
      &PRINT
        &RESTART OFF
        &END RESTART
      &END PRINT
    &END SCF
  &END DFT
  &SUBSYS
    &CELL
      ABC 20.0 20.0 20.0
      PERIODIC NONE
    &END CELL
    &COORD
      Si       0.0     0.0     0.0
      H        0.0     1.4     0.0
    &END COORD
    &PRINT
      &KINDS
        BASIS_SET
        SE_PARAMETERS
      &END KINDS
    &END PRINT
  &END SUBSYS
&END FORCE_EVAL
