# MOPAC2007 REFERENCE:
#
#          FINAL HEAT OF FORMATION =        202.66349 KCAL =     847.94404 KJ
#
#
#          TOTAL ENERGY            =       -349.25172 EV
#          ELECTRONIC ENERGY       =       -539.07341 EV  POINT GROUP:     C*v
#          CORE-CORE REPULSION     =        189.82169 EV
#
&FORCE_EVAL
  METHOD Quickstep
  &DFT
    &QS
      METHOD PM6
      &SE
       ANALYTICAL_GRADIENTS F
       STO_NG 6
      &END

    &END QS
    &SCF
      SCF_GUESS MOPAC
    &END SCF
    &PRINT
      &MO
        EIGENVECTORS
        EIGENVALUES
      &END
      &AO_MATRICES
          DENSITY
          CORE_HAMILTONIAN
          OVERLAP
          KOHN_SHAM_MATRIX
      &END
    &END
  &END DFT
  &SUBSYS
    &CELL
      ABC 20.0 20.0 20.0
      PERIODIC NONE
    &END CELL
    &COORD
   Ti    .00000000   .00000000   .00000000
    O    .00000000   .80000000   .80000000
    &END COORD
    &PRINT
      &KINDS
        BASIS_SET
        SE_PARAMETERS
      &END
    &END
  &END SUBSYS
&END FORCE_EVAL
&GLOBAL

  PROJECT HCl
  RUN_TYPE ENERGY_FORCE
&END GLOBAL
