#CPQA DEPENDS CO.inp
&GLOBAL
  IOLEVEL MEDIUM
  PROJECT CH3SH_xastpfh_overlap
  RUN_TYPE ENERGY
&END GLOBAL

&FORCE_EVAL
  METHOD Quickstep
  &DFT
    BASIS_SET_FILE_NAME ALL_BASIS_SETS
    LSD
    POTENTIAL_FILE_NAME POTENTIAL
    RESTART_FILE_NAME CH3SH-RESTART
    &MGRID
      CUTOFF 200
      NGRIDS 1
    &END MGRID
    &POISSON
      PERIODIC NONE
      POISSON_SOLVER MT
      &MT
        ALPHA 7.0
        REL_CUTOFF 1.2
      &END MT
    &END POISSON
    &QS
      ALPHA0_H 10
      EPSFIT 1.E-4
      EPSISO 1.0E-12
      EPSRHO0 1.E-8
      EPS_GVG 1.0E-8
      EPS_PGF_ORB 1.0E-8
      LMAXN0 2
      LMAXN1 6
      METHOD GAPW
      QUADRATURE GC_LOG
    &END QS
    &SCF
      ADDED_MOS 1 1
      EPS_DIIS 0.4
      EPS_SCF 5.0E-7
      IGNORE_CONVERGENCE_FAILURE
      MAX_SCF 1
      SCF_GUESS RESTART
      &OT OFF
        PRECONDITIONER FULL_ALL
      &END OT
      &PRINT
        &RESTART
          FILENAME =RESTART
        &END RESTART
        &TOTAL_DENSITIES MEDIUM
        &END TOTAL_DENSITIES
      &END PRINT
    &END SCF
    &XAS
      ADDED_MOS 20
      DIPOLE_FORM VELOCITY
      METHOD TP_FH
      OVERLAP_THRESHOLD 0.5
      STATE_SEARCH 8
      ##      ORBITAL_LIST 2 4
      STATE_TYPE 2P
      &LOCALIZE
      &END LOCALIZE
      &PRINT
        &PROGRAM_RUN_INFO
        &END PROGRAM_RUN_INFO
        &RESTART
          &EACH
            XAS_SCF 1
          &END EACH
        &END RESTART
        &XAS_SPECTRUM
        &END XAS_SPECTRUM
        &XES_SPECTRUM
        &END XES_SPECTRUM
      &END PRINT
      &SCF
        EPS_DIIS 0.4
        EPS_SCF 0.000001
        IGNORE_CONVERGENCE_FAILURE
        MAX_SCF 10
      &END SCF
    &END XAS
    &XC
      &XC_FUNCTIONAL PADE
      &END XC_FUNCTIONAL
    &END XC
    ##    &PRINT
    ##      &MO
    ##        EIGENVALUES
    ##        OCCUPATION_NUMBERS
    ##      &END
    ##    &END
  &END DFT
  &SUBSYS
    &CELL
      ABC 6.0 6.0 6.0
      PERIODIC NONE
    &END CELL
    &COORD
      S         0.9238500982       -0.5377228792       -0.1750956230
      C        -0.8404956281       -0.0171339884       -0.1881274541
      H         1.4120195367        0.5663886053        0.4235650274
      H        -0.9839763436        0.8733189771       -0.8026085967
      H        -1.3992748140       -0.8460720835       -0.6269904043
      H        -1.2058329252        0.1580376693        0.8254678046
    &END COORD
    &KIND S
      BASIS_SET 6-31G*
      LEBEDEV_GRID 50
      POTENTIAL ALL
      RADIAL_GRID 100
    &END KIND
    &KIND C
      BASIS_SET 6-31G*
      LEBEDEV_GRID 50
      POTENTIAL ALL
      RADIAL_GRID 100
    &END KIND
    &KIND H
      BASIS_SET 6-31G*
      LEBEDEV_GRID 50
      POTENTIAL ALL
      RADIAL_GRID 100
    &END KIND
  &END SUBSYS
&END FORCE_EVAL
