
&FORCE_EVAL
  METHOD FIST
  &MM
    &PRINT
      &DIPOLE
      &END
    &END
    &FORCEFIELD
      parm_file_name ../sample_pot/N3_dye.pot
      parmtype CHM
     &CHARGE
        ATOM O
        CHARGE -0.536000000
     &END CHARGE
     &CHARGE
        ATOM OH
        CHARGE -0.595000000
     &END CHARGE
     &CHARGE
        ATOM C
        CHARGE 0.622000000
     &END CHARGE
     &CHARGE
        ATOM HO
        CHARGE 0.446000000
     &END CHARGE
     &CHARGE
        ATOM Ca1
        CHARGE 0.220000000
     &END CHARGE
     &CHARGE
        ATOM Ca2
        CHARGE -0.427000000
     &END CHARGE
     &CHARGE
        ATOM Ca3
        CHARGE -0.312000000
     &END CHARGE
     &CHARGE
        ATOM Ha1
        CHARGE 0.185000000
     &END CHARGE
     &CHARGE
        ATOM Ha2
        CHARGE 0.157000000
     &END CHARGE
     &CHARGE
        ATOM Ca4
        CHARGE 0.268000000
     &END CHARGE
     &CHARGE
        ATOM H4
        CHARGE 0.086000000
     &END CHARGE
     &CHARGE
        ATOM Nb
        CHARGE -0.529000000
     &END CHARGE
     &CHARGE
        ATOM Nt
        CHARGE -0.529000000
     &END CHARGE
     &CHARGE
        ATOM Ca5
        CHARGE 0.415000000
     &END CHARGE
     &CHARGE
        ATOM N2
        CHARGE -0.722000000
     &END CHARGE
     &CHARGE
        ATOM C1
        CHARGE 0.417000000
     &END CHARGE
     &CHARGE
        ATOM S2
        CHARGE -0.6950000000
     &END CHARGE
     &CHARGE
        ATOM Ru
        CHARGE 2.000000000
     &END CHARGE
    &END FORCEFIELD
    &POISSON
      &EWALD
        EWALD_TYPE pme
        ALPHA .44
        NS_MAX 25
      &END EWALD
    &END POISSON
  &END MM
  &SUBSYS
    &CELL
      ABC 16.955 16.955 16.955
    &END CELL
    &TOPOLOGY
       CONNECTIVITY PSF
  CONN_FILE_NAME ../sample_psf/N3_dye.psf
!        &GENERATE
!          BONDPARM COVALENT
!          BONDLENGTH_MAX 2.1
!CREATE_MOLECULES
!        &END
!        &DUMP_PSF
!        &END
     &END
     &COORD
O -6.9325064474 0.2249287951 -0.4043842355
HO -7.7408217909 -1.1428174991 1.1948323965
C -6.2423440895 -0.4634185725 0.3248893947
OH -6.7745233954 -1.2523683003 1.2162819768
Ca1 -4.7484783155 -0.4777550083 0.2555433681
Ca3 -3.9885342959 -1.2860259381 1.1083428215
Ha2 -4.4669191393 -1.9228689671 1.8543804277
Ca4 -2.5923834638 -1.2402974634 1.0042535073
H4 -1.9564712018 -1.8321178933 1.6573419385
Nb -1.9306698969 -0.4615738344 0.0999616457
Ca5 -2.6881130967 0.3399976535 -0.7123213503
Ca2 -4.1002998249 0.3424948397 -0.6717178096
Ha1 -4.7121722853 0.9771931837 -1.3079560550
Ca5 -1.9425517766 1.1528020044 -1.5627380547
Ca2 -2.5334330709 2.0533718362 -2.4702072074
Ha1 -3.6099275872 2.1606607812 -2.5700755248
Ca1 -1.7013643948 2.8616046265 -3.2519777986
C -2.2670102280 3.8415557543 -4.2210373289
OH -3.5679035754 3.8764201598 -4.3066860155
O -1.5648959137 4.5615026137 -4.8966055009
Ca3 -0.3153559384 2.7614908003 -3.1204256073
Ha2 0.3413595705 3.3989765046 -3.7165603082
Ca4 0.1992874981 1.8381148516 -2.2050001790
H4 1.2685880527 1.7267924956 -2.0525832844
Nt -0.5806228495 1.0166129383 -1.4459457696
Ru 0.0315958337 -0.2614074219 -0.0238939637
N2 0.4040513995 -1.6166310756 1.4224776225
C1 0.6127089401 -2.5158020097 2.2242372688
S2 0.8609382531 -3.7352434824 3.2365900720
N2 0.1196897998 0.8545121426 1.6446006207
C1 0.1049995943 1.6192367265 2.5981912848
S2 0.0939715652 2.6670635273 3.8128596866
Nt 0.3678959739 -1.2956265223 -1.7391335544
Ca4 -0.5789681409 -2.0024655769 -2.4211376978
H4 -1.5826240582 -1.9379633140 -2.0120771908
Ca3 -0.3056912368 -2.7588693931 -3.5663050982
Ha2 -1.0955166884 -3.3042758079 -4.0855447105
Ca1 1.0152611571 -2.8096711511 -4.0223078400
C 1.3969284077 -3.5887110958 -5.2335522659
O 2.5423991649 -3.6401967696 -5.6272225529
HO 8.0211836312 0.5030075118 -0.6086785591
OH 0.4272413834 -4.2031271205 -5.8500918190
Ca2 2.0135950761 -2.1231751813 -3.3302311367
Ha1 3.0348094770 -2.1973703370 -3.6981408032
Ca5 1.6640911479 -1.3859280369 -2.1832112108
Ca5 2.6007380325 -0.7033632207 -1.4104556628
Ca2 3.9815867066 -0.6970079519 -1.6974062635
Ha1 4.4112962366 -1.2172089934 -2.5504109154
Ca1 4.8513292481 -0.0321927172 -0.8287389430
C 6.3166095488 -0.0585325690 -1.1221979305
O 6.7612464262 -0.6297618927 -2.0953004302
OH 7.0969289182 0.5479028236 -0.2686554776
Ca3 4.3345018843 0.6249118840 0.2920288748
Ha2 4.9933291181 1.1396621203 0.9930256362
Ca4 2.9485059251 0.5857918272 0.5058736772
H4 2.4949032356 1.0621834864 1.3712573711
Nb 2.0730876452 -0.0472211481 -0.3305101342
HO 0.8140727184 -4.6387236809 -6.6325738090
HO -3.7887646613 4.5419511950 -4.9829484802
 &END COORD
    &KIND O
       ELEMENT O
    &END KIND
    &KIND H4
       ELEMENT H
    &END KIND
    &KIND Ca1
       ELEMENT C
    &END KIND
    &KIND OH
       ELEMENT O
    &END KIND
    &KIND Ca2
       ELEMENT C
    &END KIND
    &KIND Ca3
       ELEMENT C
    &END KIND
    &KIND Ha1
       ELEMENT H
    &END KIND
    &KIND Ca4
       ELEMENT C
    &END KIND
    &KIND Ha2
       ELEMENT H
    &END KIND
    &KIND Nb
       ELEMENT N
    &END KIND
    &KIND Ca5
       ELEMENT C
    &END KIND
    &KIND C1
       ELEMENT C
    &END KIND
    &KIND s2
       ELEMENT S
    &END KIND
    &KIND ru
       ELEMENT Ru
    &END KIND
    &KIND Nt
       ELEMENT N
    &END KIND
    &KIND N2
       ELEMENT N
    &END KIND
  &END SUBSYS

&END FORCE_EVAL
&GLOBAL
  PROJECT N3_dye-geoopt
! RUN_TYPE NORMAL_MODES
  RUN_TYPE GEO_OPT
&END GLOBAL
&MOTION
  &GEO_OPT
      MAX_ITER 20000
      OPTIMIZER BFGS
      MAX_DR 0.0006
  &END
  &PRINT
     &RESTART OFF
     &END
     &RESTART_HISTORY OFF
     &END
  &END
  &MD
    ENSEMBLE NVT
    STEPS 1000
    TIMESTEP 0.05
    TEMPERATURE 30
    &THERMOSTAT
  &NOSE
     TIMECON 50
        &END
    &END
  &END MD
&END MOTION
&VIBRATIONAL_ANALYSIS
   NPROC_REP 4
   DX 0.01
   INTENSITIES
   &PRINT
     &PROGRAM_RUN_INFO ON
     &END
   &END
   &MODE_SELECTIVE
     ATOMS  51 50
     INITIAL_GUESS ATOMIC
   &END
&END

