&FORCE_EVAL
  METHOD QS
  &DFT
    BASIS_SET_FILE_NAME GTH_BASIS_SETS
    POTENTIAL_FILE_NAME POTENTIAL
    &MGRID
      CUTOFF 280
      REL_CUTOFF 30
    &END MGRID
    &QS
      EPS_DEFAULT 1.0E-12
      WF_INTERPOLATION PS 
      EXTRAPOLATION_ORDER 3
    &END QS
    &SCF
      SCF_GUESS ATOMIC
      &OT ON
        MINIMIZER DIIS
      &END OT
    # SCF_GUESS        RESTART
    # EPS_SCF      1.0E-7

      &PRINT
        &RESTART OFF
        &END
      &END

    &END SCF
    &XC
      &XC_FUNCTIONAL Pade
      &END XC_FUNCTIONAL
    &END XC
  &END DFT
  &SUBSYS
    &CELL
      ABC 49.7260 49.7260 49.7260
    &END CELL
  # 4096 H2O (TIP5P,1bar,300K) a = 49.7260
    &COORD
   O      10.798383      25.140256      11.619484
   O      12.933966      10.461451       6.338704
   O      18.041399       9.702271      20.269860
   O       7.424886      19.194904       8.090627
   O       3.181006      15.214793      23.325063
   O      11.623641      10.041440       9.793124
   O      14.736749      11.004319       7.976855
   O       8.688358       2.262980      20.737112
   O      17.573626       9.737679      47.007232
   O      29.228270       4.465495      19.430589
   O       8.564275      13.502174       6.586407
   O      17.855218       9.813030      11.924078
   O       5.299222      11.905609       7.235667
   O      15.261979      18.207535      18.885535
   O      23.157480      30.638407      17.144348
   O       3.275508      20.684624       8.314593
   O      14.947439      22.923722       2.422228
   O      19.179880      16.421370      23.281515
   O      15.350734       4.210249      24.672606
   O       6.327247       4.216180      11.512390
   O      12.342411      25.933405      17.405520
   O      11.012573      21.702482       4.239466
   O       4.735867      20.702153      17.180881
   O       5.440210      20.038130       9.795564
   O       9.185513       9.843009       8.320607
   O      14.149138       3.998536       8.107209
   O       6.083248      26.561739      26.725068
   O      11.699703      13.539167      16.457709
   O      11.984384      16.882248      18.224260
   O      21.809521       6.139197      19.806574
   O       6.966100      17.479676       1.338954
   O       7.208760      20.719069      11.815219
   O       3.290189      49.479718      32.308133
   O      18.114715      11.681446      49.409628
   O       6.980650       1.511414       9.407118
   O      23.786835      12.447418      47.205087
   O      17.983255       7.417857       3.754171
   O      18.936105      23.802925      46.561550
   O      16.476266       0.952183      13.718199
   O       5.750564      49.679034      19.512268
   O      13.109980      22.132296      10.707380
   O       5.927815      18.765882       3.664045
   O      48.781060      10.992995      12.285466
   O       6.093417       2.648700      22.496419
   O      17.595189      21.529267      16.151424
   O       9.221729       7.004041       1.671472
   O       1.452329      49.631244       2.667769
   O      21.304219      49.620821       8.795924
   O      16.386232      13.761334      25.999554
   O      18.858782      14.222587      18.325768
   O      19.192566      23.843872      49.514093
   O      13.923321      17.747470      16.643653
   O      10.813747       6.094843      24.117861
   O      16.741210      18.664187      13.710156
   O       1.325797      29.624903      13.295361
   O       3.729228      23.786374      14.130192
   O       9.850449       9.044914      17.220672
   O       4.011584       1.203328       0.241895
   O      13.064388       4.876084       2.449749
   O       3.478087      46.703502      22.492881
   O      13.051776      21.463869      17.542807
   O      20.017260       5.993509      17.765047
   O       9.087859       0.204402      24.553774
   O       3.837578       8.999866       4.158895
   O       6.952251       0.077056      21.730663
   O       6.876180       8.145387       8.045802
   O      26.556906      49.658938       8.521729
   O      22.356902      20.182925       3.339947
   O      17.900144       9.390603       1.328046
   O      17.557402      14.639208      12.096852
   O      20.811717      13.491109      13.536520
   O       5.827242      26.810625       6.558210
   O       1.234842      11.524726      21.858725
   O      10.666433       2.273429       7.479985
   O      10.842617       0.341725      11.445477
   O      24.798411       6.676330      18.616386
   O      46.392475       7.124623      13.317923
   O      16.174683      29.673940      21.137447
   O      11.365119      20.336738       6.666339
   O      13.511488      14.519659      12.595140
   O       9.388963       4.394393      13.398008
   O      14.320796       9.304282      17.997205
   O       4.223005      17.762718      23.018111
   O      21.673155      20.709191      20.211262
   O       7.569852      19.514374      44.523873
   O      11.793044       4.212687      15.118437
   O      24.360991      25.270038      22.190868
   O      18.919303       0.186917      11.082166
   O      22.893827       7.146711      22.854998
   O      18.134058       9.463088       9.336608
   O       4.743381       9.256088       6.825528
   O      18.027007      25.306792       2.530231
   O      17.766299      14.475380       3.153625
   O      14.499886       4.164629      13.505220
   O      14.294250       1.490842      19.610049
   O      19.301478       1.839433      21.093260
   O      15.492256       1.647453       9.473062
   O      47.885619      12.113293       8.210202
   O       7.467949      16.230076      14.021930
   O       1.818171      12.664590      17.797767
   O      11.497656       0.381537      23.478697
   O       5.048814      21.099491      19.926551
   O       2.903308       8.032761      28.965847
   O      16.318831       0.339363      24.225684
   O      13.345632      17.323219      22.237106
   O       2.981562      26.051132       7.359103
   O      21.450983      15.177137      11.399003
   O      15.715963      15.810083      15.633037
   O       5.108432       2.446918      18.650931
   O      21.632779      25.746020      13.779871
   O      22.011476       5.788507       1.605488
   O       4.971050      11.615128      10.004387
   O      22.783223      11.551895      17.148038
   O       8.587235       7.437761      19.844045
   O       3.692104      11.544862      12.518963
   O      11.255595      14.786646      49.299094
   O       0.836731      11.174762       8.185909
   O      16.932098      30.430781       9.537393
   O       6.887303      16.361802      16.870095
   O      23.044990       1.214660      17.048987
   O      47.334551       9.535776      14.148473
   O      19.575743       0.557450       6.728535
   O       3.877625       7.082941      13.447383
   O      15.146150      13.501640       6.470940
   O      24.780993      10.704361      11.471862
   O      15.152512       6.601100       3.833185
   O       5.993769       9.224090      15.915888
   O      20.097215      23.659609       3.621028
   O      16.838533      16.476234      21.087497
   O       3.957345       0.763017      25.564894
   O      16.798701      22.643739       5.238098
   O       7.422406       9.236508      23.412951
   O       6.553673      21.577099       5.040151
   O      21.951865      26.939380       1.743169
   O      46.392537      14.671898       7.412427
   O       5.246576       9.359543       1.673068
   O      22.197456      17.400568      21.966926
   O       8.489525       1.377653       3.754076
   O      48.271396       5.690967      16.128414
   O      23.943125      27.064825      14.697145
   O      18.414667      17.329866      11.448768
   O      12.695254       6.765494      15.602523
   O       3.850086      24.609763       9.711174
   O       1.044190      14.482167      21.692957
   O      17.588345       2.032271      30.989344
   O      27.011317      21.423850      23.334390
   O      48.417830      34.332177       3.581111
   O       2.870744      18.328678      49.718430
   O       1.963115      10.857008      15.724844
   O      11.077526       8.201472      11.743585
   O      19.480670      20.629758       6.556079
   O       2.393533      14.796495      19.402109
   O      18.089957      12.291270      27.200509
   O       0.364870      28.203242      20.286036
   O      12.741761      19.368524      19.189723
   O      10.573163      21.368751       9.591819
   O      13.830414      24.733943       4.195255
   O       5.556523      10.182816      25.218845
   O      12.648941       2.888834      12.202204
   O      48.492101      14.846649      13.795599
   O       6.974447      23.878756       6.705811
   O      14.357766      28.564810       2.795744
   O       9.458190       8.021278      22.357403
   O      48.082825      11.266166       1.313528
   O      24.944600      13.990435      19.964378
   O       5.578332      47.456800       9.295098
   O      23.129583      21.816372      11.974688
   O      10.472863      12.131330      13.958031
   O      19.246418       0.289619       2.870087
   O       7.788896      23.558651      17.255150
   O       7.069225      46.482034      16.270355
   O      17.605536      11.373529      16.297744
   O      19.266751      17.072094       8.914629
   O       0.467937      21.262629      15.588742
   O       0.992357      17.272709      18.428808
   O      16.466201      13.042673      18.285185
   O       3.384101      29.624038      16.795157
   O       9.326564      17.579613      17.975726
   O      20.812575      10.872593       1.420655
   O      10.860080       6.185736      19.673293
   O      18.956215      21.659963      10.427304
   O      16.860620       8.127272      24.020920
   O       2.592320      21.303862      13.877330
   O       9.381472      17.714040       4.671740
   O      12.133410      16.591263       8.526124
   O      10.588262      14.383396      18.994538
   O      11.719465       0.306340      16.652370
   O      22.548519      25.949108      17.186239
   O      14.890576       8.100870       5.894768
   O      15.772340      22.818672      10.625545
   O      21.416768       5.057054      15.736932
   O      13.376174      10.717854      15.680640
   O      14.609235      25.822670      11.383787
   O      18.809270       4.275762       3.129905
   O       7.673784      19.902511      19.675961
   O      15.649811      15.654326      18.402466
   O       5.975878       3.267628       5.659886
   O       7.744176      45.399713      12.505083
   O       5.497817      18.769827      49.100143
   O      12.806851      14.943519       6.076551
   O      16.466957       6.413984      49.368040
   O      14.636293      13.399764      21.022889
   O       7.468738      15.754176       4.971461
   O       6.711143       9.630120      45.881232
   O      47.324300      20.057772      17.597784
   O      12.899531      21.366757      26.276872
   O      20.933258      16.957519      15.586321
   O      25.821620       4.451503      19.415058
   O      11.389727       9.350462       3.928004
   O       3.972755       6.989990      10.614247
   O       7.147225       3.264008      14.556430
   O       4.101364       4.187159      20.464543
   O       8.351577      13.600453      20.504831
   O      11.255537      16.181439       2.034781
   O       3.338616      23.128842      16.829761
   O      19.347883      19.282539       3.981207
   O      15.741245      11.898700      13.399037
   O      18.242044      16.977417      15.836149
   O      17.771719      13.651543       7.053343
   O       9.825340      18.422615      15.336275
   O      20.698795      18.413431      19.325022
   O      11.213705       6.035259       9.683254
   O       7.079712      12.671525      47.204851
   O       6.487604      24.693995      10.093225
   O      14.747221       0.560991      15.712943
   O       2.314104       9.857399       9.997526
   O       8.546178      26.966840      12.499545
   O      13.699470      19.731455      14.519593
   O       1.212524      12.257130      13.505557
   O       5.738140      28.323403      16.944167
   O      17.564671       5.210862      23.903895
   O      13.746491      39.262222      23.155197
   O       7.202677      11.856153      11.639839
   O       6.062055      45.475130      20.763538
   O       7.757495      11.002022       6.238116
   O      20.748432       2.807717      13.089249
   O       1.665610      10.453155       5.587285
   O      13.572797      16.187227       3.361724
   O      49.669585      23.995866       8.406704
   O      10.861618      20.522495      21.074763
   O      27.967349       9.517337       1.935484
   O      22.155871      17.168694       7.476380
   O      47.163948       7.568322      22.137880
   O      12.871029       5.270379      17.917199
   O      23.244019       9.972413       5.290766
   O       5.676395       0.522132      30.972889
   O      24.661563      18.218843       7.580566
   O      11.376750      13.647942       9.002429
   O       0.444553       7.021517       7.880187
   O      16.460569      19.321896      10.904601
   O      11.358977       9.165341      14.814224
   O       7.162462       9.353762      18.566024
   O      10.710614      19.067886       0.815326
   O       3.112219      26.061102      18.414238
   O       3.237715      18.349200       2.810637
   O      24.174556       7.510874       2.804052
   O      14.350723      17.983170       8.414925
   O      14.898040      22.464011       7.551658
   O      18.478681      49.362733       0.203881
   O       8.254986       3.136625       7.701383
   O       5.254146      13.805762      22.556159
   O      13.467184      45.441023       8.504129
   O      15.699002      10.799031       2.511312
   O      16.663218       6.954437      46.758672
   O      19.559425      10.311581      18.139315
   O       7.732534       8.699743      43.725208
   O       2.849081      45.483332       9.617276
   O      18.526743       5.606754      14.217199
   O       3.522726      10.276384      45.868113
   O      14.001450      12.158357       4.126332
   O      15.453488      10.732315      19.901450
   O       9.012163      14.408326       1.607294
   O       3.968996      19.122407      14.500201
   O      16.690510       0.618228      17.962159
   O      11.402209       9.929925      21.487447
   O      25.727654       8.240510      11.268858
   O      15.281391       9.519797      10.884387
   O      16.129813       7.040169       9.913767
   O      14.422318      25.549221       6.716166
   O      46.766946      13.504625       2.095667
   O      49.012812      21.325296      21.057069
   O       9.019768      12.602651       9.676384
   O       5.050309      21.945358       2.046178
   O      47.983629      27.028203       8.102540
   O      49.235079      18.867437      14.346703
   O       6.136474      12.592020      19.226802
   O      15.303327       7.136061      14.710694
   O      18.706994      16.751845      49.030391
   O      17.749300      23.234580      13.750945
   O       7.557746       3.771263      18.723673
   O       7.695153       3.164727      27.166210
   O      24.086752       6.022043      11.581576
   O       5.860899       6.479361      16.497743
   O      17.738556      17.965533       6.891040
   O       4.308442       2.209746       9.820517
   O       3.964666      14.859499       8.243912
   O       6.641213      22.624413      13.992088
   O      27.593835      11.648364      14.813213
   O      18.568974       2.387837      18.418582
   O       1.349839      19.295099       6.663765
   O      19.787642       3.341908       7.779683
   O      25.989328       4.296649      11.070327
   O      20.468532      19.957164      30.477654
   O       9.488489      18.959509      46.506824
   O      20.531827       2.467440      16.710970
   O      13.296688       5.874836      49.392870
   O      49.521179       1.748487      27.403721
   O      17.122537      28.755986       3.813139
   O      22.412249       3.470606       8.718950
   O      21.810530      20.355544       7.780678
   O      47.564457       4.075716      19.031193
   O       9.129456      27.531745      10.002417
   O       2.504667       8.929430      20.121359
   O      11.526629      21.500540      15.211026
   O      48.902852       2.640767      24.889402
   O      17.322589       1.495717      26.310317
   O      47.045658      12.986863      17.660063
   O      19.026136       1.509241      14.811619
   O      17.023150      20.221456       8.256494
   O      13.870141       1.158142      24.879950
   O       6.312065       6.302968      20.106675
   O      19.308330      16.320738      20.422290
   O      18.725652      11.529208      22.264043
   O       6.668457       6.365330      13.279091
   O      20.005080      18.320281      13.449422
   O       5.343935      11.840748       0.660339
   O      11.830893       9.987304      48.199137
   O      20.578880       8.023956      20.966293
   O      22.510819       4.250442       4.355276
   O       3.220600      15.001573       0.329120
   O       1.410818      13.083583       4.531679
   O      10.885822      26.573648       7.476839
   O       0.151828      21.372393       2.905544
   O      11.783103       8.677371      19.161228
   O      10.844629      29.621965      11.433225
   O      21.007747      24.321460      21.404198
   O       9.628356       7.254404      48.553755
   O       0.677316      21.492665      12.104985
   O      22.831404      15.248350       1.955193
   O      12.760996      11.205735      12.940132
   O      47.907402       8.061998      18.501706
   O      24.381918      19.631888      21.540989
   O      24.456853      14.812275       9.114758
   O       8.836420      25.019833      24.606352
   O      15.523139      12.515939       0.569369
   O       9.387186      17.452866       9.390590
   O      14.975756      16.779960      12.523997
   O      17.873536      19.252334       0.700143
   O      11.961024      18.496985      12.554055
   O      23.248116      18.453523      49.270914
   O      13.453547      15.594303      20.219501
   O      14.098740      13.557354      15.069436
   O      13.504977       7.164394      11.972142
   O      19.051646       8.579233      14.221419
   O      21.053996      49.591216      19.938493
   O      15.402105      24.520385      13.686939
   O      10.059234       2.627765      22.977171
   O       1.540003      22.459643      18.674861
   O      23.817097      18.596196      25.064065
   O      11.972842      49.178210      13.703081
   O      10.581307      12.137029      49.583504
   O       6.671497      24.936687      12.730728
   O      11.300893      13.187069       3.786088
   O       4.902260      11.061781      28.702021
   O       7.602732       6.114755       5.600376
   O      47.901597      17.419129      17.557803
   O      21.594681      48.116243      15.938437
   O       2.282264      16.105027       3.744853
   O      19.012603      10.959963       5.794429
   O      48.145948      18.439721       0.596062
   O      45.441317      11.058426       8.804750
   O      11.937243       3.528679       9.579616
   O      18.730816      21.851056      20.488211
   O       7.520424       5.487337       9.264658
   O      14.776984      14.036024      28.147772
   O      11.193630      12.482087       6.456328
   O      13.210535       7.792998      24.366356
   O      17.784892       6.846978      20.954749
   O       2.732604       2.921864      22.631604
   O       3.698536       9.606693      14.273873
   O      16.912319      15.280217       9.068689
   O      21.022088      14.464636       0.035741
   O      15.367068      47.813710       6.408039
   O      13.698641       5.258662      22.607730
   O       8.921843      11.524655      22.504566
   O       2.060302      20.368473       4.307127
   O      22.334919       4.610717      21.831221
   O       1.308834      15.068963      15.055628
   O      22.181971       8.126510      25.418016
   O      23.170389       7.113478       6.232160
   O       5.130158      23.681898      19.640733
   O       0.610373      10.684243      19.330294
   O      12.389184       5.646117       5.346301
   O      28.253825      22.560543      25.341972
   O      15.661752       1.880202      45.681207
   O      15.138526       1.633997       3.011656
   O      14.173966      20.016245       6.631773
   O       1.834773      22.685696       9.698884
   O       6.509687      27.115814       9.122712
   O      12.740716      23.780705      12.796586
   O       2.216423       0.867076      14.469631
   O      13.301188       2.556671      17.303177
   O      23.935629       6.589250      15.819773
   O      19.861080       7.368499       8.191129
   O      15.230059       8.311279       1.684362
   O      21.145619       9.854636      27.593178
   O      21.485003      17.003750       4.542650
   O      19.075134      23.169623       8.008728
   O      15.764721       9.864544      14.962769
   O      45.067696       7.802621      18.481488
   O      14.614693       2.448590       5.926570
   O      22.464418      15.493838      20.118652
   O       3.527910       1.362356       3.491126
   O       2.467463       9.949369      24.737588
   O      10.357596      17.303725      22.405094
   O      10.977664      24.434496       8.975170
   O       0.983635       8.999308      12.178246
   O      17.329651       2.440139       4.737454
   O      10.003736      11.111441       2.385562
   O       7.531162      47.859719      11.227579
   O      17.953982       4.987884       9.171114
   O      10.036890       4.192855      17.273184
   O      49.211468       9.342116      16.303970
   O      19.193532      48.883289      17.979818
   O      24.937315      19.531472      16.137631
   O      12.515620       8.446217       1.647433
   O      49.515143      23.052415       0.500398
   O      17.360508      14.063005      22.443326
   O      21.940703      16.451656      47.905390
   O       6.096757      12.334883      16.496801
   O       4.671515       4.261377      14.802578
   O      10.876193      47.209281      15.105675
   O      12.958967       0.213399       9.426178
   O       2.755725      20.079721      22.033321
   O      47.083419      10.217375      21.314719
   O      20.720738       9.977592       4.242934
   O       4.030413      13.791163       5.586926
   O      14.748171       6.638319      18.966968
   O      12.215466       2.480856       0.222066
   O      18.361584      11.621510       3.180156
   O      11.690995       1.381626      20.688182
   O      44.819974      10.090861      14.432149
   O       5.847939       2.785453      25.127437
   O       8.098267      14.989967       8.922077
   O      10.199297      15.903008      14.573654
   O      12.818231      17.900414      49.388369
   O      39.252137      10.948242      17.947965
   O      14.761348       9.898342      25.547673
   O      49.585380      48.915877      49.066923
   O      21.013843      10.854817      24.021023
   O       8.828175      21.560646      15.823076
   O      20.798380      12.541167      18.906015
   O      25.045187      26.278963      18.568940
   O       0.696356      19.162955      20.746102
   O      22.179075      17.962717      11.730552
   O       0.983800       7.308435      15.125342
   O      45.564492      11.557443      11.395245
   O      11.722968       3.946466      21.269334
   O       9.804285       4.106101       1.413738
   O       7.804517      12.176497       0.001348
   O      15.346389      13.437375      10.846703
   O       3.326007      17.313020       6.849814
   O      16.843192       8.695295      17.597821
   O       4.468399      11.212281      22.917414
   O       6.301519      14.185324      12.504904
   O      12.187042      23.590269      18.990623
   O       2.151699       5.336666      17.324338
   O       8.465556      17.508823      20.502376
   O       3.634216       6.696808      19.451861
   O       6.474694      19.345968      13.904164
   O      12.767044      21.861880       1.658785
   O      21.808512      10.535720      21.012412
   O      20.621807      10.782321      12.905504
   O       8.558256       6.460147      16.483797
   O       3.556017      49.154071       8.672649
   O      13.855021       6.648353       8.111470
   O       9.791418      19.356954      11.172973
   O      11.557638       8.141250       6.717966
   O       5.198787      15.092110      18.693585
   O       3.392116      14.097803      13.217127
   O      20.786403      12.344069      26.797208
   O       3.035974      14.303864      25.936546
   O      13.720406      19.501973      10.734473
   O       0.009204       6.667102      19.895551
   O      21.240966      20.703419      14.161267
   O      13.190105      12.080016      10.386309
   O      45.786789      19.403856       5.065342
   O       6.305105      13.171169      25.977515
   O       8.056710      10.854358      14.392242
   O       3.101903       7.765886       8.191629
   O      18.246268      13.367012      14.461096
   O       6.190229       8.761726      10.444243
   O      14.446981      28.442334      13.548317
   O      13.005410       0.201064       3.904522
   O      10.569464      14.371488      12.372335
   O      10.013210      15.986083      45.190715
   O      21.688478      14.866602       8.608427
   O      45.703355       1.318728      15.073690
   O       3.647713      16.680706      45.027301
   O       2.777892      17.169209      12.798204
   O      15.324604       7.832485      21.557532
   O      20.511846      14.578657      25.380220
   O       9.822237      19.694776       3.174405
   O      16.935860       6.912193      12.536206
   O      22.139932      49.005375      27.421388
   O       8.840840       6.663214      11.630260
   O      10.047247      28.002215       4.246801
   O      17.291273       6.285038      16.275248
   O      15.441496      43.245978      10.320374
   O      17.428911       4.849709      18.568485
   O      18.394461      19.141782      23.920556
   O      25.293012      14.273035       6.408750
   O      11.110873      21.291251      39.203441
   O       5.161674      12.035947      34.184413
   O      20.953909      10.916900      40.937852
   O      10.448811      17.491876      36.069794
   O       7.015989      13.640826      41.366010
   O       0.145106      12.984939      32.795239
   O      15.309874      11.420391      34.176027
   O       9.354634       9.389171      46.620005
   O      19.221755       0.466696      28.498435
   O      17.665152       2.291999       0.490386
   O      14.898758       5.274894      27.443579
   O      19.543869       7.933020      35.089261
   O       2.503713       7.777724      22.953996
   O       8.014078      22.120567      44.443668
   O      22.422760      27.636302      42.081901
   O       3.925821      14.413906      28.732392
   O       8.464183      21.466246      23.297481
   O      16.526762       9.627702      38.939814
   O      10.877800       2.238014      39.336634
   O       2.182959       9.564916      31.246710
   O       7.805010      14.221150      28.638657
   O      10.055280      10.055774      32.105260
   O       5.492234      16.805686      38.498911
   O       8.970419      11.031839      41.000043
   O      11.690109       6.673003      44.159822
   O      21.655696       2.869406      37.564684
   O       6.522306      17.574542      42.643777
   O      10.922263      16.691049      33.583178
   O      15.883465      18.581222      44.861536
   O      20.054378       9.154660      45.633755
   O       4.393139      24.615256      21.816527
   O       7.860447      17.755777      26.381132
   O      11.684111      11.092750      42.780414
   O      23.022698       9.194038      15.783092
   O       4.703851       5.817723      29.471347
   O      19.464705       8.358622      23.827465
   O      24.344343       9.262352      34.274448
   O      25.734570      21.706596      26.549525
   O      12.320833       3.413273      35.846351
   O       3.611202       3.983997       2.906342
   O      13.959382      24.999705      39.402451
   O       8.091856      14.653634      23.633214
   O      47.800953      18.465619      33.666361
   O       4.150358      13.568966       2.554544
   O      20.494517      23.977399      41.420301
   O       3.764036       5.427168      32.177742
   O      48.052257      49.515044      28.741606
   O      17.702564       0.295078      32.910756
   O      17.970738      16.874681      43.442485
   O      17.177211      15.230639      38.461294
   O      21.237880      19.532032      26.738315
   O      14.197089       2.760797      43.627477
   O      12.479718       4.129968      47.534531
   O      15.601872      13.477541      40.631017
   O       1.052046      21.092761      30.886932
   O       1.217566      17.986323      33.949624
   O      10.399158       5.043158      39.387069
   O      11.527496       3.195469      27.396776
   O       9.827607       3.818828      25.365637
   O       8.226914      46.246573      48.552449
   O      10.516017      12.613822      27.215694
   O      22.590836       3.176420      43.371193
   O       7.094381       0.537470       1.266107
   O       5.069879       7.170756      23.688819
   O       7.849682      48.933120      48.655522
   O      10.055710       6.538619      35.178449
   O      20.756218      45.868995      36.014901
   O      21.201985      17.195494      35.764184
   O      20.318413       2.591156      30.964206
   O      21.122982      16.015486      40.051461
   O      24.915967       0.311928      38.748249
   O       7.173733      19.765811      17.038936
   O       1.171724       9.160560      45.283623
   O       1.522777      10.747284      33.925291