&FORCE_EVAL
  METHOD QS
  &DFT
    BASIS_SET_FILE_NAME GTH_BASIS_SETS
    POTENTIAL_FILE_NAME POTENTIAL
    &MGRID
      CUTOFF 280
      REL_CUTOFF 30
    &END MGRID
    &QS
      EPS_DEFAULT 1.0E-12
      WF_INTERPOLATION PS
      EXTRAPOLATION_ORDER 3
    &END QS
    &SCF
      SCF_GUESS ATOMIC
      &OT ON
        MINIMIZER DIIS
      &END OT

      &PRINT
        &RESTART OFF
        &END
      &END

    # SCF_GUESS        RESTART
    # EPS_SCF      1.0E-7
    &END SCF
    &XC
      &XC_FUNCTIONAL Pade
      &END XC_FUNCTIONAL
    &END XC
  &END DFT
  &SUBSYS
    &CELL
      ABC 39.4680 39.4680 39.4680
    &END CELL
  # 2048 H2O (TIP5P,1bar,300K) a = 39.4680
    &COORD
   O      38.815691       1.990231       7.954609
   O       7.841300       3.261911      10.448196
   O       2.305340      10.008123      17.398133
   O      15.520810       6.489128      11.529075
   O       1.373809       8.269973      15.398998
   O      16.374419      37.566292      19.262767
   O      34.059125      21.917683      16.537452
   O       4.613215       5.729659       7.818247
   O       9.013772      21.282654      14.983759
   O       3.874576       1.208544       3.860996
   O       4.705938      12.815586      11.515600
   O      13.079517      11.373860       7.656819
   O      12.860882       7.898574      14.590739
   O      15.919133      11.005471       0.148427
   O      22.283461      16.659299      21.534156
   O      11.112898      13.648424      17.033532
   O      21.063474      20.962247      15.811853
   O       6.942298      10.934511       6.277288
   O      13.648580      16.379481      15.625204
   O      10.701247       4.997692      38.027080
   O       8.366177       6.924874      24.533174
   O       4.524989       4.337447      13.027338
   O       7.910027      11.058619      11.908610
   O      12.514383       2.032899      18.680099
   O      15.663963      16.257891      35.981988
   O      34.444013      17.037978      16.302251
   O       1.744722      10.304576       5.278876
   O      18.289817      20.608497      16.678423
   O      10.521070      14.152317       7.107174
   O      39.228710      16.459478       9.907721
   O       8.718025      37.118219       1.727806
   O       6.560761      18.773618      12.361233
   O      12.356596       9.141910      17.240855
   O      11.415086       3.886521      35.657336
   O       6.035456      16.631304       7.393298
   O       2.673402      17.922161       7.670952
   O       8.521828       3.221818      17.233177
   O      13.440730       5.597380       4.109312
   O      12.579605      11.775586      17.986807
   O      17.415923       5.545755       1.436740
   O       5.793581       6.474700      15.258382
   O       9.657580       1.722664       9.116575
   O      16.626033      14.883915      12.228242
   O      36.567333      16.305154       5.701785
   O       2.864655      18.214506      14.276883
   O      32.194294      17.957728       4.532361
   O      12.700209       0.680620       5.473278
   O       1.515309       2.277954      18.450666
   O      15.922377       2.796323       4.436550
   O      10.797648      15.821889      26.122959
   O      18.894039       2.834102       1.743165
   O       4.195666       6.916163      20.639312
   O      34.310958       9.969179       1.603321
   O      13.959663       1.919353      10.394846
   O      12.273352      18.206232       8.498838
   O       8.857341      39.177056      18.672215
   O       5.581796      20.148026       5.026365
   O       9.289206       5.898802      12.846977
   O       3.716526       8.151934       8.674004
   O      11.803442      14.784963      14.680806
   O      18.801951      17.249469      16.468210
   O       9.763877       4.321665       8.447118
   O      37.666173       3.655875      16.645625
   O       4.823336      20.589034      17.869808
   O       9.258234      12.423955       2.100157
   O       2.139175      18.688354      16.712371
   O       3.600584       9.778947      11.168966
   O       6.614147       6.551068      12.252457
   O      13.080274       6.681677      10.616900
   O      17.183406       7.592600      16.601118
   O       4.001687       9.966674       3.126145
   O       9.132345       9.898509       4.444037
   O      10.600685       8.975633      25.320257
   O      13.034188       5.031062       8.489594
   O      12.990351      12.424042      13.547753
   O       1.829344       3.330108       5.174280
   O      12.337567      12.687173      10.974046
   O      18.888179      13.229174       4.361248
   O      10.083789      15.134738      19.762596
   O      22.125371       0.829827       5.408834
   O       7.246722       7.144870      19.558301
   O       1.612972       7.149106      18.210100
   O      11.773026      17.647161      20.865110
   O       9.655546       9.709412      16.971329
   O      20.865867       6.420817      39.268724
   O      11.660474       0.417014      35.991388
   O       7.384576      11.320914       9.012705
   O       8.704462      12.433354      16.442465
   O      14.573838       6.750525       6.697605
   O       9.458683      14.944782       1.195188
   O       2.193274       4.611671       8.973087
   O       1.233141      19.573634      37.955758
   O       0.395599      11.640935       0.669524
   O       8.998401       2.977383      20.522353
   O      15.214684      21.226102       8.924842
   O      12.519231       5.090032       0.486380
   O      11.246115       7.726622      12.439400
   O       8.058292       7.693887       8.189599
   O       1.113861      21.753334       6.086921
   O       1.592204      12.958577       5.623386
   O      20.295535      38.155710       5.074100
   O       6.926069      36.080231      18.894267
   O       2.032838      15.804448       0.887248
   O       9.568665       5.412254      19.847025
   O       5.956159      14.829840      10.065575
   O      39.064097       2.699802      11.950385
   O      38.796871      15.883637      14.083114
   O      10.687437      39.425065       7.182308
   O       9.857599       8.077003      21.572158
   O      14.420333      38.608894      24.814285
   O      13.927275      35.231023      10.727747
   O      11.758232      18.941720       2.098906
   O      12.423925       1.974804      15.173885
   O       6.148012      15.957471      17.540779
   O       2.898781       0.062417      18.312058
   O       9.124074       1.165946       5.131926
   O       4.890110      13.040193       7.101152
   O      15.674701      37.337133      11.387053
   O      37.042530      13.718138       4.794857
   O       6.746946      15.734414      13.688154
   O       5.207330      10.395170      16.986162
   O      11.538138      23.024014      12.414527
   O      20.595945      21.792516       5.655304
   O       0.260260      39.284072      19.702933
   O      38.095476      24.056963       8.525169
   O      15.502515       7.653094      14.050786
   O      38.613822       7.112238      12.442647
   O      17.994074       0.106476       8.909926
   O      18.389862      35.754051      38.441633
   O      12.977576      23.076739       5.158666
   O      18.570544      14.088830       7.108219
   O      16.360495       5.432105      38.209710
   O       9.869652       0.829507      16.503649
   O      19.102345      18.552963      11.896952
   O      14.821645      22.968100      15.041975
   O       2.054516       1.509722      15.505356
   O       5.059893       3.778095      23.304203
   O       1.441533       3.643846      20.923136
   O      12.556543      38.937747      17.414439
   O      15.255645       1.229808      18.399441
   O      10.655924      12.410469       4.502064
   O       9.917856      37.875010      14.472576
   O       2.177018       6.118178       4.653164
   O      18.132900      12.270533      39.067879
   O      17.087447       7.459442       5.904748
   O       3.243962      10.296219       0.602683
   O       5.254837       6.042375      17.867005
   O      21.040159      15.119318      10.768309
   O       7.220476       8.867878      15.835935
   O      14.790625       5.351286      35.844864
   O      34.034806       6.616206       6.010467
   O      10.997810       2.585809      12.736826
   O       7.356542       6.687222      38.151302
   O       5.808246       3.369423       2.914655
   O       0.025125      14.359887       3.882194
   O       8.296620      13.876234       8.888292
   O      10.646241       4.697220      10.964967
   O      37.863861       8.509318       8.999842
   O      11.386185      38.354987       3.376748
   O      10.015429      14.385241      10.839375
   O       4.237019       0.035843      20.992530
   O       4.279094      14.494262      21.101577
   O      13.382053       3.224110       6.101469
   O       8.828045      15.738458      17.394844
   O      14.807503      12.554710       5.960220
   O       5.294464       7.059130       3.018643
   O       4.488803       1.986139      14.207169
   O      38.672233      12.025036      12.187646
   O      15.443189      19.204685       6.837184
   O       1.573549       4.301486      11.454962
   O       4.350205      20.185084      13.027698
   O       7.966246      22.360476      17.208883
   O       1.004333      12.645007      36.553470
   O      12.092511       7.846025       6.067945
   O      36.406872       5.769991      14.129594
   O      15.415174      11.241318      14.131508
   O      15.994301      39.133392      16.383887
   O      12.886406      18.918365      15.936561
   O      16.713161       3.349966      19.414523
   O      25.344626      35.074576       1.344453
   O      21.240429       1.676758      20.818467
   O       5.977267       5.496838       5.067483
   O      12.788736       0.201136      12.352613
   O      17.313843       2.812138      16.376728
   O       2.242047      13.382247      10.392008
   O      12.897941       7.751029      39.334310
   O       7.267901      18.881909       8.852603
   O       8.196982       4.857990       3.438005
   O      38.237560      10.216692      14.311199
   O      39.269157       7.022856      22.466411
   O      20.509314      37.694282       1.476221
   O       4.098711      10.240121      14.157054
   O      17.220470       2.326479      36.190952
   O       0.977288      10.973138       9.602974
   O       2.908165      16.960431       4.950229
   O      17.085789       8.457673      39.353856
   O       8.159378       9.477055      19.431640
   O      10.937797      10.257237      11.210411
   O      13.344394      36.057491      36.687365
   O      10.002757       6.263112       6.681850
   O       5.386393      22.266393       2.700230
   O       5.089990      12.273687      35.813813
   O      18.865920      37.978467      22.328559
   O       5.102069      17.933139       3.685724
   O      11.982267      19.779733      19.078175
   O      20.894677      22.736757      10.280660
   O       3.390442       7.317811      13.055775
   O       5.906688       8.514588       6.738279
   O       5.155091      13.552855      13.978772
   O       6.707211       1.412905      19.512428
   O       6.819871       3.878945      15.560672
   O       6.508122      10.054547       0.951579
   O      15.781944       6.921795       3.272413
   O      23.079445      21.834656       6.975765
   O       3.640447      14.299375       4.522730
   O       0.666078      17.116498      20.427452
   O       2.764795      14.029090      14.835143
   O       7.802095       2.953435      13.140447
   O      10.331226       3.814005       4.819657
   O      19.667729       9.544262       6.072162
   O       1.618700       6.162864      20.773395
   O      10.917316      10.087064       6.568337
   O      10.562392      18.884717      14.849586
   O       4.517539       8.243219      35.138128
   O       8.798890       1.998132       2.482966
   O      10.136573       9.307137       2.039066
   O       1.785849       6.642463       2.141189
   O       1.065963      14.026845      12.825541
   O      10.339340       4.445711      14.987971
   O       5.299154      17.389397      15.303546
   O      13.549417       9.779608       9.782436
   O      11.197717      21.384509      10.341754
   O      12.164933      11.204637      36.841185
   O       7.027895      38.057208      21.123948
   O       5.377496       9.452988      38.053715
   O       2.926817      22.682232      14.733806
   O      12.761021       8.570417      21.759597
   O       5.915949       9.089150      12.098244
   O       3.488126      11.790635      20.803468
   O      12.077081       7.877190       3.349616
   O       1.124343      16.835028       3.028724
   O      14.345787       9.081007       2.152253
   O      21.385971       9.308100       3.493292
   O      13.139115      11.461223       3.416554
   O      10.001678       5.499175      22.912505
   O      10.029890      36.898341       5.451846
   O       9.439056       9.824512       8.760708
   O       6.636853      11.600654       3.200831
   O      11.939445      16.617896       0.114155
   O      39.377347      10.903916       3.319311
   O       9.806173      39.404404      22.581610
   O       8.748265       4.178498       0.446396
   O      36.461802       0.952267      17.300341
   O       5.687702      23.089114      19.747092
   O       9.844095      18.828948      10.286187
   O      11.452119       4.445000      17.864548
   O       1.850965      38.620249      30.188249
   O       6.758321       9.167259      24.399642
   O       9.432849      16.247127      36.172862
   O      23.847737       2.454355      25.361962
   O       3.971809      14.238716      34.155637
   O      10.280218       8.415986      35.078837
   O       3.412967      12.734311      38.130199
   O      38.384155      13.299482      25.809532
   O      17.195592      16.406725      29.320825
   O       7.288126      30.506267      22.001474
   O      11.840812      14.621880      32.221951
   O      15.730426      24.535448      30.439289
   O      20.195554      15.572032      33.927179
   O      14.981016      19.403173      18.502872
   O      18.133428      18.198208      36.571212
   O      14.658446      12.438270      36.197672
   O      17.879760      15.570545       3.679114
   O       9.009771      15.566976      29.149145
   O      14.629623      14.571842      37.787999
   O      12.392176      11.338426      26.612450
   O       3.148188       6.866805      37.007527
   O       3.835814       4.834488      32.209227
   O      16.498669      17.207375      33.309370
   O       8.767476       7.533888      30.114023
   O      18.451376      12.553327      17.923105
   O       3.766319      20.384466      33.459825
   O       1.170524       5.431484      26.424520
   O      13.479523      15.878550      34.327207
   O      11.497695      13.240598      30.091049
   O      36.985238      15.634515      22.912885
   O       2.857488       2.285250      29.091271
   O      10.773669      20.862256      24.766637
   O      11.040038      11.715082      34.421303
   O      13.427047       2.475386      21.739063
   O       3.672610       9.421677      27.309947
   O       7.392413      15.166210      23.713106
   O      10.651430       5.168459      27.057233
   O      21.016984      13.012029      18.841924
   O      17.374906      11.387236       2.676418
   O      11.029222       7.962015      32.449259
   O       7.940654       7.518167      33.172649
   O      12.648445       5.501502      24.003640
   O      19.662285      19.843158       1.345071
   O       2.454682      13.069727      28.232231
   O       8.100255      11.792255      38.714031
   O       0.228650      17.891713      25.224993
   O      17.298672       0.876677      25.784723
   O       1.465940       3.816107      31.018107
   O       7.279333      12.024931      23.217419
   O      11.131051      16.877342       3.929839
   O      19.591324      35.889709      27.511749
   O       7.552482       3.333126      34.332622
   O       4.154309       6.369405      23.690337
   O      14.783791       6.907784      30.573139
   O      16.927606      23.143939      32.527710
   O      19.635459       1.050955      34.702222
   O      36.612442      14.752810      27.128154
   O       7.010934      13.881158      34.131302
   O       2.793630      16.389265      22.527496
   O      19.963622      18.736230      34.166535
   O      12.397651      20.063150       5.875403
   O      21.848772       3.079454      27.335400
   O      37.302392      39.113153      24.665340
   O      11.737402      16.765293      30.558548
   O      12.257844      15.126401      21.842690
   O       1.793173      19.441600      34.968927
   O      11.960547      15.012368      37.483235
   O       3.421792      11.339192      32.411981
   O      23.120597      14.461351      27.363064
   O      18.133667       9.277509      35.385586
   O       6.502330      11.312327      20.565076
   O      11.012749       8.923888      28.086882
   O       7.862629       7.750037       1.207679
   O      16.125346      10.550393      31.423886
   O      21.357211      15.867208      37.077121
   O       5.582982      35.188491      25.045496
   O      18.979116      11.778725      34.802139
   O      14.603456      12.741705      23.515857
   O       9.659945      17.645601      28.055359
   O      16.161176       7.418405      24.165399
   O       5.371748       2.574233      35.728983
   O       0.642254      10.197050      35.437142
   O      10.446514      21.918524      35.166049
   O       4.210600      17.095762      30.757379
   O      16.741199       0.345396      22.699149
   O      19.956725       1.671028      25.199452
   O      12.153237      15.107327      28.109666
   O       5.961791      16.244874      38.421290
   O      13.255314      10.008682      24.338212
   O       5.055048       9.002187      22.058582
   O      38.744986       7.933271      28.757831
   O      33.916364      15.448245      22.695833
   O      35.554168      21.852229      11.202812
   O       6.963218      10.334691      32.728354
   O      22.720968      24.254483      21.294202
   O       7.216846       2.053503      22.276258
   O       2.978919      11.236757      25.555709
   O       3.709329       9.396701      30.034178
   O      31.857053      22.966423      29.930454
   O      16.722678      16.293113      22.250076
   O      15.130781       2.920973      25.816390
   O      12.426495       3.615066       2.625875
   O      39.374728      18.454425      13.431854
   O      12.994094      11.097277      32.748626
   O      15.213538      18.004305       0.432096
   O       3.555782      37.588951      33.277813
   O       4.839081      16.761619      35.943461
   O      15.585757       5.065087      28.791063
   O       8.330523      14.838457      38.363456
   O      21.566058      10.989200       0.757981
   O      21.124224       6.744689      29.162811
   O      17.454298      19.771290      19.464526
   O      10.688736       9.395244      38.828032
   O      11.147865      12.823338      38.846776
   O       4.122137       4.992807       1.364154
   O      17.595594       6.643373      27.230487
   O      12.185272      14.289668      24.334776
   O      19.146531       4.669281      30.583877
   O       1.313206       5.274282      23.891548
   O       4.236612      18.116387      24.373719
   O       5.840253      12.603482      31.927296
   O      13.651021      19.873744      33.889999
   O       9.984513      22.044505      27.814551
   O       2.145215       2.105163      37.485540
   O       0.494919      17.291322      29.858218
   O       5.706095      13.939096      29.551448
   O       8.289290      14.623701      31.629617
   O      25.145958       8.840001      29.067829
   O      14.104090      35.485261      21.257795
   O      16.366948      18.691941      23.532651
   O      18.365417      10.100752      18.881915
   O      14.896706       0.378798      20.940257
   O      16.973191       4.931573      34.262768
   O      22.364804      17.270115      28.944653
   O      19.018106      16.443375      31.594327
   O      10.317493       0.136131       1.250992
   O      36.467907      12.734899      39.369893
   O      34.950791       6.561524       2.945047
   O      18.869069       4.575748      38.304477
   O      15.667279      10.082902      36.753383
   O      19.059131      15.766401      21.230165
   O      14.606658       3.136988      39.235824
   O       5.399874       5.687602      30.085964
   O      13.217167       5.946621      26.689656
   O      15.823217      13.959378      33.629507
   O       3.343129      14.758652      31.113814
   O      38.682037      10.293266      33.031917
   O      22.385330      12.206872      30.786713
   O       9.468495      10.409837      32.372750
   O       9.905186       3.857831      31.769124
   O       3.108904      34.272338      21.851831
   O      20.268870       5.249362      26.943850
   O       7.481514      14.784584      26.348278
   O      13.087467       3.358218      27.974539
   O      38.008097      10.434975      29.109054
   O      16.183036      19.000864      30.405948
   O      12.200652       6.261608      30.412975
   O       0.536029      12.443286      32.216077
   O      14.025649       9.275811      29.088685
   O      11.875374      10.666871      30.134147
   O      38.819484       1.311988      37.565622
   O      11.976098      22.161583      32.683126
   O      15.695968       7.347382      32.939286
   O       8.367141      18.354454      34.567525
   O      15.182464       4.762517      23.793188
   O       7.234335      39.461542      24.301543
   O      11.119282       1.400272      26.167893
   O       0.447391      16.564607      32.387165
   O      17.505131      18.466043      25.854319
   O      38.468084       6.572883      33.468242
   O      39.325990      15.297792      24.265962
   O       5.322733      19.695445      21.883397
   O       7.703049       4.745036      27.219679
   O       8.752036       5.102094      29.684208
   O      36.275810       5.686238      35.314007
   O      22.144242      15.391144       5.644317
   O      14.902277       1.071326      35.116901
   O      16.484945      15.620971       1.287412
   O      19.574121       3.712975      35.893378
   O      24.100544      37.254100      24.188318
   O      23.656502       3.203236      38.747858
   O       6.418544       3.266080      29.796822
   O      13.421354       8.645265      33.605839
   O      13.934732       7.865058      36.205796
   O       0.636384      14.260045      30.081652
   O       9.858736      12.356207      25.055398
   O       4.729790      13.106356      23.839046
   O      14.487619       8.431974      26.254833
   O       0.425960      17.001668      35.078544
   O       3.269812      10.388988      34.764954
   O      23.591671      39.463500      22.623084
   O       7.028215      18.257865      31.587796
   O      13.756433      38.065581      27.317970
   O      34.974294      10.449247      30.978410
   O       1.265707      13.681989      22.012532
   O      18.331646       2.257698      21.317165
   O       0.606227       7.092300      35.804340
   O      16.965203      14.021771      23.846015
   O      21.067802      34.407628      30.981354
   O      37.221415       3.030520      24.493369
   O      13.994292      17.851158      31.601547
   O      10.041017      10.932261      22.349526
   O      17.291407       1.503291      39.090153
   O       9.153376      19.005719      21.001266
   O       8.224761      19.462200       3.717225
   O      19.432051      17.768231      27.958237
   O       5.718438       6.166254      33.622977
   O       2.899737      10.376141      22.851961
   O       6.194968      12.503388      27.309089
   O       6.923125       9.840668      35.292946
   O       7.461789      39.464200      38.467831
   O       7.014811      11.553548      14.408113
   O      14.443854      13.474865      20.132037
   O      14.153385      21.472056      27.937994
   O      37.783349       7.070960      18.288667
   O       5.119438      18.912300      38.698099
   O       5.617971      18.559223      34.008940
   O       5.090002       1.835586      27.598542
   O       4.631213       1.347135      30.891555
   O      15.117178      13.114323      31.102327
   O       3.230280       7.741569       0.158219
   O      13.767810      14.290644      17.477876
   O      10.218871      19.744084      36.832921
   O      36.620483       6.540329      24.616609
   O       4.352401      36.820829      18.878542
   O      10.407344      11.735183      19.920135
   O       3.433466       7.008715      26.211132
   O       3.660576      15.458946      27.859168
   O       6.173926       8.649034      30.787764
   O       9.882126      13.806082      22.449185
   O      19.777499      13.053507      23.349827
   O      14.087310      24.544551      34.135510
   O      15.912593       8.149120      18.905886
   O       2.303143      37.794363      36.888728
   O      10.902561       2.644063      22.598003
   O      39.010570      21.758004      24.769271
   O       8.671427       8.748938      37.195652
   O       6.445505       9.059247      26.991918
   O      38.371089       9.750796      38.531494
   O       5.915666       6.606974      27.630522
   O       8.613884      18.504750      16.687052
   O      15.333524      10.777672      17.945853
   O      18.422814      15.118817      26.601717
   O      12.260843       3.666574      30.607086
   O       8.171737       7.291150       4.515657
   O       1.023850       0.748903      28.202406
   O       8.998205      12.151350      30.005325
   O       8.639032      11.178427      27.497991
   O      39.141982      17.723961      17.779051
   O       7.465117      17.840584      22.950473
   O      17.054522       3.074695      29.783028
   O      14.239170      35.669236      24.363079
   O       5.670068      33.702740      31.922371
   O       7.709564      22.147326      34.230610
   O       9.831832      14.463018      34.146840
   O      15.097035      15.937814      27.255147
   O      38.753033      19.702296       6.645145
   O       2.753485      22.307330       9.852213
   O      13.914783      29.574185      16.347518
   O      23.034973      26.243989      11.934642
   O       3.797411      34.429863      17.502051
   O      20.392903      25.198053      17.531049
   O      11.098416       0.422489      20.275690
   O       3.016941      26.623296       2.338881
   O      16.569474      34.153788      14.093674
   O       2.391242      17.123670      10.200280
   O       6.337152      25.400136       5.104840
   O      19.681857      35.981369       3.421362
   O      16.566549      29.110686      10.071614
   O      18.655422       0.588045      31.631029
   O      24.061885      30.838942      21.420469
   O      16.224615      32.535562      20.485386
   O      18.394586      37.594950      15.143546
   O       0.570970      34.192255       7.693218
   O      17.348786      30.323597      14.498998
   O       8.895603      24.956324      10.059384
   O      11.043334      32.421509      17.015399
   O       2.129060      21.129188      17.851839
   O      11.165313      36.029866       1.917601
   O      12.940050      21.088043      13.785178
   O      16.900265      20.255712       1.060939
   O      38.303479      34.162495      13.660507
   O      37.696145      28.577505       2.230202
   O      16.107159      36.757901      13.945451
   O      11.970611      37.490913      10.903895
   O      38.355842      37.445629       9.360757
   O       7.749085      19.470753      38.605729
   O       8.811633       0.077480      12.614040
   O      11.091867      29.574996      12.851548
   O       7.868010      29.188864       3.884355
   O      35.776408      36.047187       2.674963
   O       3.172093      35.034417       6.349669
   O       9.842425      27.764919      18.605311
   O      17.360863      30.019477       1.967510
   O      23.050455      26.984338      20.344693
   O      13.737412      24.656750      12.125272
   O       0.429192      22.334839      14.384133
   O      13.375063      19.641696      10.687915
   O      16.471838       2.083806      13.025918
   O      36.013467      37.607067       6.296889
   O       7.703025      37.490284      16.757692
   O      36.501042       0.754690       7.136053
   O      15.697260      17.461292      11.665253
   O       6.371958      19.832767      15.814756
   O      12.539803      24.860492      38.670471
   O       9.618502      38.878907      25.382082
   O       8.851933      21.485043       2.074254
   O       6.553785      31.247255      19.617520
   O       2.510162      28.026568      36.470315
   O      16.981493      19.500658      13.323279
   O      19.280002       0.219567       2.950393
   O       7.182413      25.192529      19.086785
   O       2.651658      36.747319      10.316050
   O       7.731735      32.102207       8.980216
   O       3.201792      36.827307       3.232499
   O      20.548797      35.593343      15.720730
   O      14.877005      35.367837      17.621695
   O       7.414793      24.207614      15.371576
   O       5.260206      23.111373      10.169943
   O      11.283359      32.064742      13.823390
   O       6.375986      30.762399       0.746492
   O       3.240529      39.348161      23.594982
   O       0.953750      27.078700       9.022653
   O       3.655316      25.440352       4.767760
   O      19.968859      33.761462      12.001425
   O      21.722510      31.029130      16.908300
   O       3.174734      26.724947       6.993151
   O      10.411218      30.858485       7.711625
   O      19.146161      30.624469      16.748083
   O       9.063854      34.518387       8.464068