&FORCE_EVAL
  METHOD QS
  &DFT
    BASIS_SET_FILE_NAME GTH_BASIS_SETS
    POTENTIAL_FILE_NAME POTENTIAL
    &MGRID
      CUTOFF 280
      REL_CUTOFF 30
    &END MGRID
    &QS
      EPS_DEFAULT 1.0E-12
      WF_INTERPOLATION PS 
      EXTRAPOLATION_ORDER 3
    &END QS
    &SCF
      SCF_GUESS ATOMIC
      &OT ON
        MINIMIZER DIIS
      &END OT

      &PRINT
        &RESTART OFF
        &END
      &END

    # SCF_GUESS        RESTART
    # EPS_SCF      1.0E-7
    &END SCF
    &XC
      &XC_FUNCTIONAL Pade
      &END XC_FUNCTIONAL
    &END XC
  &END DFT
  &SUBSYS
    &CELL
      ABC 62.6500 62.6500 62.6500
    &END CELL
  # 8192 H2O (TIP5P,1bar,300K) a = 62.6500
    &COORD
   O       8.435983       5.359485       9.096302
   O      11.617847      13.597616      17.333641
   O      21.909899      16.536675      13.911658
   O       0.007628      13.213139      62.080296
   O      10.676059       8.759600      55.033774
   O       9.637011      12.384124       5.495985
   O      13.040182      61.898957       1.386601
   O      10.378116      16.510038       8.767878
   O      13.856892      18.032771       5.569039
   O       7.198096      62.346584      11.026679
   O       6.400790       9.567503      20.098680
   O      10.839897       0.902740      61.649435
   O      10.253187       2.405696      29.442199
   O      61.031310      10.072477      19.259625
   O      59.821788      12.305008      62.174261
   O       8.424523       3.819266       6.689985
   O      11.194084      14.515996       6.789045
   O       9.228044       6.981772      12.427746
   O       2.089638      14.508750      10.767320
   O       6.498269      16.679758      11.987709
   O       5.451690      13.420484      19.622566
   O       6.185001      11.552781       6.250623
   O      11.090527       9.283657      10.890430
   O       8.829406       9.076900      17.503767
   O       8.346000      13.519430      17.372834
   O       2.224849       4.499568       6.799793
   O      13.926766      19.742551      20.709827
   O       5.549080      11.665963      12.542871
   O       4.066348       4.784207       1.498949
   O       7.379294      36.552404       3.530434
   O      13.873255      10.917655       9.193093
   O       4.103557       1.079223      29.968858
   O       8.604281       9.172860       1.187409
   O      16.685141       4.802630      12.061454
   O       2.743051      15.979554       8.642617
   O      10.840084      59.119301      44.549858
   O      14.886731      15.690916      28.779032
   O      59.684829      18.107184      13.332177
   O      13.254781       5.809000       8.843657
   O       6.423822      10.346665      14.734710
   O      30.891667      17.768175      17.510171
   O       4.499792      61.442450      11.135259
   O      26.699867       8.567982       2.789311
   O      13.110561      30.442936      59.913752
   O       3.020037      18.632179      13.815314
   O       9.711927      14.080909      13.341188
   O      61.056359       7.991304       5.653235
   O      10.845031      60.837269      61.944277
   O      18.192138       5.807081       8.511486
   O      14.624659       1.458977      60.078487
   O      10.986852      16.392021      13.556120
   O      19.251174      13.400395      17.120939
   O       6.510977       7.839721       2.346155
   O      17.757912      14.699717       5.908526
   O      12.500091      31.838658      34.452414
   O       4.814026       8.186293      11.440235
   O       0.563119      29.798060       7.012922
   O      57.777820      31.082063      32.600227
   O      32.985866      10.436639       6.480374
   O       5.731453      12.409332       9.726735
   O      14.597714       3.879668       7.868711
   O      14.136271       4.999694       4.773093
   O       9.531895      14.706443      10.669038
   O       4.885686      34.600147      20.109021
   O      11.823598       9.625781      15.440998
   O       0.414917      13.211836       8.481765
   O       1.573860       7.069148      10.110103
   O       5.009126       9.052826      27.663712
   O       9.113492      11.355709      15.930075
   O       9.904070       2.924621      18.291490
   O      31.213077      10.596374       2.852064
   O       0.662999       4.606701       3.753400
   O      11.872277      12.113637      11.881438
   O       2.841683      12.040879      13.906369
   O      15.526904      59.272740       2.909653
   O      15.449360       7.312053       5.386905
   O       2.626883      34.809107       8.929324
   O      15.977880      19.079447       8.050450
   O      12.823659      21.988776       8.209785
   O       3.606179      12.815522      16.530533
   O      29.571401       3.268850       3.791622
   O       9.000575      37.588233       5.771926
   O      12.673440       4.674335      16.911724
   O       7.443011      10.436133       8.338166
   O       1.611720      31.267943      60.899392
   O       9.920014      13.694932      58.433102
   O       5.591061      12.928444       2.010589
   O       4.189146       7.241436      15.261451
   O      10.468427       9.328715       3.105214
   O       9.400632      17.534668      20.149681
   O       9.251526      26.861026       4.489970
   O      59.011259       5.047309      36.140812
   O       9.823362      31.835968       6.147481
   O       6.911408      16.157178       7.469728
   O       3.218687       4.677259       9.314573
   O      61.897160       1.376325      23.985748
   O       0.085333      12.548093      12.029102
   O       8.391884      23.785023      12.191467
   O       4.573849      19.536516       5.679544
   O      11.646259       1.492063       5.948194
   O       5.430464      11.508312      23.548015
   O      11.604009       7.373789       7.445864
   O       3.899128       8.481396       2.034077
   O       8.238018      20.423463      18.879244
   O      14.059092      13.966068       7.659880
   O      16.702361      14.628612       8.277505
   O       4.089418      21.417505      19.533797
   O       0.187302      18.360116      14.996348
   O       9.171423      16.133823      17.417470
   O       9.247605       1.228719       7.083388
   O       6.769166      19.709937      12.334076
   O      18.407122       2.544664      17.547363
   O      30.693002      17.015876       5.972300
   O       0.653305      15.054116       4.821893
   O      10.353311       0.195064       1.774870
   O       6.901031      14.691164       9.973865
   O       2.029235       7.460277      12.778230
   O       9.168145       9.448287       5.891727
   O       8.147596       3.376530      33.694282
   O      20.206907      17.140095      10.952608
   O       7.650577       7.880581       7.783413
   O      11.095920      10.897589      18.772599
   O       7.218664      11.037039       3.325078
   O      10.191975      18.549557      17.687706
   O       6.073924       4.341346      10.476045
   O       5.759381      20.028631       9.523101
   O       3.454382      23.826809      13.587674
   O       7.678293      14.958546      19.863431
   O      26.498137      10.581218      26.184064
   O       8.989080       2.005127      24.767360
   O       3.908888      16.091768      61.405188
   O      10.142881      12.541330      21.713221
   O      12.700657       5.885305      14.476314
   O       0.904008       0.744265      21.642712
   O       2.344839       7.557110      32.610899
   O       1.500125      16.650327      20.801378
   O      16.457751      25.530638      29.064581
   O       7.197495       1.223305      23.098073
   O       6.852202      31.158547      27.834744
   O       7.520878      19.129431      28.339357
   O       5.430331      19.221155      14.900765
   O       1.188166       9.414263      30.496788
   O      26.965929      14.435009      19.931663
   O      14.811293       1.284496      21.433002
   O       5.608939       8.648925      22.648502
   O       8.185243      28.727516      31.843204
   O       8.075454       4.859628      28.371068
   O       9.571161       9.051767      26.814327
   O      10.882872       8.963260      22.108802
   O       2.077804      10.653535      32.932021
   O      12.379371       3.771910      12.312864
   O      27.472327       4.175246      23.415037
   O      10.688408       5.449209      27.836149
   O      52.571433      32.697477      28.990893
   O      11.988857       9.428309       5.782836
   O      10.976888       3.288313       1.777054
   O       5.066832       4.341556      19.069838
   O       6.250170      33.886894      15.740049
   O      38.035094      10.011697      26.597975
   O       3.534940       8.541539      20.293402
   O      13.797693      16.785636      19.656293
   O      14.405222      29.193408      24.856529
   O      35.471811       9.962420       5.187322
   O       4.013660      26.547857      29.792110
   O      14.278715       8.848759      16.813985
   O       6.726456      29.830129      25.304299
   O       9.494482       4.182136      20.901425
   O       5.079243       6.838696       7.422699
   O       6.003545      11.346570      17.435303
   O      61.158371      62.085114      21.331681
   O      23.752501      10.192487      26.040892
   O      11.848432      29.245060      22.092122
   O      13.090553       3.015807      22.568450
   O       2.900461      14.512726       6.338187
   O       2.736693       2.570884      23.407281
   O       8.115458      61.127998      13.314228
   O       6.113566       5.038709      29.947946
   O      10.733775       8.067879      19.093239
   O      16.602559      11.113176      18.516184
   O      12.632137       2.227756      28.575855
   O       8.779584       4.518032      13.175916
   O      11.246842       6.894044      23.923219
   O      11.037176      28.383257       0.428024
   O       3.426782       7.718879      23.721557
   O       3.192077      36.742595       0.598031
   O       3.813948      10.879039      25.939738
   O      61.753811      12.082063      21.772219
   O       2.059227       9.906000       7.298977
   O       5.908324       1.097770      27.754391
   O       7.390424       7.896277      14.506871
   O      59.087078      16.544231      27.422642
   O       5.484998       6.149396      26.826866
   O       6.534800      61.577704      24.831462
   O      58.232057      17.449714      25.004607
   O       7.517505      27.305298      25.634595
   O      11.976135      16.748347      11.042389
   O      14.618129       6.468840      20.354612
   O      13.446649       1.722054      62.572166
   O      25.844620       5.325068      21.373854
   O       2.007555       6.303710      17.477906
   O      60.220649       1.981496      27.816738
   O       0.408064       4.583822      26.462097
   O       3.099891      61.466919      26.552020
   O      16.105130       6.020413      23.770303
   O       6.616567       5.929132      24.326587
   O      17.704697      15.413528      20.024257
   O       8.571628      13.012548      29.708344
   O       1.206554      11.409317      35.651197
   O      60.710011      22.061901      26.187938
   O      13.882448       0.733676      25.356287
   O      10.112216      25.729916      27.722187
   O       2.223485       8.491196      35.729810
   O      57.547540      23.622923      25.815756
   O      11.557675      16.519451      21.137314
   O      20.641803      10.576904      23.932444
   O      13.506941      55.068993      25.291402
   O       8.294450      11.686635      19.958518
   O       4.141545       9.280877      61.549467
   O      11.524809      34.776389      20.847588
   O      62.606807       0.529046      16.732598
   O       8.994824       4.427636      23.857462
   O       2.987689      12.906628      23.069026
   O      13.566079       8.230707       3.776909
   O       1.382498      10.253840      10.428462
   O      32.784067       8.258645      31.200803
   O       1.204315      10.978353      27.003648
   O       2.863045      11.030814      18.676451
   O       7.041028       9.908914      30.723440
   O       4.406657       3.016283      26.363105
   O       2.951603       6.809079      26.546377
   O      58.676941      10.724748      30.446298
   O       7.327313       6.460343       4.587474
   O       8.609350       8.565020      32.504934
   O      14.841449       6.419525      17.641002
   O      60.672542       5.938944      33.931217
   O       3.139969      12.218508       9.414672
   O      59.945414       7.715985      29.241112
   O      31.845375       0.664855      32.196316
   O      61.734904       4.855491      18.502023
   O       4.376740      24.837172      31.728057
   O      28.958579       6.760171      35.072813
   O       5.962117      12.528527      26.177579
   O      61.632840       6.433762      30.960550
   O       9.853559      13.386107      27.521440
   O      24.348336       7.471855      62.192462
   O       8.842676       7.143691      20.926816
   O       7.411438       8.748626      11.362918
   O      13.876637       7.841083      30.806065
   O      60.811256       7.953852      22.558769
   O      10.379535       5.554206      17.656846
   O       0.802025      10.230135      17.035826
   O       4.347672      10.764833      29.578341
   O       7.425220      30.964435       6.495876
   O       1.253420      23.457275       4.585009
   O       1.138050      12.972736      31.550021
   O       9.909465       4.960457      58.324680
   O      62.293999      23.854372       2.337865
   O      18.797010      23.859881      11.477111
   O      60.727629       5.451596       7.536924
   O       7.253769      27.451986      61.377126
   O       8.390379      22.610234       5.664947
   O       6.788040      31.233261      16.258872
   O      10.688668      21.008213       9.798798
   O       4.779915      24.209452       7.233159
   O      14.099429      29.040489       2.816055
   O       3.381135      21.955365      11.515547
   O      14.110881       3.123973      18.588889
   O       1.820215      26.925121       1.387034
   O       5.516448      23.585409      60.662711
   O      11.614840      39.020576      14.605986
   O      25.963963      29.026086      13.626883
   O       8.141255      20.763928       3.396190
   O       6.565487      24.549122       4.093262
   O      13.461682      16.578637      15.162275
   O      14.388166      25.814678      12.948826
   O       6.748157      28.431963       6.550002
   O      12.355898      61.116882       7.239924
   O      11.772052       3.962830       4.735260
   O      20.931822       8.114648      11.863568
   O       6.064220      17.568073       0.100782
   O       6.711756      24.382299       1.440364
   O      31.134191      14.874826      17.815340
   O      19.687163       5.327968      12.948857
   O       9.847777      23.610704      10.036982
   O      37.976186      13.226651       8.115527
   O       4.378110      16.435278       5.136209
   O       1.004587      28.905647       3.796104
   O      10.007827      21.537203       1.152314
   O      11.047471      25.402207       1.010051
   O      12.418091      21.336517      19.074563
   O      10.914866       0.249499      11.191660
   O       7.319829      25.571427       7.037644
   O      18.317664      21.614074       3.684190
   O       2.276681      25.168245       8.487078
   O      24.351878      20.465299       6.997797
   O       9.836515      27.655964      22.646687
   O       4.784435      29.565105       8.251447
   O      60.575810      20.212678      14.591894
   O       8.800152      18.108438       7.356057
   O       6.683315      23.284848      26.278686
   O      12.116730      24.693443       9.884161
   O      10.210591       7.240947      15.069362
   O       6.700888      29.047158      10.656917
   O      11.611623      16.953011      61.698923
   O      11.971776      19.800823       5.484657
   O       2.643834      22.271869      33.206593
   O      13.973737      21.996117      27.867684
   O      16.266161       0.829236       7.881753
   O      61.406764      21.317784       3.119751
   O      17.776607      26.047629      60.096570
   O      11.689589      16.545082       4.731306
   O      12.039481      11.291749       1.845632
   O       1.558758      11.580523      20.892632
   O       2.322873      23.338668      30.390659
   O      31.783544      15.607866      15.173967
   O       9.472797      28.832931      60.521524
   O       7.653540      25.526206      14.297359
   O       7.840697      16.057688      27.222608
   O       2.573437      32.254007       5.493294
   O      60.270182      15.201323      16.799388
   O       9.388352      10.013895      24.198252
   O       8.328902      20.544270       8.406143
   O       9.679125      18.546876      14.873182
   O       5.315718      25.002907      35.360618
   O      10.745700      29.153269       6.333959
   O      15.444839      21.457358      12.522051
   O       2.248258      25.172605      11.421229
   O       9.674747      18.700957       5.010226
   O       5.811482      23.466611      11.711053
   O       6.475470      28.328802      18.518280
   O      11.542038      23.698754       3.116975
   O       4.572324      32.371052       7.916535
   O      58.196284      19.547105       4.177888
   O      11.394549      37.597623       1.900110
   O      14.036095      59.550952       5.936153
   O       6.424991      32.261185      11.678111
   O       4.971292      18.148010       7.879106
   O      18.266473      16.860915       4.463162
   O      14.782309      26.431662       7.552832
   O       0.693327      26.076497      16.848304
   O       4.350087      20.442398      34.215512
   O       9.312252      21.083970      13.151280
   O      62.499661      17.250221       2.651499
   O      10.901806      35.663526      17.241899
   O       4.510674      22.979747       0.476214
   O      61.932776      33.455215      12.110897
   O      17.379254      18.465170       0.257660
   O      28.968571      26.956881      62.010778
   O      12.964263      17.872105       1.224395
   O       5.476824      28.157801      13.142231
   O       6.473862      24.786143      21.033076
   O      61.432822      19.391404       1.265169
   O      59.710653      24.825022      11.671219
   O      10.018397      34.258364      13.218543
   O       3.455878      25.170293       5.213738
   O       2.066307      20.849678      15.642918
   O      10.274109      33.004541      18.197775
   O       2.601751      27.818958       7.217651
   O       0.872200      36.392484       7.696480
   O      13.453927      31.624951      13.936836
   O      18.989044      24.931877       2.206241
   O       5.757553      19.553401       3.239545
   O       1.404164      20.803633       4.134962
   O      15.862228      42.143509      12.853044
   O       2.142022      26.661469      19.021970
   O       1.323738      14.000981      25.227419
   O       9.864768      28.252222      11.013760
   O      12.989475      22.995117      16.635087
   O      30.167655      10.153276       5.602296
   O      60.837838      22.424458      62.355381
   O      16.588050      20.097304       2.451652
   O      10.921694      34.009600       7.711534
   O       1.790076       6.509326      20.383776
   O       9.364566      20.144953      61.577096
   O       6.143780      20.571402      30.573484
   O      15.329457       0.744349       5.235100
   O       2.623710      18.503434      16.705012
   O      16.858596      23.393782       9.676177
   O      61.759294      27.803595       1.939775
   O       3.962271      18.441379      20.784892
   O       7.248896      17.328355      15.309108
   O      27.015043       2.280449      10.469701
   O      60.221092      31.296511       4.194146
   O      11.519509      13.352769       9.448516
   O      29.160732      24.886590      26.171739
   O      10.613669      20.917409      23.232731
   O      57.812693      29.973147      21.804343
   O       8.209736      26.693262      20.515387
   O      15.444131       3.711786      14.007103
   O       2.389605      14.771969      27.936517
   O       8.695604      12.687352      25.116373
   O      12.923485      25.864357      29.894671
   O       8.892325       1.230161      21.103663
   O      14.806774      19.947676      16.119269
   O       5.430779      17.895700      23.362389
   O       0.780161       3.008771      17.674670
   O       7.849928      15.645049      30.884593
   O      11.758362      15.820751      26.751480
   O       1.450649      19.679594      22.242869
   O       1.632470       9.598562      24.467674
   O       5.264396      26.534950      22.939959
   O       9.253332      20.486168      26.917253
   O      61.077091      27.259694      20.365532
   O       8.554089       2.231371      27.275209
   O      18.802994      30.382117      26.171650
   O       8.809412      62.652782      15.612715
   O      14.322155       9.097985      19.468481
   O       2.146211      18.053333      24.537673
   O       7.181033      22.327975      17.337259
   O       0.621334      16.408613      28.637649
   O      10.500945      21.129705      29.397384
   O       6.003848      12.684920      28.889783
   O      13.699848      29.363852      18.367848
   O       8.788250      14.260419      23.119229
   O      15.467563      40.819484      19.872852
   O       6.119800      14.510673      15.742501
   O      16.846418       0.605309      16.071136
   O      11.930781      15.218413      23.514759
   O      10.952970      30.163321      27.983689
   O      60.061699      19.595391      24.900722
   O      18.494869      27.360291      21.525026
   O       5.987926      18.516414      26.221992
   O       5.836673      16.840508      18.608554
   O      12.410471      20.222426       2.605705
   O       7.961873       5.487513      15.708247
   O      24.029253      16.919790      18.298843
   O       4.176558      28.813818      22.003397
   O       6.144461      21.433601      22.084947
   O       8.213895      19.848500      22.534670
   O       2.377165      28.901883      62.155205
   O      61.579600      22.036759      22.300212
   O      10.412761      28.762157      15.649335
   O      11.379973      25.995895      23.938880
   O      19.845954       7.972613      23.331672
   O      17.501636      29.719634      22.085849
   O       6.423601      26.228274      28.466006
   O       5.637925      30.453172      19.976244
   O      14.333031      20.007493      25.962309
   O       9.804354      26.591524      17.357650
   O       5.053327       8.798390      17.689629
   O      58.310971      30.490983      27.976133
   O      10.207495      10.953588       9.066783
   O       4.267694      35.589349      17.446193
   O       9.142016      30.927925      11.528521
   O       5.355068      17.256041      33.184851
   O      12.626737      26.693675      18.110796
   O       7.752727      32.403289      23.794685
   O      60.146089      19.438666      28.893111
   O      11.837559      25.323182      59.225741
   O       3.203642      17.841612      27.233461
   O       3.610094      19.894651      28.976229
   O      13.436829      24.532671      22.511680
   O      15.987609      17.492379      25.890267
   O      16.502823      28.311700      27.281060
   O      60.452557      15.636080      23.712635
   O       3.909806      30.269061      16.095929
   O      11.318876      31.360817      23.595099
   O       2.280896      12.182130      29.029880
   O       9.792637      22.128853      20.657744
   O      14.622314      24.367721      25.411611
   O       0.681550       8.197281      27.355583
   O      12.903450      25.576387      27.230431
   O      18.159372      16.745560      28.339742
   O       9.239781      24.962472      25.350327
   O       0.659445      16.317731      23.386877
   O      10.586561      14.495952      19.868306
   O      20.729743      20.964401       2.015062
   O      27.257693      24.117926      33.685633
   O      26.175849      12.125213      14.625023
   O      12.582750      57.355122       7.425177
   O       6.785171      30.460861      13.574343
   O      11.180317       9.308359      28.865713
   O       5.812206      34.907434       8.832077
   O       7.006519      20.359022      35.214629
   O      14.808878      29.533514      22.118988
   O       1.705028      24.954542      21.189634
   O      13.082549      17.910859      17.365532
   O      12.192586       5.523253      21.613208
   O       4.461522      21.940050      26.810197
   O       5.276779      24.116093      18.781514
   O      36.019219      24.538700      25.156359
   O      61.530028      29.205785      61.990673
   O       8.829637      35.257557      15.205151
   O      13.716876       3.832712      25.178714
   O      12.528637      21.760310      32.582694
   O       8.761725      24.264439      16.183204
   O      28.100987      20.792661       5.691473
   O       6.323843      28.588035       3.460532
   O       6.215692      13.832411      22.394450
   O      16.381040      25.274847      22.351235
   O       1.832935      25.578688      28.046466
   O      59.287101       1.573671      32.257103
   O       4.099620      22.330572      23.717139
   O      28.485635      20.032854      31.249291
   O       3.382624      15.608405      18.642220
   O       8.144984      23.312895      22.533282
   O      31.148873      26.071391      18.309394
   O       1.885251      28.860639      20.530083
   O       7.517321      10.094772      28.055628
   O      16.004148      20.798680      30.427089
   O       4.002125      15.567185      23.035804
   O      19.555415      26.220434      13.162699
   O       5.829574      15.048691      25.352886
   O      10.183649      30.758675      33.049439
   O      25.590956      17.664680      26.302127
   O       0.011129      19.368755      26.057345
   O      12.553980      27.646688      11.569203
   O       8.874587      26.131809      32.270588
   O       8.743595      22.213634      25.119800
   O      61.503949      28.692146      26.353773
   O      11.920828       1.358212      19.067566
   O       3.986110      30.457668      25.608917
   O      13.858313      13.852842      15.696710
   O      29.625295       7.679622      10.965768
   O      19.448930      12.318098       6.401418
   O      24.911256       9.497638      28.614670
   O      26.831532      17.765820       8.594486
   O      23.644931      11.943808      10.885611
   O      25.808245      25.130497      13.793910
   O      28.247647      13.782473       0.090279
   O      24.024016      25.108485       7.020083
   O      23.403859       7.956464       6.291381
   O      25.298066       6.126912      15.938057
   O      33.709277      15.843630       5.900532
   O      16.008270      17.950035      11.248291
   O      23.412935       4.527535      14.120013
   O      22.184211      12.958620       7.277603
   O      18.464572       6.808434       6.025812
   O      24.087979      18.010832      10.202623
   O       5.711199       4.067897       6.927309
   O      18.151085       3.142472       8.678462
   O      36.560864      15.213530       6.647883
   O      22.696157      15.036994      11.896122
   O      22.525764      21.422989       5.180961
   O      26.207844       4.860130       8.900890
   O      22.935111       6.763090      15.231219
   O      16.452667      13.405214      11.813882
   O      23.449704       7.090660      12.043820
   O      31.343904      11.181026      25.092180
   O      24.816587      36.858591      15.887772
   O      23.392431      58.080596       9.486664
   O      21.394803      37.351572      31.817574
   O      25.630103      10.282847      11.155040
   O      21.745497       5.184720       3.554329
   O      33.393587      21.410780       3.079768
   O       4.757494       2.042722      16.666411
   O      24.686919       9.405675      33.689007
   O      23.469542       5.265830       9.788608
   O      29.781798      20.995006       3.528262
   O      25.586097       8.288541       9.296438
   O      30.785546       2.351455      11.390473
   O      27.497682       2.783652       5.339022
   O      14.123040      11.575202       6.559869
   O      15.848133       3.132421      10.105898
   O      14.121545       5.647861       1.952494
   O      25.454527      62.049836       3.693840
   O      51.534899       7.719725      14.475282
   O      18.627970      12.198448      10.932822
   O      17.980914       1.494845      28.661168
   O      23.090293      22.003907      11.020918
   O      27.772707       7.054710       8.858704
   O      23.168648       7.431779       3.298078
   O      35.192441      14.052517       9.363855
   O       1.159336      14.014318      14.218925
   O      19.673589       7.844771       0.254795
   O      36.563676       7.521915       5.182328
   O      29.259576       5.310671      30.152878
   O      18.842357       0.828608       6.790366
   O      26.618151       4.350289      18.751616
   O      25.736152      17.307844      12.611984
   O       9.021267      11.073124      12.745733
   O      17.706051       8.566659      30.446627
   O      23.225768      26.678624      10.189549
   O      20.639035      13.803124      10.049092
   O      17.855700      18.986548      34.634912
   O      18.612428      30.981020       5.135413
   O      26.130655       5.159480       6.100145
   O      14.816104      11.970153      13.807490
   O      32.030310       6.651609       9.310824
   O      21.958260      11.523709      60.808075
   O      25.022545       9.815690      13.791734
   O      55.349774      18.161399      17.767108
   O      14.496420      24.435985       0.751706
   O      26.310248       9.938622       7.196486
   O      32.492181      10.686550      14.000660
   O      24.564390       1.671641      11.737167