&FORCE_EVAL
  METHOD Quickstep
  &DFT
    BASIS_SET_FILE_NAME BASIS_MOLOPT_UZH
    POTENTIAL_FILE_NAME POTENTIAL
    &MGRID
      CUTOFF 300
      REL_CUTOFF 30
    &END MGRID
    &QS
      METHOD RIGPW
    &END QS
    &POISSON
      PERIODIC NONE
      PSOLVER MT
    &END
    &SCF
      EPS_SCF 1.0E-6
      SCF_GUESS ATOMIC
      MAX_SCF 20
    &END SCF
    &XC
      &XC_FUNCTIONAL PBE
      &END XC_FUNCTIONAL
    &END XC
  &END DFT
  &SUBSYS
    &CELL
      ABC  6  6  6
      PERIODIC NONE
    &END CELL
    &COORD
      H  0 0.0 0.0
      H  0 0.0 0.74144
    &END COORD
    &TOPOLOGY
      &CENTER_COORDINATES
      &END
    &END TOPOLOGY
    &KIND H
      BASIS_SET ORB    DZVP-MOLOPT-GGA-GTH-q1
      BASIS_SET RI_AUX TZV2P-MOLOPT-GGA-GTH-q1
      POTENTIAL GTH-PBE-q1
    &END KIND
  &END SUBSYS
&END FORCE_EVAL
&GLOBAL
  RUN_TYPE ENERGY_FORCE
  PROJECT H2
&END GLOBAL

