&GLOBAL
  SEED 123412
  WALLTIME    40000
  PROJECT     DFT-DRIVER
! RUN_TYPE    DRIVER
  PRINT_LEVEL LOW
  &TIMINGS
    THRESHOLD  0.05
  &END
!  TRACE
!  TRACE_MASTER .FALSE.  
!  TRACE_MAX 1000
&END GLOBAL
&MOTION
 &DRIVER
  HOST daint02
  PORT 31019
!  SLEEP_TIME 0.1
 &END DRIVER 
&END MOTION
&FORCE_EVAL
  METHOD Quickstep
  &DFT
    &MGRID
      CUTOFF    290
      REL_CUTOFF 40
    &END MGRID
    &QS
      EPS_DEFAULT 1.0E-10
    &END QS
    &SCF
      SCF_GUESS ATOMIC
      EPS_SCF 3.0E-7
      MAX_SCF 30
      &OT
        MINIMIZER CG
        PRECONDITIONER FULL_SINGLE_INVERSE
      &END
      &OUTER_SCF
        EPS_SCF 3.0E-7
        MAX_SCF 2
      &END
      &PRINT
        &RESTART OFF
        &END
      &END
    &END SCF
    &XC
      &XC_FUNCTIONAL                                       
        &LIBXC                                               
          FUNCTIONAL  XC_GGA_XC_PBE1W                        
        &END LIBXC                                           
      &END XC_FUNCTIONAL                                     
      &VDW_POTENTIAL                                         
         POTENTIAL_TYPE PAIR_POTENTIAL
         &PAIR_POTENTIAL
            TYPE DFTD3
            R_CUTOFF 40
            REFERENCE_FUNCTIONAL PBE
            D3_SCALING        1.061751930000         1.337111990000         0.231891330000
            PARAMETER_FILE_NAME  ./dftd3.dat
         &END
      &END VDW_POTENTIAL
    &END XC
  &END DFT
  &SUBSYS
    &CELL
       ! ABC 9.8528 9.8528 9.8528
       ABC 6.0 6.0 6.0
    &END CELL
    &COORD
       O  7.06151e+00  9.49296e+00  5.05644e+00
       H  7.06621e+00  8.57748e+00  4.80368e+00
       H  7.07298e+00  1.01404e+01  4.28810e+00
!      O  6.32706e-01  4.21521e+00  5.31605e+00
!      H  7.23747e-01  3.23167e+00  5.65132e+00
!      H  1.48703e+00  4.67724e+00  5.51349e+00
!      O  1.13071e+00  1.00077e+01 -7.58158e-01
!      H  1.05237e+00  1.08055e+01 -1.35614e+00
!      H  2.07317e+00  1.01004e+01 -5.37240e-01
!      O  3.34273e+00  5.44565e+00 -1.90182e-01
!      H  2.70039e+00  5.99416e+00 -7.35878e-01
!      H  3.47245e+00  5.99885e+00  5.73966e-01
!      O  1.79888e+00  7.94144e+00  3.54305e+00
!      H  2.21232e+00  8.78917e+00  3.89477e+00
!      H  9.03557e-01  8.06858e+00  3.15771e+00
!      O  8.13674e+00  9.49761e+00  4.41206e-01
!      H  8.80900e+00  9.47745e+00 -2.47534e-01
!      H  8.09575e+00  1.04185e+01  6.74248e-01
!      O  1.05868e+01  1.35852e+01  2.54802e+00
!      H  1.06367e+01  1.38378e+01  3.55417e+00
!      H  1.04763e+01  1.43966e+01  2.02630e+00
!      O  5.17870e+00  1.09847e+01 -1.55621e+00
!      H  6.12394e+00  1.12583e+01 -1.58825e+00
!      H  5.08506e+00  1.06125e+01 -6.42304e-01
!      O  8.15572e+00  1.23050e+01  1.68930e+00
!      H  7.75782e+00  1.30212e+01  1.18078e+00
!      H  9.03024e+00  1.26382e+01  1.96749e+00
!      O  6.21869e+00  1.11671e+01  2.99111e+00
!      H  6.14610e+00  1.17651e+01  3.74462e+00
!      H  6.93458e+00  1.15147e+01  2.43568e+00
!      O  8.23895e+00  5.59676e+00  5.93741e+00
!      H  8.39041e+00  6.17207e+00  6.70192e+00
!      H  9.04809e+00  5.09627e+00  5.74979e+00
!      O  9.49561e+00  5.97505e+00  6.25003e-01
!      H  9.48086e+00  6.65963e+00  1.34343e+00
!      H  8.60649e+00  5.52435e+00  6.98653e-01
!      O  1.08231e+01  1.60839e+00  5.97950e+00
!      H  1.00629e+01  1.18345e+00  6.45053e+00
!      H  1.12525e+01  9.70172e-01  5.29566e+00
!      O  2.62037e+00  7.81353e+00 -2.24395e+00
!      H  3.32299e+00  8.37501e+00 -2.64410e+00
!      H  1.88531e+00  8.47876e+00 -2.23576e+00
!      O  4.46510e+00  1.00338e+01  1.01515e+00
!      H  5.25097e+00  1.01158e+01  1.56876e+00
!      H  3.90969e+00  1.07611e+01  1.34441e+00
!      O  8.27852e+00  7.18932e+00  7.99540e+00
!      H  8.58815e+00  8.11551e+00  7.95164e+00
!      H  8.90077e+00  6.91421e+00  8.71760e+00
!      O  5.54456e+00  3.96088e+00 -2.93526e+00
!      H  5.72374e+00  4.87104e+00 -2.47777e+00
!      H  4.70544e+00  3.72596e+00 -2.51176e+00
!      O  4.80875e+00  4.40285e+00  2.30839e+00
!      H  5.36510e+00  4.16861e+00  3.10678e+00
!      H  4.48801e+00  5.30631e+00  2.39789e+00
!      O  6.36003e+00  3.80615e+00  4.29320e+00
!      H  6.16025e+00  3.95546e+00  5.22803e+00
!      H  7.30474e+00  3.87885e+00  4.23660e+00
!      O  3.07551e+00  2.25040e+00  2.06551e+00
!      H  2.16680e+00  2.62895e+00  2.09850e+00
!      H  3.58646e+00  3.07429e+00  2.19814e+00
!      O  5.71298e+00  6.11584e+00 -1.24343e+00
!      H  6.31895e+00  6.89768e+00 -1.13225e+00
!      H  4.88224e+00  6.29033e+00 -7.55352e-01
!      O  3.01353e+00  5.74952e+00  5.18315e+00
!      H  2.56359e+00  6.48816e+00  4.74533e+00
!      H  3.21063e+00  6.08106e+00  6.08451e+00
!      O  6.95559e+00  1.43442e+01  6.52136e-01
!      H  6.19389e+00  1.44641e+01  1.30315e+00
!      H  6.56866e+00  1.45497e+01 -1.76689e-01
!      O  3.83339e+00  7.06021e+00  2.15120e+00
!      H  2.95825e+00  7.25890e+00  2.50500e+00
!      H  4.01565e+00  7.94833e+00  1.84400e+00
!      O  4.55300e+00  9.60580e+00  6.12993e+00
!      H  4.77841e+00  1.01568e+01  6.87664e+00
!      H  5.41888e+00  9.25969e+00  5.80774e+00
!      O  6.93777e+00  6.86374e+00  4.13611e+00
!      H  6.10663e+00  6.40030e+00  3.85389e+00
!      H  7.31483e+00  6.27745e+00  4.82575e+00
!      O  8.74349e+00  1.00590e+01  7.23952e+00
!      H  8.33729e+00  1.08906e+01  7.62003e+00
!      H  8.07634e+00  9.86104e+00  6.47250e+00
!      O  2.93858e+00  1.27398e+01 -1.98662e+00
!      H  2.55831e+00  1.21838e+01 -2.78327e+00
!      H  3.61143e+00  1.21300e+01 -1.66146e+00
!      O  1.03995e+01  1.33487e+01 -8.92459e-01
!      H  1.13296e+01  1.31207e+01 -1.12168e+00
!      H  1.04693e+01  1.40457e+01 -1.98835e-01
!      O  8.99089e+00  7.90714e+00  2.38361e+00
!      H  8.55665e+00  8.69355e+00  1.92904e+00
!      H  8.32336e+00  7.56970e+00  3.02562e+00
!      O  2.72177e+00  1.04495e+01  4.39884e+00
!      H  3.06346e+00  1.09463e+01  3.64449e+00
!      H  3.50471e+00  1.01739e+01  4.96311e+00
!      O  7.81827e+00  1.24753e+01 -1.75675e+00
!      H  8.45545e+00  1.30236e+01 -1.24453e+00
!      H  7.33330e+00  1.30810e+01 -2.33409e+00 
    &END COORD
    &KIND H
      &BASIS
        3
        1  0  0  3  1  
              8.3744350009  -0.0283380461  
              1.8058681460  -0.1365288433
              0.4852528328  -0.3242514841
        1  0  0  1  1
              0.0703067600   1.0000000000
        2  1  1  1  1
              0.5235660200   1.0000000000
      &END
      &POTENTIAL
        1
          0.20000000  2     -4.07311634      0.68070153
        0
      &END
    &END KIND
    &KIND O
      &BASIS
        3
        2  0  1  3  1  1
              8.3043855492   0.1510165999    -0.0995679273   
              2.4579484191  -0.0400692139    -0.3257542222
              0.7597373434  -0.6395855949    -0.5111354819
        2  0  1  1  1  1
              0.1550977100   1.0000000000     1.0000000000
        3  2  2  1  1
              1.2975441400   1.0000000000
      &END
      &POTENTIAL
        2 4
             0.26099935  2    -14.15180600      1.97829510
        NLCC  1
             0.252338420313492 1 44.0109866619909
        2
             0.22308282  1     18.37181432
             0.26844098  1      0.10003633
      &END
    &END KIND
  &END SUBSYS
&END FORCE_EVAL


