&FORCE_EVAL
  METHOD QUICKSTEP
  &DFT
    BASIS_SET_FILE_NAME ../ALL_BASIS_SETS
    POTENTIAL_FILE_NAME ../POTENTIAL

    &MGRID
     CUTOFF 100
      NGRIDS 1
      REL_CUTOFF 40
    &END MGRID
    &QS
      METHOD GAPW
   &END QS
    &SCF
     MAX_SCF 1
     EPS_DIIS 0.4
     EPS_SCF 1.0E-6
     MIXING 0.1 
     SCF_GUESS ATOMIC 
    &END SCF
    &XC
      DENSITY_CUTOFF 1.0e-11
      &XC_FUNCTIONAL PBE
      &END XC_FUNCTIONAL
    &END XC
    &POISSON 
      POISSON_SOLVER MT
      PERIODIC NONE 
    &END POISSON
    &RELATIVISTIC
      METHOD DKH 
      DKH_ORDER 3
      POTENTIAL FULL
      TRANSFORMATION ATOM
    &END RELATIVISTIC 
  &END DFT
  &SUBSYS
    &TOPOLOGY
    &END TOPOLOGY
    &CELL
      ABC  4.0  4.0  4.0
      PERIODIC NONE
    &END CELL
    &COORD
    CL   0.000000000  -0.000000000  -1.024053796
    CL   0.000000000  -0.000000000   1.024053796
  &END COORD
    &KIND CL 
      BASIS_SET DZVP-ALL     
      POTENTIAL ALL
    &END KIND
  &END SUBSYS
&END FORCE_EVAL
&GLOBAL
  RUN_TYPE WFN_OPT 
  PRINT_LEVEL MEDIUM
&END GLOBAL
