&GLOBAL
  PRINT_LEVEL MEDIUM
  PROJECT RPA_CH3_minimax
  RUN_TYPE ENERGY
  &TIMINGS
    THRESHOLD 0.01
  &END TIMINGS
&END GLOBAL

&FORCE_EVAL
  METHOD Quickstep
  &DFT
    BASIS_SET_FILE_NAME HFX_BASIS
    MULTIPLICITY 2
    POTENTIAL_FILE_NAME GTH_POTENTIALS
    UKS
    &MGRID
      ! CUTOFF  300
      CUTOFF 100
      ! REL_CUTOFF  50
      REL_CUTOFF 20
    &END MGRID
    &POISSON
      PERIODIC NONE
      POISSON_SOLVER WAVELET
    &END POISSON
    &QS
      EPS_DEFAULT 1.0E-15
      EPS_PGF_ORB 1.0E-30
      METHOD GPW
    &END QS
    &SCF
      ADDED_MOS 20 20
      EPS_SCF 1.0E-5
      MAX_SCF 100
      SCF_GUESS ATOMIC
      &SMEAR
        ELECTRONIC_TEMPERATURE 300.
        METHOD FERMI_DIRAC
      &END SMEAR
    &END SCF
    &XC
      &WF_CORRELATION
        MEMORY 500.0
        NUMBER_PROC 1
        &INTEGRALS
          ERI_METHOD GPW
          &WFC_GPW
            CUTOFF 100
            REL_CUTOFF 20
          &END WFC_GPW
        &END INTEGRALS
        &RI_RPA
          MINIMAX
          RPA_NUM_QUAD_POINTS 4
          &HF
            FRACTION 1.0000000
            &SCREENING
              EPS_SCHWARZ 1.0E-6
              SCREEN_ON_INITIAL_P FALSE
            &END SCREENING
          &END HF
        &END RI_RPA
      &END WF_CORRELATION
      &XC_FUNCTIONAL PBE
      &END XC_FUNCTIONAL
    &END XC
  &END DFT
  &SUBSYS
    &CELL
      ! ABC [angstrom]  10.000   10.000   10.000
      ABC [angstrom] 6.000 6.000 6.000
      PERIODIC NONE
    &END CELL
    &KIND H
      BASIS_SET DZVP-GTH
      BASIS_SET RI_AUX RI_DZVP-GTH
      POTENTIAL GTH-PBE-q1
    &END KIND
    &KIND C
      BASIS_SET DZVP-GTH
      BASIS_SET RI_AUX RI_DZVP-GTH
      POTENTIAL GTH-PBE-q4
    &END KIND
    &TOPOLOGY
      COORD_FILE_FORMAT xyz
      COORD_FILE_NAME CH3.xyz
      &CENTER_COORDINATES
      &END CENTER_COORDINATES
    &END TOPOLOGY
  &END SUBSYS
&END FORCE_EVAL
