&GLOBAL
  PRINT_LEVEL MEDIUM
  PROJECT Ar2_chain_gfn1_x_kp
  RUN_TYPE DEBUG
&END GLOBAL

&DEBUG
  DEBUG_FORCES T
  DEBUG_STRESS_TENSOR T
  DX 0.0001
  MAX_RELATIVE_ERROR 0.5
  STOP_ON_MISMATCH F
&END DEBUG

&FORCE_EVAL
  STRESS_TENSOR DIAGONAL_ANALYTICAL
  &DFT
    &KPOINTS
      FULL_GRID OFF
      SCHEME MONKHORST-PACK 2 1 1
      SYMMETRY ON
      VERBOSE T
    &END KPOINTS
    &QS
      EPS_DEFAULT 1.00E-12
      METHOD xTB
      &XTB
        GFN_TYPE TBLITE
        &TBLITE
          METHOD GFN1
        &END TBLITE
      &END XTB
    &END QS
    &SCF
      EPS_SCF 1.e-10
      MAX_SCF 200
      SCF_GUESS MOPAC
      &MIXING
        ALPHA 0.2
        METHOD DIRECT_P_MIXING
      &END MIXING
      &PRINT
        &RESTART OFF
        &END RESTART
      &END PRINT
    &END SCF
  &END DFT
  &SUBSYS
    &CELL
      ABC 5.2600000000 18.0000000000 18.0000000000
      PERIODIC X
    &END CELL
    &COORD
      SCALED
      Ar    0.113000    0.501000    0.537000
      Ar    0.613000    0.523000    0.514000
    &END COORD
  &END SUBSYS
&END FORCE_EVAL
