&GLOBAL
  PRINT_LEVEL MEDIUM
  PROJECT dat_CH2O
  RUN_TYPE DEBUG
&END GLOBAL

&DEBUG
  DEBUG_FORCES T
  DEBUG_STRESS_TENSOR F
  DX 0.0001
  EPS_NO_ERROR_CHECK 1.00E-005
&END DEBUG

&FORCE_EVAL
  STRESS_TENSOR ANALYTICAL
  &DFT
    &KPOINTS
      SCHEME NONE
    &END KPOINTS
    &POISSON
      PERIODIC XYZ
      POISSON_SOLVER PERIODIC
    &END POISSON
    &PRINT
      &DERIVATIVES ON
      &END DERIVATIVES
    &END PRINT
    &QS
      EPS_DEFAULT 1.00E-12
      METHOD xTB
      &XTB
        &TBLITE
          METHOD GFN1
        &END TBLITE
      &END XTB
    &END QS
    &SCF
      EPS_SCF 1.e-8
      MAX_SCF 100
      &MIXING
        ALPHA 0.2
        METHOD DIRECT_P_MIXING
      &END MIXING
    &END SCF
  &END DFT
  &PRINT
    &FORCES ON
    &END FORCES
  &END PRINT
  &SUBSYS
    &CELL
      ABC 5.0 5.0 5.0
      PERIODIC XYZ
    &END CELL
    &COORD
      O     0.051368    0.000000    0.000000
      C     1.278612    0.000000    0.000000
      H     1.870460   -0.939607    0.000000
      H     1.870460    0.939607    0.000000
    &END COORD
  &END SUBSYS
&END FORCE_EVAL
