&GLOBAL
  PRINT_LEVEL MEDIUM
  PROJECT CH2O_gfn1_uks_force
  RUN_TYPE DEBUG
&END GLOBAL

&DEBUG
  DEBUG_FORCES T
  DEBUG_STRESS_TENSOR F
  DX 0.0001
  STOP_ON_MISMATCH F
&END DEBUG

&FORCE_EVAL
  &DFT
    CHARGE 1
    LSD
    MULTIPLICITY 2
    &QS
      EPS_DEFAULT 1.00E-12
      METHOD xTB
      &XTB
        GFN_TYPE TBLITE
        &TBLITE
          METHOD GFN1
          SCC_MIXER TBLITE
        &END TBLITE
      &END XTB
    &END QS
    &SCF
      ADDED_MOS 4 4
      EPS_SCF 1.e-10
      MAX_SCF 200
      SCF_GUESS MOPAC
      &PRINT
        &RESTART OFF
        &END RESTART
      &END PRINT
    &END SCF
  &END DFT
  &SUBSYS
    &CELL
      ABC 20.0 20.0 20.0
      PERIODIC NONE
    &END CELL
    &COORD
      O     0.051368    0.000000    0.000000
      C     1.278612    0.000000    0.000000
      H     1.870460    0.939607    0.000000
      H     1.870460   -0.939607    0.000000
    &END COORD
  &END SUBSYS
&END FORCE_EVAL
