&GLOBAL
  PRINT_LEVEL MEDIUM
  PROJECT dat_COBe
  RUN_TYPE DEBUG
&END GLOBAL

&DEBUG
  DEBUG_FORCES T
  DEBUG_STRESS_TENSOR F
  DX 0.0001
  MAX_RELATIVE_ERROR 0.5
&END DEBUG

&FORCE_EVAL
  STRESS_TENSOR ANALYTICAL
  &DFT
    &KPOINTS
      SCHEME NONE
    &END KPOINTS
    &POISSON
      PERIODIC XYZ
      POISSON_SOLVER PERIODIC
    &END POISSON
    &PRINT
      &DERIVATIVES ON
      &END DERIVATIVES
    &END PRINT
    &QS
      EPS_DEFAULT 1.00E-12
      METHOD xTB
      &XTB
        &TBLITE
          METHOD GFN1
        &END TBLITE
      &END XTB
    &END QS
    &SCF
      ADDED_MOS -1 -1
      EPS_SCF 1.e-8
      MAX_SCF 100
      &MIXING
        ALPHA 0.2
        METHOD DIRECT_P_MIXING
      &END MIXING
      &SMEAR ON
        ELECTRONIC_TEMPERATURE 300
        METHOD Fermi_Dirac
      &END SMEAR
    &END SCF
  &END DFT
  &PRINT
    &FORCES ON
    &END FORCES
  &END PRINT
  &SUBSYS
    &CELL
      ABC 5.0 5.0 5.0
      PERIODIC XYZ
    &END CELL
    &COORD
      O    -0.564000    0.000000    0.000000
      C     0.564000    0.000000    0.000000
      Be    0.000000    3.000000    0.000000
    &END COORD
  &END SUBSYS
&END FORCE_EVAL
