&GLOBAL
  PRINT_LEVEL MEDIUM
  PROJECT hbn_gfn1_hex_kp_debug
  RUN_TYPE DEBUG
&END GLOBAL

&DEBUG
  DEBUG_FORCES T
  DEBUG_STRESS_TENSOR T
  DX 1.0E-4
  MAX_RELATIVE_ERROR 0.5
  STOP_ON_MISMATCH F
&END DEBUG

&FORCE_EVAL
  METHOD QS
  STRESS_TENSOR ANALYTICAL
  &DFT
    &KPOINTS
      EPS_SYMMETRY 1.0E-8
      FULL_GRID F
      SCHEME MACDONALD 2 2 2 0.25 0.25 0.25
      SYMMETRY T
      SYMMETRY_BACKEND SPGLIB
      SYMMETRY_REDUCTION_METHOD SPGLIB
      VERBOSE T
    &END KPOINTS
    &QS
      EPS_DEFAULT 1.0E-12
      METHOD xTB
      &XTB
        GFN_TYPE TBLITE
        &TBLITE
          ACCURACY 0.1
          METHOD GFN1
        &END TBLITE
      &END XTB
    &END QS
    &SCF
      EPS_SCF 1.0E-10
      MAX_SCF 300
      SCF_GUESS MOPAC
      &MIXING
        ALPHA 0.2
        METHOD DIRECT_P_MIXING
      &END MIXING
      &PRINT
        &RESTART OFF
        &END RESTART
      &END PRINT
    &END SCF
  &END DFT
  &SUBSYS
    &CELL
      A 2.500000000000 0.000000000000 0.000000000000
      B -1.250000000000 2.165063509461 0.000000000000
      C 0.000000000000 0.000000000000 6.660000000000
      CANONICALIZE TRUE
      PERIODIC XYZ
    &END CELL
    &COORD
      SCALED
      B 0.000000000000 0.000000000000 0.000000000000
      N 0.333333333333 0.666666666667 0.500000000000
    &END COORD
  &END SUBSYS
&END FORCE_EVAL
