&GLOBAL
  PROJECT argon
  RUN_TYPE ENERGY
  PRINT_LEVEL MEDIUM
&END GLOBAL
&FORCE_EVAL
  METHOD QS
  &DFT
    BASIS_SET_FILE_NAME BASIS_MOLOPT
    POTENTIAL_FILE_NAME POTENTIAL
    &MGRID
      CUTOFF 200
    &END MGRID
    &QS
      METHOD GPW
    &END QS
    &SCF
      SCF_GUESS ATOMIC
      MAX_SCF 3
      EPS_SCF 1.0e-6
    &END SCF
    &XC
      &XC_FUNCTIONAL
        &LIBXC
          FUNCTIONAL XC_GGA_X_LV_RPW86
          SCALE 0.80
        &END LIBXC
        &PW92
        &END PW92
      &END XC_FUNCTIONAL
      &HF
        &SCREENING
          EPS_SCHWARZ 1.0E-6
          SCREEN_ON_INITIAL_P FALSE
        &END
        &MEMORY
          MAX_MEMORY 900
          EPS_STORAGE_SCALING 0.1
        &END
        &INTERACTION_POTENTIAL
          POTENTIAL_TYPE TRUNCATED
          CUTOFF_RADIUS 2.0
          T_C_G_DATA t_c_g.dat
        &END
        FRACTION 0.20
      &END
      &vdW_POTENTIAL
         DISPERSION_FUNCTIONAL NON_LOCAL
         &NON_LOCAL
           TYPE DRSLL
           VERBOSE_OUTPUT
           KERNEL_FILE_NAME vdW_kernel_table.dat
           CUTOFF  100
         &END NON_LOCAL
      &END vdW_POTENTIAL
    &END XC
  &END DFT
  &SUBSYS
    &CELL
      ABC 15.3 15.3 15.3
      ALPHA_BETA_GAMMA 90 90 90
      PERIODIC NONE
    &END CELL
    &COORD
      Ar 0.0 0.0 0.0
      Ar 0.0 0.0 3.7
    &END COORD
    &KIND Ar
      BASIS_SET DZVP-MOLOPT-SR-GTH-q8
      POTENTIAL GTH-PADE-q8
    &END
  &END SUBSYS
&END FORCE_EVAL
