&GLOBAL
  PRINT_LEVEL LOW
  PROJECT dftd3_t16
  RUN_TYPE ENERGY_FORCE
&END GLOBAL

&FORCE_EVAL
  METHOD QS
  STRESS_TENSOR ANALYTICAL
  &DFT
    BASIS_SET_FILE_NAME BASIS_MOLOPT
    POTENTIAL_FILE_NAME POTENTIAL
    &MGRID
      CUTOFF 200
    &END MGRID
    &QS
      METHOD GPW
    &END QS
    &SCF
      EPS_SCF 1.0e-5
      MAX_SCF 10
      SCF_GUESS ATOMIC
    &END SCF
    &XC
      &VDW_POTENTIAL
        DISPERSION_FUNCTIONAL PAIR_POTENTIAL
        &PAIR_POTENTIAL
          CALCULATE_C9_TERM .TRUE.
          EPS_CN 0.01
          KIND_COORDINATION_NUMBERS 0.00 1
          LONG_RANGE_CORRECTION .TRUE.
          PARAMETER_FILE_NAME dftd3.dat
          REFERENCE_C9_TERM .TRUE.
          REFERENCE_FUNCTIONAL PBE
          R_CUTOFF 8.
          TYPE DFTD3
          VERBOSE_OUTPUT
        &END PAIR_POTENTIAL
      &END VDW_POTENTIAL
      &XC_FUNCTIONAL PBE
      &END XC_FUNCTIONAL
    &END XC
  &END DFT
  &PRINT
    &STRESS_TENSOR ON
    &END STRESS_TENSOR
  &END PRINT
  &SUBSYS
    &CELL
      ABC 8.30 8.30 8.30
    &END CELL
    &COORD
      SCALED
      Ar    0.0 0.0 0.0
      Ar    0.5 0.5 0.0
      Ar    0.5 0.0 0.5
      Ar    0.0 0.5 0.5
    &END COORD
    &KIND Ar
      BASIS_SET SZV-MOLOPT-SR-GTH
      POTENTIAL GTH-PBE-q8
    &END KIND
  &END SUBSYS
&END FORCE_EVAL
