&FORCE_EVAL
  METHOD Fist
  &MM
    &FORCEFIELD
      &CHARGE
        ATOM O
        CHARGE  0.0
      &END CHARGE
      &CHARGE
        ATOM H
        CHARGE  0.0
      &END CHARGE
      &NONBONDED
        &LENNARD-JONES
          atoms O O
          EPSILON 0.0
          SIGMA 3.166
          RCUT 30.0
        &END LENNARD-JONES
        &LENNARD-JONES
          atoms O H
          EPSILON 0.0
          SIGMA 3.6705
          RCUT 30.0
        &END LENNARD-JONES
        &LENNARD-JONES
          atoms H H
          EPSILON 0.0
          SIGMA 3.30523
          RCUT 30.0
        &END LENNARD-JONES
      &END NONBONDED
    &END FORCEFIELD
    &POISSON
      &EWALD
        &MULTIPOLES
          MAX_MULTIPOLE_EXPANSION QUADRUPOLE
        &END
        EWALD_TYPE ewald
        ALPHA .5
        GMAX 31
      &END EWALD
    &END POISSON
  &END MM
  &SUBSYS
    &CELL
      ABC 10.0 10.0 10.0
    &END CELL
    &COORD
    O   0.00 0.00 0.00
    H   2.00 2.00 2.00
    &END COORD
    &MULTIPOLES
       &QUADRUPOLES
  -2.592847943    1.204932304    0.099272609     0.891032735    1.527021839    1.701815208
  -1.084455000   -0.649302196    0.174225505    -0.223415209    0.574292076    1.307870209
       &END
    &END
    &TOPOLOGY
      CONNECTIVITY OFF
    &END
  &END SUBSYS
  &PRINT
    &FORCES
    &END
  &END
&END FORCE_EVAL
&GLOBAL
  PROJECT multipole_quadrupole
  RUN_TYPE ENERGY_FORCE
&END GLOBAL
