&GLOBAL
  PROJECT multipole_charge.dbg_f
  RUN_TYPE DEBUG
&END GLOBAL

&DEBUG
&END DEBUG

&FORCE_EVAL
  METHOD Fist
  &MM
    &FORCEFIELD
      &CHARGE
        ATOM O
        CHARGE -1.0
      &END CHARGE
      &CHARGE
        ATOM H
        CHARGE 0.5
      &END CHARGE
      &NONBONDED
        &LENNARD-JONES
          ATOMS O O
          EPSILON 0.0
          RCUT 2.0
          SIGMA 1.0
        &END LENNARD-JONES
        &LENNARD-JONES
          ATOMS O H
          EPSILON 0.0
          RCUT 2.0
          SIGMA 1.0
        &END LENNARD-JONES
        &LENNARD-JONES
          ATOMS H H
          EPSILON 0.0
          RCUT 2.0
          SIGMA 1.0
        &END LENNARD-JONES
      &END NONBONDED
    &END FORCEFIELD
    &POISSON
      &EWALD
        ALPHA 0.8
        EWALD_TYPE ewald
        GMAX 51
        &MULTIPOLES
          MAX_MULTIPOLE_EXPANSION QUADRUPOLE
        &END MULTIPOLES
      &END EWALD
    &END POISSON
  &END MM
  &PRINT
    &FORCES
    &END FORCES
  &END PRINT
  &SUBSYS
    &CELL
      ABC 5.0 5.0 5.0
    &END CELL
    &COORD
      O    -4.583   5.333   1.560   H2O
      H    -3.777   5.331   0.943   H2O
      H    -5.081   4.589   1.176   H2O
    &END COORD
    &TOPOLOGY
      CONNECTIVITY OFF
    &END TOPOLOGY
  &END SUBSYS
&END FORCE_EVAL
