&GLOBAL
  PROJECT multipole_dipole_quadrupole
  RUN_TYPE ENERGY_FORCE
&END GLOBAL

&FORCE_EVAL
  METHOD Fist
  &MM
    &FORCEFIELD
      &CHARGE
        ATOM O
        CHARGE 0.0
      &END CHARGE
      &CHARGE
        ATOM H
        CHARGE 0.0
      &END CHARGE
      &NONBONDED
        &LENNARD-JONES
          ATOMS O O
          EPSILON 0.0
          RCUT 15.0
          SIGMA 3.166
        &END LENNARD-JONES
        &LENNARD-JONES
          ATOMS O H
          EPSILON 0.0
          RCUT 15.0
          SIGMA 3.6705
        &END LENNARD-JONES
        &LENNARD-JONES
          ATOMS H H
          EPSILON 0.0
          RCUT 15.0
          SIGMA 3.30523
        &END LENNARD-JONES
      &END NONBONDED
    &END FORCEFIELD
    &POISSON
      &EWALD
        ALPHA .5
        EWALD_TYPE ewald
        GMAX 21
        &MULTIPOLES
          MAX_MULTIPOLE_EXPANSION QUADRUPOLE
        &END MULTIPOLES
      &END EWALD
    &END POISSON
  &END MM
  &PRINT
    &FORCES
    &END FORCES
  &END PRINT
  &SUBSYS
    &CELL
      ABC 10.0 10.0 10.0
    &END CELL
    &COORD
      O   0.00 0.00 0.00
      H   2.00 2.00 2.00
    &END COORD
    &MULTIPOLES
      &DIPOLES
        0.948832458    0.313739346    0.035841163
        0.000000000    0.000000000    0.000000000
      &END DIPOLES
      &QUADRUPOLES
        0.000000000    0.000000000    0.000000000     0.000000000    0.000000000     0.000000000
        1.265358029   -0.631931148   -0.179878397    -0.215555789   -0.665933025    -1.049802240
      &END QUADRUPOLES
    &END MULTIPOLES
    &TOPOLOGY
      CONNECTIVITY OFF
    &END TOPOLOGY
  &END SUBSYS
&END FORCE_EVAL
