&FORCE_EVAL
  METHOD Quickstep
  &DFT
    POTENTIAL_FILE_NAME ../../../data/GTH_POTENTIALS
    BASIS_SET_FILE_NAME ../../../data/BASIS_MOLOPT
    &MGRID
      CUTOFF 200
    &END MGRID
    &QS
      EPS_DEFAULT 1.0E-8
    &END QS
    &SCF
      SCF_GUESS ATOMIC
      EPS_SCF 1.0  !E-6
      MAX_SCF 30
      &OT
        PRECONDITIONER FULL_ALL
        ! PRECONDITIONER FULL_KINETIC
        ENERGY_GAP 0.01
      &END
      &OUTER_SCF
         EPS_SCF 1.0  !E-6
         MAX_SCF 30
      &END
    &END SCF
    &XC
      &XC_FUNCTIONAL PADE
      &END XC_FUNCTIONAL
    &END XC
    &PRINT
      &STM
         NLUMO 32
         BIAS  -6 -1 1 6
         TH_TORB S
         TH_TORB PZ
      &END
    &END
  &END DFT
  &SUBSYS
    &CELL
      A 1.22800000 -2.12695839  0.00000000
      B 1.22800000  2.12695839  0.00000000
      C 0.00000000  0.00000000  6.69600000
    &END CELL
    &COORD
C    0.00000000  0.00000000  1.67400000
C    0.00000000  0.00000000  5.02200000
C    1.22800000  0.70898613  1.67400000
C    1.22800000 -0.70898613  5.02200000
    &END COORD
    &KIND C
      BASIS_SET DZVP-MOLOPT-SR-GTH
      POTENTIAL GTH-PADE-q4
    &END KIND
  &END SUBSYS
&END FORCE_EVAL
&GLOBAL
  PROJECT graphite-stm
  RUN_TYPE ENERGY
  PRINT_LEVEL MEDIUM
&END GLOBAL
