&GLOBAL
  PRINT_LEVEL MEDIUM
  PROJECT graphite2
  RUN_TYPE MD
&END GLOBAL

&MOTION
  &MD
    ENSEMBLE NPT_F
    STEPS 3
    TIMESTEP 0.5
    &BAROSTAT
    &END BAROSTAT
    &THERMOSTAT
      &NOSE
      &END NOSE
    &END THERMOSTAT
  &END MD
&END MOTION

&FORCE_EVAL
  METHOD Quickstep
  STRESS_TENSOR ANALYTICAL
  &DFT
    ! BASIS_SET_FILE_NAME BASIS_MOLOPT
    BASIS_SET_FILE_NAME GTH_BASIS_SETS
    POTENTIAL_FILE_NAME GTH_POTENTIALS
    &MGRID
      ! CUTOFF 150
      CUTOFF 100
    &END MGRID
    &QS
      EPS_DEFAULT 1.0E-4
      EXTRAPOLATION PS
      EXTRAPOLATION_ORDER 2
    &END QS
    &SCF
      EPS_SCF 1.0E-6
      IGNORE_CONVERGENCE_FAILURE
      MAX_SCF 3
      SCF_GUESS ATOMIC
      &OT
        ENERGY_GAP 0.01
        PRECONDITIONER FULL_ALL
      &END OT
    &END SCF
    &XC
      &XC_FUNCTIONAL PADE
      &END XC_FUNCTIONAL
    &END XC
  &END DFT
  &SUBSYS
    &CELL
      A 1.22800000 -2.12695839 0.00000000
      B 1.22800000 2.12695839 0.00000000
      C 0.00000000 0.00000000 6.69600000
    &END CELL
    &COORD
      C    0.00000000  0.00000000  1.67400000
      C    0.00000000  0.00000000  5.02200000
      C    1.22800000  0.70898613  1.67400000
      C    1.22800000 -0.70898613  5.02200000
    &END COORD
    &KIND C
      ! BASIS_SET DZVP-MOLOPT-SR-GTH
      BASIS_SET SZV-GTH
      POTENTIAL GTH-PADE-q4
    &END KIND
  &END SUBSYS
&END FORCE_EVAL
