&GLOBAL
  PRINT_LEVEL MEDIUM
  PROJECT graphite-lumo
  RUN_TYPE ENERGY
&END GLOBAL

&MOTION
  &MD
    ENSEMBLE NVE
    STEPS 3
    TIMESTEP 0.5
  &END MD
&END MOTION

&FORCE_EVAL
  METHOD Quickstep
  &DFT
    BASIS_SET_FILE_NAME GTH_BASIS_SETS
    POTENTIAL_FILE_NAME GTH_POTENTIALS
    &MGRID
      ! CUTOFF 150
      CUTOFF 100
    &END MGRID
    &PRINT
      &MO_CUBES
        NLUMO 2
        WRITE_CUBE FALSE
      &END MO_CUBES
    &END PRINT
    &QS
      EPS_DEFAULT 1.0E-10
      EXTRAPOLATION PS
      EXTRAPOLATION_ORDER 2
    &END QS
    &SCF
      EPS_SCF 1.0E-1
      MAX_SCF 3
      SCF_GUESS ATOMIC
      &OT
        ! PRECONDITIONER FULL_ALL
        ! ENERGY_GAP 0.01
      &END OT
      &OUTER_SCF
        EPS_SCF 1.0E-1
        MAX_SCF 3
      &END OUTER_SCF
    &END SCF
    &XC
      &XC_FUNCTIONAL PADE
      &END XC_FUNCTIONAL
    &END XC
  &END DFT
  &SUBSYS
    &CELL
      A 1.22800000 -2.12695839 0.00000000
      B 1.22800000 2.12695839 0.00000000
      C 0.00000000 0.00000000 6.69600000
    &END CELL
    &COORD
      C    0.00000000  0.00000000  1.67400000
      C    0.00000000  0.00000000  5.02200000
      C    1.22800000  0.70898613  1.67400000
      C    1.22800000 -0.70898613  5.02200000
    &END COORD
    &KIND C
      BASIS_SET SZV-GTH
      POTENTIAL GTH-PADE-q4
    &END KIND
  &END SUBSYS
&END FORCE_EVAL
