&GLOBAL
  PRINT_LEVEL LOW
  PROJECT H2_sasccs
  RUN_TYPE ENERGY
&END GLOBAL

&FORCE_EVAL
  METHOD Quickstep
  &DFT
    BASIS_SET_FILE_NAME BASIS_SET
    LSD
    POTENTIAL_FILE_NAME POTENTIAL
    &MGRID
      CUTOFF 100
      REL_CUTOFF 40
    &END MGRID
    &PLANAR_COUNTER_CHARGE ON
      DIST_EDGE 1.0
      GAU_C 0.2
      PARALLEL_PLANE XZ
    &END PLANAR_COUNTER_CHARGE
    &QS
      EPS_DEFAULT 1.0E-10
    &END QS
    &SCCS ON
      ALPHA [N*m^-1] 0.0
      BETA [kbar] 0.0
      DELTA_RHO 2.0E-5
      DERIVATIVE_METHOD FFT
      DIELECTRIC_CONSTANT 78.3
      EPS_SCCS 1.0E-7
      EPS_SCF 0.3
      GAMMA [mN/m] 0.0
      MAX_ITER 100
      METHOD ANDREUSSI
      MIXING 0.4
      &SAA_ANDREUSSI
        ALPHA_ZETA 2.0
        DELTA_ETA 0.02
        DELTA_ZETA [Bohr] 0.5
        F0 0.65
        RHO_MAX 0.1
        RHO_MIN 0.01
        R_SOLV [Bohr] 2.6
      &END SAA_ANDREUSSI
    &END SCCS
    &SCF
      EPS_SCF 1.0E-6
      MAX_SCF 50
      SCF_GUESS ATOMIC
      &OT
        MINIMIZER DIIS
        PRECONDITIONER FULL_SINGLE_INVERSE
      &END OT
    &END SCF
    &XC
      &XC_FUNCTIONAL PADE
      &END XC_FUNCTIONAL
    &END XC
  &END DFT
  &SUBSYS
    &CELL
      ABC 8.0 9.0 10.0
    &END CELL
    &COORD
      H  3.60  4.50  5.00
      H  4.40  4.50  5.00
    &END COORD
    &KIND H
      BASIS_SET DZV-GTH-PADE
      POTENTIAL GTH-PADE-q1
    &END KIND
  &END SUBSYS
&END FORCE_EVAL
