&GLOBAL
  PRINT_LEVEL MEDIUM
  PROJECT RI_RPA_H2O_minimax
  RUN_TYPE ENERGY
  &TIMINGS
    THRESHOLD 0.01
  &END TIMINGS
&END GLOBAL

&FORCE_EVAL
  METHOD Quickstep
  &DFT
    BASIS_SET_FILE_NAME HFX_BASIS
    POTENTIAL_FILE_NAME GTH_POTENTIALS
    SORT_BASIS EXP
    &MGRID
      CUTOFF 100
      REL_CUTOFF 30
    &END MGRID
    &POISSON
      PERIODIC NONE
      POISSON_SOLVER MT
    &END POISSON
    &QS
      EPS_DEFAULT 1.0E-15
      EPS_PGF_ORB 1.0E-30
      METHOD GPW
    &END QS
    &SCF
      EPS_SCF 1.0E-5
      MAX_SCF 100
      SCF_GUESS ATOMIC
      &OT
        MINIMIZER CG
        PRECONDITIONER FULL_SINGLE_INVERSE
      &END OT
      &OUTER_SCF
        EPS_SCF 1.0E-5
        MAX_SCF 50
      &END OUTER_SCF
      &PRINT
        &RESTART OFF
        &END RESTART
      &END PRINT
    &END SCF
    &XC
      &WF_CORRELATION
        MEMORY 200.
        NUMBER_PROC 1
        &INTEGRALS
          ERI_METHOD OS
        &END INTEGRALS
        &LOW_SCALING
          MEMORY_CUT 1
        &END LOW_SCALING
        &RI
          &RI_METRIC
            POTENTIAL_TYPE IDENTITY
          &END RI_METRIC
        &END RI
        &RI_RPA
          QUADRATURE_RULE MINIMAX
          RPA_NUM_QUAD_POINTS 5
          &GW
            CORR_MOS_OCC 3
            CORR_MOS_VIRT 3
            IC
            &IC
            &END IC
          &END GW
        &END RI_RPA
      &END WF_CORRELATION
      &XC_FUNCTIONAL PBE
      &END XC_FUNCTIONAL
    &END XC
  &END DFT
  &SUBSYS
    &CELL
      ABC [angstrom] 7.0 5.0 7.0
      PERIODIC NONE
    &END CELL
    &KIND H
      BASIS_SET DZVP-GTH
      BASIS_SET RI_AUX RI_DZVP-GTH
      POTENTIAL GTH-PBE-q1
    &END KIND
    &KIND C
      BASIS_SET DZVP-GTH
      BASIS_SET RI_AUX RI_DZVP-GTH
      POTENTIAL GTH-PBE-q4
    &END KIND
    &KIND HG
      BASIS_SET DZVP-GTH
      BASIS_SET RI_AUX RI_DZVP-GTH
      ELEMENT H
      GHOST TRUE
      POTENTIAL GTH-PBE-q1
    &END KIND
    &KIND CG
      BASIS_SET DZVP-GTH
      BASIS_SET RI_AUX RI_DZVP-GTH
      ELEMENT C
      GHOST TRUE
      POTENTIAL GTH-PBE-q4
    &END KIND
    &TOPOLOGY
      COORD_FILE_FORMAT xyz
      COORD_FILE_NAME HCCH.xyz
      &CENTER_COORDINATES
      &END CENTER_COORDINATES
    &END TOPOLOGY
  &END SUBSYS
&END FORCE_EVAL
