&GLOBAL
  PROJECT  RI_RPA_H2O_minimax
  PRINT_LEVEL MEDIUM
  RUN_TYPE ENERGY
  &TIMINGS
     THRESHOLD 0.01
  &END
&END GLOBAL
&FORCE_EVAL
  METHOD Quickstep
  &DFT
    BASIS_SET_FILE_NAME  HFX_BASIS
    SORT_BASIS EXP
    POTENTIAL_FILE_NAME  GTH_POTENTIALS
    &MGRID
      CUTOFF  100
      REL_CUTOFF  30
    &END MGRID
    &POISSON
      PERIODIC NONE
      POISSON_SOLVER MT
    &END POISSON
    &QS
      METHOD GPW
      EPS_DEFAULT 1.0E-15
      EPS_PGF_ORB 1.0E-30
    &END QS
    &SCF
      SCF_GUESS ATOMIC
      EPS_SCF 1.0E-5
      MAX_SCF 100
      &PRINT
        &RESTART OFF
        &END
      &END
      &OT
        MINIMIZER       CG
        PRECONDITIONER  FULL_SINGLE_INVERSE
      &END
      &OUTER_SCF
        EPS_SCF  1.0E-5
        MAX_SCF  50
      &END
    &END SCF
    &XC
      &XC_FUNCTIONAL PBE
      &END XC_FUNCTIONAL
      &WF_CORRELATION
        METHOD  RI_RPA_GPW
        &WFC_GPW
        &END
        ERI_METHOD OS
        &RI_METRIC
          POTENTIAL_TYPE IDENTITY
        &END
        &LOW_SCALING
          MEMORY_CUT 1
        &END
        &RI_RPA
          RPA_NUM_QUAD_POINTS  5
          MINIMAX
          &GW
            CORR_MOS_OCC 3
            CORR_MOS_VIRT 3
            IC
            &IC
            &END
          &END
        &END RI_RPA
        MEMORY  200.
        NUMBER_PROC  1
      &END
    &END XC
  &END DFT
  &SUBSYS
    &CELL
      ABC [angstrom]  7.0 5.0 7.0
      PERIODIC NONE
    &END CELL
    &KIND H
      BASIS_SET        DZVP-GTH
      BASIS_SET RI_AUX RI_DZVP-GTH
      POTENTIAL  GTH-PBE-q1
    &END KIND
    &KIND C
      BASIS_SET  DZVP-GTH
      BASIS_SET RI_AUX RI_DZVP-GTH
      POTENTIAL  GTH-PBE-q4
    &END KIND
    &KIND HG
      BASIS_SET  DZVP-GTH
      BASIS_SET RI_AUX RI_DZVP-GTH
      POTENTIAL  GTH-PBE-q1
      GHOST TRUE
      ELEMENT H
    &END KIND
    &KIND CG
      BASIS_SET  DZVP-GTH
      BASIS_SET RI_AUX RI_DZVP-GTH
      POTENTIAL  GTH-PBE-q4
      GHOST TRUE
      ELEMENT C
    &END KIND
    &TOPOLOGY
      COORD_FILE_NAME  HCCH.xyz
      COORD_FILE_FORMAT xyz
      &CENTER_COORDINATES
      &END
    &END TOPOLOGY
  &END SUBSYS
&END FORCE_EVAL
