&FORCE_EVAL
  METHOD Quickstep
  &DFT
    &QS
      METHOD PM6
      &SE
      &END
    &END QS
    &SCF
      MAX_SCF 0
    &END SCF
  &END DFT
  &SUBSYS
    &CELL
#CuSbS_2 & F5_6 & oP16 & Pnma-D_{2h}^{16} #62 & Strukturbereicht III, p. 75
      A  6.00000000  0.00000000  0.00000000
      B  0.00000000  3.78000000  0.00000000
      C  0.00000000  0.00000000 14.45000000
    &END CELL
    &COORD
 SCALED
Cu  0.20000000  0.25000000  0.82000000     1.20000000  0.94500000 11.84900000
Cu  0.70000000  0.25000000 -0.32000000     4.20000000  0.94500000 -4.62400000
Cu -0.20000000 -0.25000000 -0.82000000    -1.20000000 -0.94500000-11.84900000
Cu -0.70000000 -0.25000000  0.32000000    -4.20000000 -0.94500000  4.62400000
Sb  0.22000000  0.25000000  0.06000000     1.32000000  0.94500000  0.86700000
Sb  0.72000000  0.25000000  0.44000000     4.32000000  0.94500000  6.35800000
Sb -0.22000000 -0.25000000 -0.06000000    -1.32000000 -0.94500000 -0.86700000
Sb -0.72000000 -0.25000000 -0.44000000    -4.32000000 -0.94500000 -6.35800000
S   0.60000000  0.25000000  0.09000000     3.60000000  0.94500000  1.30050000
S   1.10000000  0.25000000  0.41000000     6.60000000  0.94500000  5.92450000
S  -0.60000000 -0.25000000 -0.09000000    -3.60000000 -0.94500000 -1.30050000
S  -1.10000000 -0.25000000 -0.41000000    -6.60000000 -0.94500000 -5.92450000
S   0.80000000  0.25000000  0.82000000     4.80000000  0.94500000 11.84900000
S   1.30000000  0.25000000 -0.32000000     7.80000000  0.94500000 -4.62400000
S  -0.80000000 -0.25000000 -0.82000000    -4.80000000 -0.94500000-11.84900000
S  -1.30000000 -0.25000000  0.32000000    -7.80000000 -0.94500000  4.62400000
    &END COORD
    &PRINT
      &SYMMETRY
       CHECK_SYMMETRY mmm
      &END
    &END
    &TOPOLOGY
      CONNECTIVITY OFF
    &END
  &END SUBSYS
&END FORCE_EVAL
&GLOBAL
  PROJECT c_27_CuSbS2
  RUN_TYPE ENERGY
&END GLOBAL
