&FORCE_EVAL
  METHOD Quickstep
  &DFT
    &QS
      METHOD PM6
      &SE
      &END
    &END QS
    &SCF
      MAX_SCF 0
    &END SCF
  &END DFT
  &SUBSYS
    &CELL
#HgCl_2 & C25 & oP12 & Pnma-D_{2h}^{16} #62 & Strukturbereicht II, p. 19
     A  12.66700000  0.00000000  0.00000000
     B   0.00000000  4.30700000  0.00000000
     C   0.00000000  0.00000000  5.93600000
    &END CELL
    &COORD
 SCALED
Hg  0.12500000  0.25000000  0.06300000     1.58337500  1.07675000  0.37396800
Hg  0.62500000  0.25000000  0.43700000     7.91687500  1.07675000  2.59403200
Hg -0.12500000 -0.25000000 -0.06300000    -1.58337500 -1.07675000 -0.37396800
Hg -0.62500000 -0.25000000 -0.43700000    -7.91687500 -1.07675000 -2.59403200
Cl  0.25000000  0.25000000  0.42800000     3.16675000  1.07675000  2.54060800
Cl  0.75000000  0.25000000  0.07200000     9.50025000  1.07675000  0.42739200
Cl -0.25000000 -0.25000000 -0.42800000    -3.16675000 -1.07675000 -2.54060800
Cl -0.75000000 -0.25000000 -0.07200000    -9.50025000 -1.07675000 -0.42739200
Cl  0.00000000  0.25000000  0.75000000     0.00000000  1.07675000  4.45200000
Cl  0.50000000  0.25000000 -0.25000000     6.33350000  1.07675000 -1.48400000
Cl  0.00000000 -0.25000000 -0.75000000     0.00000000 -1.07675000 -4.45200000
Cl -0.50000000 -0.25000000  0.25000000    -6.33350000 -1.07675000  1.48400000
    &END COORD
    &PRINT
      &SYMMETRY
       CHECK_SYMMETRY mmm
      &END
    &END
    &TOPOLOGY
      CONNECTIVITY OFF
    &END
  &END SUBSYS
&END FORCE_EVAL
&GLOBAL
  PROJECT c_27_HgCl2
  RUN_TYPE ENERGY
&END GLOBAL
