&FORCE_EVAL
  METHOD Quickstep
  &DFT
    &QS
      METHOD PM6
      &SE
      &END
    &END QS
    &SCF
      MAX_SCF 0
    &END SCF
  &END DFT
  &SUBSYS
    &CELL
#B24 & FTl & oF8 & Fmmm - D_{2h}^{23} (#69)
     A   0.00000000  2.74750000  3.04000000
     B   2.59000000  0.00000000  3.04000000
     C   2.59000000  2.74750000  0.00000000
    &END CELL
    &COORD
 SCALED
Tl  0.00000000  0.00000000  0.00000000     0.00000000  0.00000000  0.00000000
F   0.50000000  0.50000000 -0.50000000     0.00000000  0.00000000  3.04000000
    &END COORD
    &PRINT
      &SYMMETRY
       CHECK_SYMMETRY mmm
      &END
    &END
    &TOPOLOGY
      CONNECTIVITY OFF
    &END
  &END SUBSYS
&END FORCE_EVAL
&GLOBAL
  PROJECT c_27_TlF
  RUN_TYPE ENERGY
&END GLOBAL
