&FORCE_EVAL
  METHOD Quickstep
  &DFT
    &QS
      METHOD PM6
      &SE
      &END
    &END QS
    &SCF
      MAX_SCF 0
    &END SCF
  &END DFT
  &SUBSYS
    &CELL
#Sb_2 S_3 & D5_8 & oP20 & Pnma-D_{2h}^{16} #62 & Strukturbereicht III, p. 49
     A  11.28000000  0.00000000  0.00000000
     B   0.00000000  3.83000000  0.00000000
     C   0.00000000  0.00000000 11.20000000
    &END CELL
    &COORD
 SCALED
Sb  0.03100000  0.25000000  0.32800000     0.34968000  0.95750000  3.67360000
Sb  0.53100000  0.25000000  0.17200000     5.98968000  0.95750000  1.92640000
Sb -0.03100000 -0.25000000 -0.32800000    -0.34968000 -0.95750000 -3.67360000
Sb -0.53100000 -0.25000000 -0.17200000    -5.98968000 -0.95750000 -1.92640000
Sb  0.35100000  0.25000000  0.53900000     3.95928000  0.95750000  6.03680000
Sb  0.85100000  0.25000000 -0.03900000     9.59928000  0.95750000 -0.43680000
Sb -0.35100000 -0.25000000 -0.53900000    -3.95928000 -0.95750000 -6.03680000
Sb -0.85100000 -0.25000000  0.03900000    -9.59928000 -0.95750000  0.43680000
S   0.04700000  0.25000000  0.88300000     0.53016000  0.95750000  9.88960000
S   0.54700000  0.25000000 -0.38300000     6.17016000  0.95750000 -4.28960000
S  -0.04700000 -0.25000000 -0.88300000    -0.53016000 -0.95750000 -9.88960000
S  -0.54700000 -0.25000000  0.38300000    -6.17016000 -0.95750000  4.28960000
S   0.89750000  0.25000000  0.56100000    10.12380000  0.95750000  6.28320000
S   1.39750000  0.25000000 -0.06100000    15.76380000  0.95750000 -0.68320000
S  -0.89750000 -0.25000000 -0.56100000   -10.12380000 -0.95750000 -6.28320000
S  -1.39750000 -0.25000000  0.06100000   -15.76380000 -0.95750000  0.68320000
S   0.20800000  0.25000000  0.19400000     2.34624000  0.95750000  2.17280000
S   0.70800000  0.25000000  0.30600000     7.98624000  0.95750000  3.42720000
S  -0.20800000 -0.25000000 -0.19400000    -2.34624000 -0.95750000 -2.17280000
S  -0.70800000 -0.25000000 -0.30600000    -7.98624000 -0.95750000 -3.42720000
    &END COORD
    &PRINT
      &SYMMETRY
       CHECK_SYMMETRY mmm
      &END
    &END
    &TOPOLOGY
      CONNECTIVITY OFF
    &END
  &END SUBSYS
&END FORCE_EVAL
&GLOBAL
  PROJECT c_27_Sb2S3
  RUN_TYPE ENERGY
&END GLOBAL
