&FORCE_EVAL
  METHOD Quickstep
  &DFT
    &QS
      METHOD PM6
      &SE
      &END
    &END QS
    &SCF
      MAX_SCF 0
    &END SCF
  &END DFT
  &SUBSYS
    &CELL
#B27 & FeB & oP8 & Pnma (#62)
     A   5.49500000   .00000000   .00000000
     B    .00000000  2.94600000   .00000000
     C    .00000000   .00000000  4.05300000
    &END CELL
    &COORD
 SCALED
B    .03600000   .25000000   .61000000      .19782000   .73650000  2.47233000
B   -.03600000   .75000000  -.61000000     -.19782000  2.20950000 -2.47233000
B    .46400000   .75000000   .11000000     2.54968000  2.20950000   .44583000
B    .53600000   .25000000  -.11000000     2.94532000   .73650000  -.44583000
Fe   .18000000   .25000000   .12500000      .98910000   .73650000   .50662500
Fe  -.18000000   .75000000  -.12500000     -.98910000  2.20950000  -.50662500
Fe   .32000000   .75000000   .62500000     1.75840000  2.20950000  2.53312500
Fe   .68000000   .25000000   .37500000     3.73660000   .73650000  1.51987500
    &END COORD
    &PRINT
      &SYMMETRY
       CHECK_SYMMETRY mmm
      &END
    &END
    &TOPOLOGY
      CONNECTIVITY OFF
    &END
  &END SUBSYS
&END FORCE_EVAL
&GLOBAL
  PROJECT c_27_FeB
  RUN_TYPE ENERGY
&END GLOBAL
