&FORCE_EVAL
  METHOD Quickstep
  &DFT
    &QS
      METHOD PM6
      &SE
      &END
    &END QS
    &SCF
      MAX_SCF 0
    &END SCF
  &END DFT
  &SUBSYS
    &CELL
#Fe S_2 & P4/nnm & D_{2h}^{12} & #58 & C18 & oP6 & Marcasite
     A   4.43600000  0.00000000  0.00000000
     B   0.00000000  5.41400000  0.00000000
     C   0.00000000  0.00000000  3.38100000
    &END CELL
    &COORD
 SCALED
Fe  0.00000000  0.00000000  0.00000000     0.00000000  0.00000000  0.00000000
Fe  0.50000000  0.50000000  0.50000000     2.21800000  2.70700000  1.69050000
S   0.20000000  0.37800000  0.00000000     0.88720000  2.04649200  0.00000000
S  -0.20000000 -0.37800000  0.00000000    -0.88720000 -2.04649200  0.00000000
S   0.30000000  0.87800000  0.50000000     1.33080000  4.75349200  1.69050000
S   0.70000000  0.12200000  0.50000000     3.10520000  0.66050800  1.69050000
    &END COORD
    &PRINT
      &SYMMETRY
       CHECK_SYMMETRY mmm
      &END
    &END
  &END SUBSYS
&END FORCE_EVAL
&GLOBAL
  PROJECT c_27_FeS2
  RUN_TYPE ENERGY
&END GLOBAL
