&FORCE_EVAL
  METHOD Quickstep
  &DFT
    &QS
      METHOD PM6
      &SE
      &END
    &END QS
    &SCF
      MAX_SCF 0
    &END SCF
  &END DFT
  &SUBSYS
    &CELL
#I_2 & Cmca & #64 & D^{18}_{2h} & oC8 & A14
     A   3.62500000 -2.39500000   .00000000
     B   3.62500000  2.39500000   .00000000
     C    .00000000   .00000000  9.78000000
    &END CELL
    &COORD
 SCALED
I   -.15000000   .15000000   .11700000      .00000000   .71850000  1.14426000
I    .15000000  -.15000000  -.11700000      .00000000  -.71850000 -1.14426000
I    .35000000   .65000000   .38300000     3.62500000   .71850000  3.74574000
I    .65000000   .35000000   .61700000     3.62500000  -.71850000  6.03426000
    &END COORD
    &PRINT
      &SYMMETRY
       CHECK_SYMMETRY mmm
      &END
    &END
    &TOPOLOGY
      CONNECTIVITY OFF
    &END
  &END SUBSYS
&END FORCE_EVAL
&GLOBAL
  PROJECT c_27_I2
  RUN_TYPE ENERGY
&END GLOBAL
