&GLOBAL
  PROJECT c_27_TiS2
  RUN_TYPE ENERGY
&END GLOBAL

&FORCE_EVAL
  METHOD Quickstep
  &DFT
    &QS
      METHOD PM6
      &SE
      &END SE
    &END QS
    &SCF
      MAX_SCF 0
    &END SCF
  &END DFT
  &SUBSYS
    &CELL
      #Si_2 Ti & Fddd & #70 & oF24 & C54
      A .00000000 2.40000000 4.27525000
      B 4.13355000 .00000000 4.27525000
      C 4.13355000 2.40000000 .00000000
    &END CELL
    &COORD
      SCALED
      Ti   .12500000   .12499988   .12500000     1.03338700   .60000000  1.06881200
      Ti  -.12500000  -.12499988  -.12500000    -1.03338700  -.60000000 -1.06881200
      Si  -.21150010   .46149998   .46150010     3.81526700   .60000000  1.06881200
      Si   .21150010  -.46149998  -.46150010    -3.81526700  -.60000000 -1.06881200
      Si  -.46149998   .21150010   .21149998     1.74849200  -.60000000 -1.06881200
      Si   .46149998  -.21150010  -.21149998    -1.74849200   .60000000  1.06881200
    &END COORD
    &PRINT
      &SYMMETRY
        CHECK_SYMMETRY mmm
      &END SYMMETRY
    &END PRINT
    &TOPOLOGY
      CONNECTIVITY OFF
    &END TOPOLOGY
  &END SUBSYS
&END FORCE_EVAL
