&FORCE_EVAL
  METHOD Quickstep
  &DFT
    &QS
      METHOD PM6
      &SE
      &END
    &END QS
    &SCF
      MAX_SCF 0
    &END SCF
  &END DFT
  &SUBSYS
    &CELL
#Fe_2 C & Pnnm (#58) & oP6
     A   4.70400000   .00000000   .00000000
     B    .00000000  4.31800000   .00000000
     C    .00000000   .00000000  2.83000000
    &END CELL
    &COORD
 SCALED
C    .00000000   .00000000   .00000000      .00000000   .00000000   .00000000
C    .50000000   .50000000   .50000000     2.35200000  2.15900000  1.41500000
Fe   .66666667   .25000000   .00000000     3.13600000  1.07950000   .00000000
Fe   .33333333   .75000000   .00000000     1.56800000  3.23850000   .00000000
Fe   .16666667   .25000000   .50000000      .78400000  1.07950000  1.41500000
Fe   .83333333   .75000000   .50000000     3.92000000  3.23850000  1.41500000
    &END COORD
    &PRINT
      &SYMMETRY
       CHECK_SYMMETRY mmm
      &END
    &END
  &END SUBSYS
&END FORCE_EVAL
&GLOBAL
  PROJECT c_27_Fe2C
  RUN_TYPE ENERGY
&END GLOBAL
