&FORCE_EVAL
  METHOD Quickstep
  &DFT
    &QS
      METHOD PM6
      &SE
      &END
    &END QS
    &SCF
      MAX_SCF 0
    &END SCF
  &END DFT
  &SUBSYS
    &CELL
#CrB & Cmmm - D_{2h}^{17} #63 (c^2) & oC8 & B33
      A  1.48450000 -3.92900000  0.00000000
      B  1.48450000  3.92900000  0.00000000
      C  0.00000000  0.00000000  2.93200000
    &END CELL
    &COORD
 SCALED
Cr -0.14600000  0.14600000  0.25000000     0.00000000  1.14726800  0.73300000
Cr  0.14600000 -0.14600000 -0.25000000     0.00000000 -1.14726800 -0.73300000
B  -0.44000000  0.44000000  0.25000000     0.00000000  3.45752000  0.73300000
B   0.44000000 -0.44000000 -0.25000000     0.00000000 -3.45752000 -0.73300000
    &END COORD
    &PRINT
      &SYMMETRY
       CHECK_SYMMETRY mmm
      &END
    &END
    &TOPOLOGY
      CONNECTIVITY OFF
    &END
  &END SUBSYS
&END FORCE_EVAL
&GLOBAL
  PROJECT c_27_CrB
  RUN_TYPE ENERGY
&END GLOBAL
