&FORCE_EVAL
  METHOD Quickstep
  &DFT
    &QS
      METHOD PM6
      &SE
      &END
    &END QS
    &SCF
      MAX_SCF 0
    &END SCF
  &END DFT
  &SUBSYS
    &CELL
#Co_2 Si & Pnma & D_{2h}^{16} & #62 & C37 & oP12
     A   3.99200000  0.00000000  0.00000000
     B   0.00000000  3.65000000  0.00000000
     C   0.00000000  0.00000000  6.09100000
    &END CELL
    &COORD
 SCALED
Co  0.03800000  0.25000000  0.78200000     0.15169600  0.91250000  4.76316200
Co  0.46200000  0.75000000  0.28200000     1.84430400  2.73750000  1.71766200
Co -0.03800000  0.75000000 -0.78200000    -0.15169600  2.73750000 -4.76316200
Co -0.46200000  0.25000000 -0.28200000    -1.84430400  0.91250000 -1.71766200
Co  0.17400000  0.25000000  0.43800000     0.69460800  0.91250000  2.66785800
Co  0.32600000  0.75000000 -0.06200000     1.30139200  2.73750000 -0.37764200
Co -0.17400000  0.75000000 -0.43800000    -0.69460800  2.73750000 -2.66785800
Co -0.32600000  0.25000000  0.06200000    -1.30139200  0.91250000  0.37764200
Si  0.70200000  0.25000000  0.38900000     2.80238400  0.91250000  2.36939900
Si -0.20200000  0.75000000 -0.11100000    -0.80638400  2.73750000 -0.67610100
Si -0.70200000  0.75000000 -0.38900000    -2.80238400  2.73750000 -2.36939900
Si  0.20200000  0.25000000  0.11100000     0.80638400  0.91250000  0.67610100
    &END COORD
    &PRINT
      &SYMMETRY
       CHECK_SYMMETRY mmm
      &END
    &END
    &TOPOLOGY
      CONNECTIVITY OFF
    &END
  &END SUBSYS
&END FORCE_EVAL
&GLOBAL
  PROJECT c_27_Co2Si
  RUN_TYPE ENERGY
&END GLOBAL
