&FORCE_EVAL
  METHOD Quickstep
  &DFT
    LSD
    &QS
      METHOD PM6
      &SE
      &END
    &END QS
    &SCF
      MAX_SCF 0
    &END SCF
  &END DFT
  &SUBSYS
    &CELL
#Ga_3 Pt_5 & Cmmm & #65 oC16
      A  3.72000000 -3.34000000   .00000000
      B  3.72000000  3.34000000   .00000000
      C   .00000000   .00000000  3.72000000
    &END CELL
    &COORD
 SCALED
Ni   .00000000   .00000000   .00000000      .00000000   .00000000   .00000000
Ni  0.00000000   .50000000   .00000000     1.86000000  1.67000000   .00000000
Ni   .50000000  0.00000000   .00000000     1.86000000 -1.67000000   .00000000
Ni  -.25000000   .25000000   .50000000      .00000000  1.67000000  1.86000000
Ni   .25000000  -.25000000   .50000000      .00000000 -1.67000000  1.86000000
Al   .50000000   .50000000   .00000000     3.72000000   .00000000   .00000000
Al   .25000000   .25000000   .50000000     1.86000000   .00000000  1.86000000
Al  -.25000000  -.25000000   .50000000    -1.86000000   .00000000  1.86000000
    &END COORD
    &PRINT
      &SYMMETRY
       CHECK_SYMMETRY mmm
      &END
    &END
    &TOPOLOGY
      CONNECTIVITY OFF
    &END
  &END SUBSYS
&END FORCE_EVAL
&GLOBAL
  PROJECT c_27_Ga3Pt5
  RUN_TYPE ENERGY
&END GLOBAL
