&FORCE_EVAL
  METHOD Quickstep
  &DFT
    &QS
      METHOD PM6
      &SE
      &END
    &END QS
    &SCF
      MAX_SCF 0
    &END SCF
  &END DFT
  &SUBSYS
    &CELL
#CdSb & Pbca (#61, D^{15}_{2h}) & B_e & oP16 & H to show boundaries
     A   6.46900000  0.00000000  0.00000000
     B   0.00000000  8.25100000  0.00000000
     C   0.00000000  0.00000000  8.52200000
    &END CELL
    &COORD
 SCALED
Cd  0.55030000  0.62380000  0.63426000     3.55989070  5.14697380  5.40516372
Cd  0.05030000 -0.12380000 -0.63426000     0.32539070 -1.02147380 -5.40516372
Cd -0.55030000  0.12380000 -0.13426000    -3.55989070  1.02147380 -1.14416372
Cd -0.05030000 -0.62380000  0.13426000    -0.32539070 -5.14697380  1.14416372
Cd -0.55030000 -0.62380000 -0.63426000    -3.55989070 -5.14697380 -5.40516372
Cd -0.05030000  0.12380000  0.63426000    -0.32539070  1.02147380  5.40516372
Cd  0.55030000 -0.12380000  0.13426000     3.55989070 -1.02147380  1.14416372
Cd  0.05030000  0.62380000 -0.13426000     0.32539070  5.14697380 -1.14416372
Sb  0.13980000  0.07390000  0.10390000     0.90436620  0.60974890  0.88543580
Sb  0.63980000  0.42610000 -0.10390000     4.13886620  3.51575110 -0.88543580
Sb -0.13980000  0.57390000  0.39610000    -0.90436620  4.73524890  3.37556420
Sb  0.36020000 -0.07390000  0.60390000     2.33013380 -0.60974890  5.14643580
Sb -0.13980000 -0.07390000 -0.10390000    -0.90436620 -0.60974890 -0.88543580
Sb  0.36020000  0.57390000  0.10390000     2.33013380  4.73524890  0.88543580
Sb  0.13980000  0.42610000  0.60390000     0.90436620  3.51575110  5.14643580
Sb  0.63980000  0.07390000  0.39610000     4.13886620  0.60974890  3.37556420
    &END COORD
    &PRINT
      &SYMMETRY
       CHECK_SYMMETRY mmm
      &END
    &END
    &TOPOLOGY
      CONNECTIVITY OFF
    &END
  &END SUBSYS
&END FORCE_EVAL
&GLOBAL
  PROJECT c_27_CdSb
  RUN_TYPE ENERGY
&END GLOBAL
