&FORCE_EVAL
  METHOD Quickstep
  &DFT
    &QS
      METHOD PM6
      &SE
      &END
    &END QS
    &SCF
      MAX_SCF 0
    &END SCF
  &END DFT
  &SUBSYS
    &CELL
#MnP & Pnma-D_{2h}^{16} #62 & B31 & oP8 & Pearson's Handbook Vol. IV  4347
     A   5.26010000  0.00000000  0.00000000
     B   0.00000000  3.17410000  0.00000000
     C   0.00000000  0.00000000  5.91930000
    &END CELL
    &COORD
 SCALED
Mn  0.00610000  0.25000000  0.19620000     0.03208661  0.79352500  1.16136666
Mn  0.49390000  0.75000000  0.69620000     2.59796339  2.38057500  4.12101666
Mn -0.00610000  0.75000000 -0.19620000    -0.03208661  2.38057500 -1.16136666
Mn  0.50610000  0.25000000  0.30380000     2.66213661  0.79352500  1.79828334
P   0.18840000  0.25000000  0.56900000     0.99100284  0.79352500  3.36808170
P   0.31160000  0.75000000  0.06900000     1.63904716  2.38057500  0.40843170
P  -0.18840000  0.75000000  0.43100000    -0.99100284  2.38057500  2.55121830
P   0.68840000  0.25000000 -0.06900000     3.62105284  0.79352500 -0.40843170
    &END COORD
    &PRINT
      &SYMMETRY
       CHECK_SYMMETRY mmm
      &END
    &END
    &TOPOLOGY
      CONNECTIVITY OFF
    &END
  &END SUBSYS
&END FORCE_EVAL
&GLOBAL
  PROJECT c_27_MnP
  RUN_TYPE ENERGY
&END GLOBAL
