&FORCE_EVAL
  METHOD Quickstep
  &DFT
    &QS
      METHOD PM6
      &SE
      &END
    &END QS
    &SCF
      MAX_SCF 0
    &END SCF
  &END DFT
  &SUBSYS
    &CELL
#Hg (alpha) & A10 & hR1 & R(-3)m-D_{3d}^5 #166 & Pearson (Alloys) p. 559
      A  2.92889471  0.47518459  0.47518459
      B  0.47518459  2.92889471  0.47518459
      C  0.47518459  0.47518459  2.92889471
    &END CELL
    &COORD
 SCALED
Hg  0.00000000  0.00000000  0.00000000     0.00000000  0.00000000  0.00000000
    &END COORD
    &PRINT
      &SYMMETRY
       CHECK_SYMMETRY 23
      &END
    &END
    &TOPOLOGY
      CONNECTIVITY OFF
    &END
  &END SUBSYS
&END FORCE_EVAL
&GLOBAL
  PROJECT c_28_aHg
  RUN_TYPE ENERGY
&END GLOBAL
