&FORCE_EVAL
  METHOD Quickstep
  &DFT
    &QS
      METHOD PM6
      &SE
      &END
    &END QS
    &SCF
      MAX_SCF 0
    &END SCF
  &END DFT
  &SUBSYS
    &CELL
#NH_3 & P 2_1 3-T^4 #198 & cP16 & ND_3 data from Wyckoff Vol II. pp. 117-9
     A   5.09100000  0.00000000  0.00000000
     B   0.00000000  5.09100000  0.00000000
     C   0.00000000  0.00000000  5.09100000
    &END CELL
    &COORD
 SCALED
N   0.21700000  0.21700000  0.21700000     1.10474700  1.10474700  1.10474700
N   0.71700000  0.28300000 -0.21700000     3.65024700  1.44075300 -1.10474700
N  -0.21700000  0.71700000  0.28300000    -1.10474700  3.65024700  1.44075300
N   0.28300000 -0.21700000  0.71700000     1.44075300 -1.10474700  3.65024700
H   0.37400000  0.26320000  0.10940000     1.90403400  1.33995120  0.55695540
H   0.87400000  0.23680000 -0.10940000     4.44953400  1.20554880 -0.55695540
H  -0.37400000  0.76320000  0.39060000    -1.90403400  3.88545120  1.98854460
H   0.12600000 -0.26320000  0.60940000     0.64146600 -1.33995120  3.10245540
H   0.10940000  0.37400000  0.26320000     0.55695540  1.90403400  1.33995120
H   0.60940000  0.12600000 -0.26320000     3.10245540  0.64146600 -1.33995120
H  -0.10940000  0.87400000  0.23680000    -0.55695540  4.44953400  1.20554880
H   0.39060000 -0.37400000  0.76320000     1.98854460 -1.90403400  3.88545120
H   0.26320000  0.10940000  0.37400000     1.33995120  0.55695540  1.90403400
H   0.76320000  0.39060000 -0.37400000     3.88545120  1.98854460 -1.90403400
H  -0.26320000  0.60940000  0.12600000    -1.33995120  3.10245540  0.64146600
H   0.23680000 -0.10940000  0.87400000     1.20554880 -0.55695540  4.44953400
    &END COORD
    &PRINT
      &SYMMETRY
       CHECK_SYMMETRY 23
      &END
    &END
    &TOPOLOGY
      CONNECTIVITY OFF
    &END
  &END SUBSYS
&END FORCE_EVAL
&GLOBAL
  PROJECT c_28_NH3
  RUN_TYPE ENERGY
&END GLOBAL
