&FORCE_EVAL
  METHOD Quickstep
  &DFT
    &QS
      METHOD PM6
      &SE
      &END
    &END QS
    &SCF
      MAX_SCF 0
    &END SCF
  &END DFT
  &SUBSYS
    &CELL
#NiSSb   & P2_1 3 #198 T^4 & cP12 & F0_1 & Pearson's Handbook
     A   5.88100000  0.00000000  0.00000000
     B   0.00000000  5.88100000  0.00000000
     C   0.00000000  0.00000000  5.88100000
    &END CELL
    &COORD
 SCALED
Ni -0.02400000 -0.02400000 -0.02400000    -0.14114400 -0.14114400 -0.14114400
Ni -0.47600000  0.02400000  0.47600000    -2.79935600  0.14114400  2.79935600
Ni  0.02400000  0.47600000 -0.47600000     0.14114400  2.79935600 -2.79935600
Ni  0.47600000 -0.47600000  0.02400000     2.79935600 -2.79935600  0.14114400
S   0.39000000  0.39000000  0.39000000     2.29359000  2.29359000  2.29359000
S   0.11000000 -0.39000000 -0.11000000     0.64691000 -2.29359000 -0.64691000
S  -0.39000000 -0.11000000  0.11000000    -2.29359000 -0.64691000  0.64691000
S  -0.11000000  0.11000000 -0.39000000    -0.64691000  0.64691000 -2.29359000
Sb -0.37500000 -0.37500000 -0.37500000    -2.20537500 -2.20537500 -2.20537500
Sb -0.12500000  0.37500000  0.12500000    -0.73512500  2.20537500  0.73512500
Sb  0.37500000  0.12500000 -0.12500000     2.20537500  0.73512500 -0.73512500
Sb  0.12500000 -0.12500000  0.37500000     0.73512500 -0.73512500  2.20537500
    &END COORD
    &PRINT
      &SYMMETRY
       CHECK_SYMMETRY 23
      &END
    &END
    &TOPOLOGY
      CONNECTIVITY OFF
    &END
  &END SUBSYS
&END FORCE_EVAL
&GLOBAL
  PROJECT c_28_NiSSb
  RUN_TYPE ENERGY
&END GLOBAL
