&FORCE_EVAL
  METHOD Quickstep
  &DFT
    &QS
      METHOD PM6
      &SE
      &END
    &END QS
    &SCF
      MAX_SCF 0
    &END SCF
  &END DFT
  &SUBSYS
    &CELL
#Ga_4 Ni & I23-T^3 #197 & cI40 & Pearson's Handbook
     A  -4.21475000  4.21475000  4.21475000
     B   4.21475000 -4.21475000  4.21475000
     C   4.21475000  4.21475000 -4.21475000
    &END CELL
    &COORD
 SCALED
Ga  0.33360000  0.33360000  0.33360000     1.40604060  1.40604060  1.40604060
Ga  0.00000000  0.00000000 -0.33360000    -1.40604060 -1.40604060  1.40604060
Ga  0.00000000 -0.33360000  0.00000000    -1.40604060  1.40604060 -1.40604060
Ga -0.33360000  0.00000000  0.00000000     1.40604060 -1.40604060 -1.40604060
Ni  0.66900000  0.66900000  0.66900000     2.81966775  2.81966775  2.81966775
Ni  0.00000000  0.00000000 -0.66900000    -2.81966775 -2.81966775  2.81966775
Ni  0.00000000 -0.66900000  0.00000000    -2.81966775  2.81966775 -2.81966775
Ni -0.66900000  0.00000000  0.00000000     2.81966775 -2.81966775 -2.81966775
Ga  0.00000000  0.35240000  0.35240000     2.97055580  0.00000000  0.00000000
Ga  0.00000000 -0.35240000 -0.35240000    -2.97055580  0.00000000  0.00000000
Ga  0.35240000  0.00000000  0.35240000     0.00000000  2.97055580  0.00000000
Ga -0.35240000  0.00000000 -0.35240000     0.00000000 -2.97055580  0.00000000
Ga  0.35240000  0.35240000  0.00000000     0.00000000  0.00000000  2.97055580
Ga -0.35240000 -0.35240000  0.00000000     0.00000000  0.00000000 -2.97055580
Ga  0.50000000  0.25180000  0.75180000     2.12254810  4.21475000  0.00000000
Ga  0.50000000 -0.25180000  0.24820000    -2.12254810  4.21475000  0.00000000
Ga  0.75180000  0.50000000  0.25180000     0.00000000  2.12254810  4.21475000
Ga  0.24820000  0.50000000 -0.25180000     0.00000000 -2.12254810  4.21475000
Ga  0.25180000  0.75180000  0.50000000     4.21475000  0.00000000  2.12254810
Ga -0.25180000  0.24820000  0.50000000     4.21475000  0.00000000 -2.12254810
    &END COORD
    &PRINT
      &SYMMETRY
       CHECK_SYMMETRY 23
      &END
    &END
    &TOPOLOGY
      CONNECTIVITY OFF
    &END
  &END SUBSYS
&END FORCE_EVAL
&GLOBAL
  PROJECT c_28_Ga4Ni
  RUN_TYPE ENERGY
&END GLOBAL
