&GLOBAL
  PROJECT c_28_bPo
  RUN_TYPE ENERGY
&END GLOBAL

&FORCE_EVAL
  METHOD Quickstep
  &DFT
    LSD
    &QS
      METHOD PM6
      &SE
      &END SE
    &END QS
    &SCF
      MAX_SCF 0
    &END SCF
  &END DFT
  &SUBSYS
    &CELL
      #Po (beta) & A_i & hR1 & R(-3)m-D_{3d}^5 #166 & Pearson (Alloys) p. 559
      A 2.98911671 -0.21818147 -0.21818147
      B -0.21818147 2.98911671 -0.21818147
      C -0.21818147 -0.21818147 2.98911671
    &END CELL
    &COORD
      SCALED
      #Replace Po by P
      P   0.00000000  0.00000000  0.00000000     0.00000000  0.00000000  0.00000000
    &END COORD
    &PRINT
      &SYMMETRY
        CHECK_SYMMETRY 23
      &END SYMMETRY
    &END PRINT
    &TOPOLOGY
      CONNECTIVITY OFF
    &END TOPOLOGY
  &END SUBSYS
&END FORCE_EVAL
