&FORCE_EVAL
  METHOD Quickstep
  &DFT
    LSD
    &QS
      METHOD PM6
      &SE
      &END
    &END QS
    &SCF
      MAX_SCF 0
    &END SCF
  &END DFT
  &SUBSYS
    &CELL
#CuPt    & R(-3)m (#167) & hR32 & L1_1
     A   3.70000000  1.80000000  1.80000000
     B   1.80000000  3.70000000  1.80000000
     C   1.80000000  1.80000000  3.70000000
    &END CELL
    &COORD
 SCALED
Cu   .00000000   .00000000   .00000000      .00000000   .00000000   .00000000
Pt   .50000000   .50000000   .50000000     3.65000000  3.65000000  3.65000000
    &END COORD
    &PRINT
      &SYMMETRY
       CHECK_SYMMETRY 23
      &END
    &END
    &TOPOLOGY
      CONNECTIVITY OFF
    &END
  &END SUBSYS
&END FORCE_EVAL
&GLOBAL
  PROJECT c_28_CuPt
  RUN_TYPE ENERGY
&END GLOBAL
