&FORCE_EVAL
  METHOD Quickstep
  &DFT
    &QS
      METHOD PM6
      &SE
      &END
    &END QS
    &SCF
      MAX_SCF 0
    &END SCF
  &END DFT
  &SUBSYS
    &CELL
#SC16 AlSb & P2_13 - T^4 #198 & cP16
     A   7.48411000  0.00000000  0.00000000
     B   0.00000000  7.48411000  0.00000000
     C   0.00000000  0.00000000  7.48411000
    &END CELL
    &COORD
 SCALED
Al  0.14969983  0.14969983  0.14969983     1.12037000  1.12037000  1.12037000
Al  0.64970050  0.35030084  0.85030017     4.86243000  2.62169000  6.36374000
Al  0.85030017  0.64970050  0.35030084     6.36374000  4.86243000  2.62169000
Al  0.35030084  0.85030017  0.64970050     2.62169000  6.36374000  4.86243000
Al  0.85030017  0.85030017  0.85030017     6.36374000  6.36374000  6.36374000
Al  0.35030084  0.64970050  0.14969983     2.62169000  4.86243000  1.12037000
Al  0.14969983  0.35030084  0.64970050     1.12037000  2.62169000  4.86243000
Al  0.64970050  0.14969983  0.35030084     4.86243000  1.12037000  2.62169000
Sb  0.35030084  0.35030084  0.35030084     2.62169000  2.62169000  2.62169000
Sb  0.85030017  0.14969983  0.64970050     6.36374000  1.12037000  4.86243000
Sb  0.64970050  0.85030017  0.14969983     4.86243000  6.36374000  1.12037000
Sb  0.14969983  0.64970050  0.85030017     1.12037000  4.86243000  6.36374000
Sb  0.64970050  0.64970050  0.64970050     4.86243000  4.86243000  4.86243000
Sb  0.14969983  0.85030017  0.35030084     1.12037000  6.36374000  2.62169000
Sb  0.35030084  0.14969983  0.85030017     2.62169000  1.12037000  6.36374000
Sb  0.85030017  0.35030084  0.14969983     6.36374000  2.62169000  1.12037000
    &END COORD
    &PRINT
      &SYMMETRY
       CHECK_SYMMETRY m<3>
      &END
    &END
    &TOPOLOGY
      CONNECTIVITY OFF
    &END
  &END SUBSYS
&END FORCE_EVAL
&GLOBAL
  PROJECT c_29_SC16
  RUN_TYPE ENERGY
&END GLOBAL
