&FORCE_EVAL
  METHOD Quickstep
  &DFT
    &QS
      METHOD PM6
      &SE
      &END
    &END QS
    &SCF
      MAX_SCF 0
    &END SCF
  &END DFT
  &SUBSYS
    &CELL
#Al_{12} W & Im(-3) & T_h^5 & #204 & cI26
     A  -3.79015000  3.79015000  3.79015000
     B   3.79015000 -3.79015000  3.79015000
     C   3.79015000  3.79015000 -3.79015000
    &END CELL
    &COORD
 SCALED
W   0.00000000  0.00000000  0.00000000     0.00000000  0.00000000  0.00000000
Al  0.49300000  0.30900000  0.18400000     0.00000000  1.39477520  2.34231270
Al  0.12500000  0.30900000 -0.18400000     0.00000000 -1.39477520  2.34231270
Al -0.12500000 -0.30900000  0.18400000     0.00000000  1.39477520 -2.34231270
Al -0.49300000 -0.30900000 -0.18400000     0.00000000 -1.39477520 -2.34231270
Al  0.18400000  0.49300000  0.30900000     2.34231270  0.00000000  1.39477520
Al -0.18400000  0.12500000  0.30900000     2.34231270  0.00000000 -1.39477520
Al  0.18400000 -0.12500000 -0.30900000    -2.34231270  0.00000000  1.39477520
Al -0.18400000 -0.49300000 -0.30900000    -2.34231270  0.00000000 -1.39477520
Al  0.30900000  0.18400000  0.49300000     1.39477520  2.34231270  0.00000000
Al  0.30900000 -0.18400000  0.12500000    -1.39477520  2.34231270  0.00000000
Al -0.30900000  0.18400000 -0.12500000     1.39477520 -2.34231270  0.00000000
Al -0.30900000 -0.18400000 -0.49300000    -1.39477520 -2.34231270  0.00000000
    &END COORD
    &PRINT
      &SYMMETRY
       CHECK_SYMMETRY m<3>
      &END
    &END
    &TOPOLOGY
      CONNECTIVITY OFF
    &END
  &END SUBSYS
&END FORCE_EVAL
&GLOBAL
  PROJECT c_29_Al12W
  RUN_TYPE ENERGY
&END GLOBAL
