&FORCE_EVAL
  METHOD Quickstep
  &DFT
    &QS
      METHOD PM6
      &SE
      &END
    &END QS
    &SCF
      MAX_SCF 0
    &END SCF
  &END DFT
  &SUBSYS
    &CELL
#As_3 Co & Im(-3) -- T^5_h (#204) & cI32 & D0_3 & Skutterudite & Ni for Co
     A  -4.10275000  4.10275000  4.10275000
     B   4.10275000 -4.10275000  4.10275000
     C   4.10275000  4.10275000 -4.10275000
    &END CELL
    &COORD
 SCALED
Ni   .50000000   .50000000   .50000000     2.05137500  2.05137500  2.05137500
Ni   .50000000   .00000000   .00000000    -2.05137500  2.05137500  2.05137500
Ni   .00000000   .50000000   .00000000     2.05137500 -2.05137500  2.05137500
Ni   .00000000   .00000000   .50000000     2.05137500  2.05137500 -2.05137500
As   .49560002   .15140004   .34419999      .00000000  2.82433300  1.24231300
As   .19279995  -.15140004   .34419999     -.00000000  2.82433300 -1.24231300
As   .34419999   .49560002   .15140004     1.24231300   .00000000  2.82433300
As   .34419999   .19279995  -.15140004    -1.24231300   .00000000  2.82433300
As   .15140004   .34419999   .49560002     2.82433300  1.24231300   .00000000
As  -.15140004   .34419999   .19279995     2.82433300 -1.24231300  -.00000000
As  -.49560002  -.15140004  -.34419999     -.00000000 -2.82433300 -1.24231300
As  -.19279995   .15140004  -.34419999      .00000000 -2.82433300  1.24231300
As  -.34419999  -.49560002  -.15140004    -1.24231300  -.00000000 -2.82433300
As  -.34419999  -.19279995   .15140004     1.24231300  -.00000000 -2.82433300
As  -.15140004  -.34419999  -.49560002    -2.82433300 -1.24231300  -.00000000
As   .15140004  -.34419999  -.19279995    -2.82433300  1.24231300   .00000000
    &END COORD
    &PRINT
      &SYMMETRY
       CHECK_SYMMETRY m<3>
      &END
    &END
    &TOPOLOGY
      CONNECTIVITY OFF
    &END
  &END SUBSYS
&END FORCE_EVAL
&GLOBAL
  PROJECT c_29_skutterudite
  RUN_TYPE ENERGY
&END GLOBAL
