&GLOBAL
  PROJECT c_29_BC8
  RUN_TYPE ENERGY
&END GLOBAL

&FORCE_EVAL
  METHOD Quickstep
  &DFT
    &QS
      METHOD PM6
      &SE
      &END SE
    &END QS
    &SCF
      MAX_SCF 0
    &END SCF
  &END DFT
  &SUBSYS
    &CELL
      #Silicon bc8 phase & Space group Ia(-3) (#206)
      A -3.32000000 3.32000000 3.32000000
      B 3.32000000 -3.32000000 3.32000000
      C 3.32000000 3.32000000 -3.32000000
    &END CELL
    &COORD
      SCALED
      Si   .20059940   .20059940   .20059940      .66599000   .66599000   .66599000
      Si  -.20059940  -.20059940  -.20059940     -.66599000  -.66599000  -.66599000
      Si   .29940060   .50000000   .00000000      .66599000  -.66599000  2.65401000
      Si  -.29940060  -.50000000   .00000000     -.66599000   .66599000 -2.65401000
      Si   .00000000   .29940060   .50000000     2.65401000   .66599000  -.66599000
      Si   .00000000  -.29940060  -.50000000    -2.65401000  -.66599000   .66599000
      Si   .50000000   .00000000   .29940060     -.66599000  2.65401000   .66599000
      Si  -.50000000   .00000000  -.29940060      .66599000 -2.65401000  -.66599000
    &END COORD
    &PRINT
      &SYMMETRY
        CHECK_SYMMETRY m<3>
      &END SYMMETRY
    &END PRINT
    &TOPOLOGY
      CONNECTIVITY OFF
    &END TOPOLOGY
  &END SUBSYS
&END FORCE_EVAL
