&FORCE_EVAL
  METHOD Quickstep
  &DFT
    &QS
      METHOD PM6
      &SE
      &END
    &END QS
    &SCF
      MAX_SCF 0
    &END SCF
  &END DFT
  &SUBSYS
    &CELL
#alpha-Pu & mP16 & P2_1/m -- C_{2h}^2  (#11) & H used to denote unit cell bounda
     A   6.18300000  0.00000000  0.00000000
     B   0.00000000  4.82200000  0.00000000
     C  -2.23814410  0.00000000 10.73210510
    &END CELL
    &COORD
 SCALED
#replace Pu by Te
H   0.00000000  0.00000000  0.00000000     0.00000000  0.00000000  0.00000000
H   1.00000000  0.00000000  0.00000000     6.18300000  0.00000000  0.00000000
H   0.00000000  1.00000000  0.00000000     0.00000000  4.82200000  0.00000000
H   1.00000000  1.00000000  0.00000000     6.18300000  4.82200000  0.00000000
H   0.00000000  0.00000000  1.00000000    -2.23814410  0.00000000 10.73210510
H   1.00000000  0.00000000  1.00000000     3.94485590  0.00000000 10.73210510
H   0.00000000  1.00000000  1.00000000    -2.23814410  4.82200000 10.73210510
H   1.00000000  1.00000000  1.00000000     3.94485590  4.82200000 10.73210510
Te  0.34499999  0.25000000  0.16200000     1.77055560  1.20550000  1.73860100
Te -0.34499999 -0.25000000 -0.16200000    -1.77055560 -1.20550000 -1.73860100
Te  0.76700000  0.25000000  0.16800000     4.36635280  1.20550000  1.80299370
Te -0.76700000 -0.25000000 -0.16800000    -4.36635280 -1.20550000 -1.80299370
Te  0.12800000  0.25000000  0.34000000     0.03045500  1.20550000  3.64891570
Te -0.12800000 -0.25000000 -0.34000000    -0.03045500 -1.20550000 -3.64891570
Te  0.65699999  0.25000000  0.45700000     3.03939910  1.20550000  4.90457200
Te -0.65699999 -0.25000000 -0.45700000    -3.03939910 -1.20550000 -4.90457200
Te  0.02499999  0.25000000  0.61800000    -1.22859810  1.20550000  6.63244090
Te -0.02499999 -0.25000000 -0.61800000     1.22859810 -1.20550000 -6.63244090
Te  0.47300000  0.25000000  0.65300000     1.46305090  1.20550000  7.00806460
Te -0.47300000 -0.25000000 -0.65300000    -1.46305090 -1.20550000 -7.00806460
Te  0.32799999  0.25000000  0.92600000    -0.04449750  1.20550000  9.93792930
Te -0.32799999 -0.25000000 -0.92600000     0.04449750 -1.20550000 -9.93792930
Te  0.86899999  0.25000000  0.89400000     3.37212610  1.20550000  9.59450200
Te -0.86899999 -0.25000000 -0.89400000    -3.37212610 -1.20550000 -9.59450200
    &END COORD
    &PRINT
      &SYMMETRY
       CHECK_SYMMETRY <1>
      &END
    &END
    &TOPOLOGY
      CONNECTIVITY OFF
    &END
  &END SUBSYS
&END FORCE_EVAL
&GLOBAL
  PROJECT c_2_aPu
  RUN_TYPE ENERGY
&END GLOBAL
