&FORCE_EVAL
  METHOD Quickstep
  &DFT
    &QS
      METHOD PM6
      &SE
      &END
    &END QS
    &SCF
      MAX_SCF 0
    &END SCF
  &END DFT
  &SUBSYS
    &CELL
#Cu_3S_4V & Sulvanite & P(-4)3m #215 T^1_d & H2_4 & cP8
     A   5.39120000   .00000000   .00000000
     B    .00000000  5.39120000   .00000000
     C    .00000000   .00000000  5.39120000
    &END CELL
    &COORD
 SCALED
V    .00000000   .00000000   .00000000      .00000000   .00000000   .00000000
Cu   .50000000   .00000000   .00000000     2.69560000   .00000000   .00000000
Cu   .00000000   .50000000   .00000000      .00000000  2.69560000   .00000000
Cu   .00000000   .00000000   .50000000      .00000000   .00000000  2.69560000
S    .23720007   .23720007   .23720007     1.27879300  1.27879300  1.27879300
S    .23720007  -.23720007  -.23720007     1.27879300 -1.27879300 -1.27879300
S   -.23720007   .23720007  -.23720007    -1.27879300  1.27879300 -1.27879300
S   -.23720007  -.23720007   .23720007    -1.27879300 -1.27879300  1.27879300
    &END COORD
    &PRINT
      &SYMMETRY
       CHECK_SYMMETRY <4>3m
      &END
    &END
    &TOPOLOGY
      CONNECTIVITY OFF
    &END
  &END SUBSYS
&END FORCE_EVAL
&GLOBAL
  PROJECT c_31_sulvanite
  RUN_TYPE ENERGY
&END GLOBAL
