&FORCE_EVAL
  METHOD Quickstep
  &DFT
    &QS
      METHOD PM6
      &SE
      &END
    &END QS
    &SCF
      MAX_SCF 0
    &END SCF
  &END DFT
  &SUBSYS
    &CELL
#AsCu_3S_4 & Lazarevicite & P(-4)3m #215 T^1_d & cP8 & Pearson's Handbook
     A   5.28000000  0.00000000  0.00000000
     B   0.00000000  5.28000000  0.00000000
     C   0.00000000  0.00000000  5.28000000
    &END CELL
    &COORD
 SCALED
As  0.00000000  0.00000000  0.00000000     0.00000000  0.00000000  0.00000000
Cu  0.00000000  0.50000000  0.50000000     0.00000000  2.64000000  2.64000000
Cu  0.50000000  0.00000000  0.50000000     2.64000000  0.00000000  2.64000000
Cu  0.50000000  0.50000000  0.00000000     2.64000000  2.64000000  0.00000000
S   0.25000000  0.25000000  0.25000000     1.32000000  1.32000000  1.32000000
S  -0.25000000 -0.25000000  0.25000000    -1.32000000 -1.32000000  1.32000000
S  -0.25000000  0.25000000 -0.25000000    -1.32000000  1.32000000 -1.32000000
S   0.25000000 -0.25000000 -0.25000000     1.32000000 -1.32000000 -1.32000000
    &END COORD
    &PRINT
      &SYMMETRY
       CHECK_SYMMETRY <4>3m
      &END
    &END
    &TOPOLOGY
      CONNECTIVITY OFF
    &END
  &END SUBSYS
&END FORCE_EVAL
&GLOBAL
  PROJECT c_31_AsCu3S4
  RUN_TYPE ENERGY
&END GLOBAL
