&FORCE_EVAL
  METHOD Quickstep
  &DFT
    &QS
      METHOD PM6
      &SE
      &END
    &END QS
    &SCF
      MAX_SCF 0
    &END SCF
  &END DFT
  &SUBSYS
    &CELL
#Si F_4 & I(-4)3m-T_d^3 #197 & cI10 & Wyckoff, Vol. II, p 127
     A  -2.70500000  2.70500000  2.70500000
     B   2.70500000 -2.70500000  2.70500000
     C   2.70500000  2.70500000 -2.70500000
    &END CELL
    &COORD
 SCALED
Si  0.00000000  0.00000000  0.00000000     0.00000000  0.00000000  0.00000000
F   0.33000000  0.33000000  0.33000000     0.89265000  0.89265000  0.89265000
F  -0.33000000  0.00000000  0.00000000     0.89265000 -0.89265000 -0.89265000
F   0.00000000 -0.33000000  0.00000000    -0.89265000  0.89265000 -0.89265000
F   0.00000000  0.00000000 -0.33000000    -0.89265000 -0.89265000  0.89265000
    &END COORD
    &PRINT
      &SYMMETRY
       CHECK_SYMMETRY <4>3m
      &END
    &END
    &TOPOLOGY
      CONNECTIVITY OFF
    &END
  &END SUBSYS
&END FORCE_EVAL
&GLOBAL
  PROJECT c_31_SiF4
  RUN_TYPE ENERGY
&END GLOBAL
