&FORCE_EVAL
  METHOD Quickstep
  &DFT
    &QS
      METHOD PM6
      &SE
      &END
    &END QS
    &SCF
      MAX_SCF 0
    &END SCF
  &END DFT
  &SUBSYS
    &CELL
#Fe_4 C & P(-4)3m (#215) & cP5
     A   3.87800000   .00000000   .00000000
     B    .00000000  3.87800000   .00000000
     C    .00000000   .00000000  3.87800000
    &END CELL
    &COORD
 SCALED
C    .00000000   .00000000   .00000000      .00000000   .00000000   .00000000
Fe   .26500000   .26500000   .26500000     1.02767000  1.02767000  1.02767000
Fe   .26500000  -.26500000  -.26500000     1.02767000 -1.02767000 -1.02767000
Fe  -.26500000   .26500000  -.26500000    -1.02767000  1.02767000 -1.02767000
Fe  -.26500000  -.26500000   .26500000    -1.02767000 -1.02767000  1.02767000
    &END COORD
    &PRINT
      &SYMMETRY
       CHECK_SYMMETRY <4>3m
      &END
    &END
    &TOPOLOGY
      CONNECTIVITY OFF
    &END
  &END SUBSYS
&END FORCE_EVAL
&GLOBAL
  PROJECT c_31_Fe4C
  RUN_TYPE ENERGY
&END GLOBAL
