
&FORCE_EVAL
  METHOD Quickstep
  &DFT
    &QS
      METHOD MNDO
      &SE
        PERIODIC EWALD
        &COULOMB
          CUTOFF   [angstrom] 15.0
          RC_RANGE             0.001
        &END
        &EXCHANGE
          RC_TAPER [angstrom] 15.0
          RC_RANGE             0.001
        &END
        &PRINT
          &EWALD_INFO
          &END
        &END
      &END
    &END QS
    &SCF
      EPS_SCF 1.0E-5
      SCF_GUESS CORE
      &PRINT
         &RESTART OFF
         &END
      &END
    &END SCF
    &POISSON
      &EWALD
        &MULTIPOLES
          MAX_MULTIPOLE_EXPANSION QUADRUPOLE
        &END
        EWALD_TYPE ewald
        ALPHA  .5
        GMAX   21
      &END EWALD
    &END
  &END DFT
  &SUBSYS
    &CELL
      ABC 10.0 10.0 10.0
      PERIODIC NONE
    &END CELL
    &COORD
    O   0.000000    0.000000    0.0
#    O   0.000000    0.000000    1.4
    H   0.000000   -0.757136    0.520545
    H   0.000000    0.757136    0.520545
    &END COORD
  &END SUBSYS
&END FORCE_EVAL
&GLOBAL
  PROJECT H2O
#  RUN_TYPE ENERGY_FORCE
  RUN_TYPE DEBUG
&END GLOBAL
&DEBUG
DEBUG_STRESS_TENSOR F
&END
