
&FORCE_EVAL
  METHOD Quickstep
  &DFT
    &MGRID
      CUTOFF 200
    &END
    &QS
      METHOD MNDO
      &SE
       ANALYTICAL_GRADIENTS T
       STO_NG 6
      &END
    &END QS
    &SCF
      EPS_SCF 1.0E-5
      SCF_GUESS ATOMIC
    &END SCF
    &PRINT
      &MO_CUBES
        WRITE_CUBE
        NLUMO 2
        NHOMO 2
        STRIDE 1 1 1
      &END
    &END
  &END DFT
  &SUBSYS
    &CELL
      ABC 10.0 10.0 10.0
      UNIT ANGSTROM
      PERIODIC NONE
    &END CELL
    &COORD
    O   5.000000    5.000000    4.945587
    H   5.000000    4.253136    5.520545
    H   5.000000    5.757136    5.520545
    &END COORD
  &END SUBSYS
&END FORCE_EVAL
&GLOBAL
  PRINT_LEVEL DEBUG
  RUN_TYPE ENERGY_FORCE
  PROJECT H2O
&END GLOBAL
