
&FORCE_EVAL
  METHOD Quickstep
  &DFT
    &QS
      METHOD PM6
      &SE
        INTEGRAL_SCREENING KDSO-D
        PERIODIC EWALD
        &COULOMB
          CUTOFF   [angstrom]     6.0
          RC_RANGE [angstrom]     0.1
        &END
        &EXCHANGE
          CUTOFF   [angstrom]     6.0
          RC_RANGE [angstrom]     0.1
        &END
        &SCREENING
          RC_TAPER [angstrom]     6.0
          RC_RANGE [angstrom]     0.1
        &END
        &LR_CORRECTION
          CUTOFF   [angstrom]     6.0
          RC_RANGE [angstrom]     0.1
        &END
        &PRINT
          &EWALD_INFO
          &END
        &END
      &END
    &END QS
    &SCF
      MAX_SCF 30
      EPS_SCF 1.0E-7
      SCF_GUESS RANDOM
      &OT
        MINIMIZER CG
        N_DIIS 7
        PRECONDITIONER FULL_SINGLE_INVERSE
      &END
      &OUTER_SCF
        MAX_SCF 6
        EPS_SCF 1.0E-7
      &END
      &PRINT
         &RESTART OFF
         &END
      &END
    &END SCF
    &POISSON
      &EWALD
        &MULTIPOLES
          MAX_MULTIPOLE_EXPANSION QUADRUPOLE
        &END
        EWALD_TYPE ewald
        ALPHA  0.5
        GMAX   51
      &END EWALD
    &END
  &END DFT
  &SUBSYS
    &CELL
      ABC [angstrom]  3.0 3.0 3.0
      ALPHA_BETA_GAMMA [deg]  90.00000   90.0 90.0
    &END CELL
    &COORD
       H                    .00000000     .00000000     .00000000
       Cl                  0.80000000    1.00000000    0.50000000
# SCALED
# SI1    0.47010   -0.00000    0.33333 
# OX1    0.41360    0.26760    0.21410 
# SI1    0.00000    0.47010    0.66667 
# OX1    0.73240    0.14600    0.54743 
# SI1    0.52990    0.52990    0.00000 
# OX1    0.85400    0.58640    0.88077 
# OX1    0.26760    0.41360    0.78590 
# OX1    0.14600    0.73240    0.45257 
# OX1    0.58640    0.85400    0.11923 
    &END
    &TOPOLOGY
      CONNECTIVITY OFF
    &END
    &KIND OX1
      ELEMENT O
    &END
    &KIND SI1
      ELEMENT Si
    &END
  &END SUBSYS
  &PRINT
    &FORCES
    &END
  &END
  STRESS_TENSOR ANALYTICAL
&END FORCE_EVAL
&GLOBAL
  PRINT_LEVEL LOW
  PROJECT ST1
  RUN_TYPE DEBUG
&END GLOBAL
&DEBUG
  DEBUG_FORCES T
  DEBUG_STRESS_TENSOR F
  DX 0.0001
&END
