&GLOBAL
  PRINT_LEVEL MEDIUM
  PROGRAM_NAME TEST
  RUN_TYPE NONE
  &DBCSR
    MM_DRIVER BLAS
  &END DBCSR
  &TIMINGS
    THRESHOLD 0.00000000001
  &END TIMINGS
&END GLOBAL

&TEST
  &CP_DBCSR
    ASPARSITY 0.05
    BSPARSITY 0.05
    BS_M 1 13 2 5
    BS_N 1 4
    CSPARSITY 0.05
    K 300
    M 170
    N 200
    N_LOOP 3
    TRANSA FALSE
    TRANSB TRUE
  &END CP_DBCSR
&END TEST
