@SET NREP 1
&FORCE_EVAL
  &DFT
    BASIS_SET_FILE_NAME GTH_BASIS_SETS
    POTENTIAL_FILE_NAME POTENTIAL
    &MGRID
      CUTOFF 120
      REL_CUTOFF 30
    &END MGRID
    &QS
      METHOD GPW
      EPS_DEFAULT 1.0E-12
      EXTRAPOLATION USE_GUESS
    &END QS
    &SCF
      EPS_SCF 1.0E-6
      SCF_GUESS ATOMIC
      MAX_SCF  5
      &MIXING
          METHOD DIRECT_P_MIXING
          ALPHA   0.70
      &END
    &END SCF
    &XC
      &XC_FUNCTIONAL PADE
      &END XC_FUNCTIONAL
    &END XC
    &KPOINTS
       SCHEME  MONKHORST-PACK  2 2 2
       SYMMETRY OFF
       EPS_GEO 1.e-8
       FULL_GRID OFF
       VERBOSE F
       PARALLEL_GROUP_SIZE  0
    &END KPOINTS
  &END DFT
  &SUBSYS
    &TOPOLOGY
      MULTIPLE_UNIT_CELL ${NREP} ${NREP} ${NREP}
    &END
    &CELL
      ABC 3.56683 3.56683 3.56683
      MULTIPLE_UNIT_CELL ${NREP} ${NREP} ${NREP}
    &END CELL
    &COORD
     SCALED
     C     0.000000    0.000000    0.000000
     C     0.500000    0.500000    0.000000
     C     0.500000    0.000000    0.500000
     C     0.000000    0.500000    0.500000
     C     0.250000    0.250000    0.250000
     C     0.250000    0.750000    0.750000
     C     0.750000    0.250000    0.750000
     C     0.750000    0.750000    0.250000
    &END COORD
    &KIND C
      BASIS_SET DZVP-GTH
      POTENTIAL GTH-PADE-q4
    &END KIND
  &END SUBSYS
&END FORCE_EVAL
&GLOBAL
  PROJECT C
  PRINT_LEVEL LOW
&END GLOBAL
