&GLOBAL
  PRINT_LEVEL LOW
  PROJECT H_CANONICAL_CART_KPSYM
  RUN_TYPE ENERGY
&END GLOBAL

&FORCE_EVAL
  &DFT
    BASIS_SET_FILE_NAME GTH_BASIS_SETS
    POTENTIAL_FILE_NAME POTENTIAL
    &KPOINTS
      EPS_SYMMETRY 1.e-8
      FULL_GRID OFF
      PARALLEL_GROUP_SIZE -1
      SCHEME MONKHORST-PACK 2 2 2
      SYMMETRY ON
      VERBOSE T
    &END KPOINTS
    &MGRID
      CUTOFF 280
      REL_CUTOFF 50
    &END MGRID
    &QS
      EPS_DEFAULT 1.0E-12
      METHOD GPW
    &END QS
    &SCF
      CHOLESKY OFF
      EPS_EIGVAL 1.e-8
      EPS_SCF 1.0E-8
      MAX_SCF 20
      SCF_GUESS ATOMIC
      &MIXING
        ALPHA 0.50
        METHOD BROYDEN_MIXING
      &END MIXING
      &PRINT
        &RESTART OFF
        &END RESTART
      &END PRINT
    &END SCF
    &XC
      &XC_FUNCTIONAL PADE
      &END XC_FUNCTIONAL
    &END XC
  &END DFT
  &SUBSYS
    &CELL
      A 0.0 3.56683 0.0
      B 3.56683 0.0 0.0
      C 0.0 0.0 3.56683
    &END CELL
    &COORD
      UNIT ANGSTROM
      H     0.0000000    0.3566830    0.0000000
      H     1.7834150    1.7834150    0.0000000
      H     0.0000000    1.7834150    1.7834150
      H     1.7834150    0.0000000    1.7834150
      H     0.8917075    0.8917075    0.8917075
      H     2.6751225    0.8917075    2.6751225
      H     0.8917075    2.6751225    2.6751225
      H     2.6751225    2.6751225    0.8917075
    &END COORD
    &KIND H
      BASIS_SET SZV-GTH
      POTENTIAL GTH-PADE-q1
    &END KIND
  &END SUBSYS
&END FORCE_EVAL
