&GLOBAL
  PRINT_LEVEL LOW
  PROJECT H_MONO_SYM_RED
  RUN_TYPE ENERGY
&END GLOBAL

&FORCE_EVAL
  &DFT
    BASIS_SET_FILE_NAME GTH_BASIS_SETS
    POTENTIAL_FILE_NAME POTENTIAL
    &KPOINTS
      EPS_SYMMETRY 1.e-8
      FULL_GRID OFF
      PARALLEL_GROUP_SIZE -1
      SCHEME MONKHORST-PACK 2 2 2
      SYMMETRY ON
    &END KPOINTS
    &MGRID
      CUTOFF 140
      REL_CUTOFF 35
    &END MGRID
    &QS
      EPS_DEFAULT 1.0E-10
      METHOD GPW
    &END QS
    &SCF
      CHOLESKY OFF
      EPS_EIGVAL 1.e-8
      EPS_SCF 1.0E-9
      MAX_SCF 80
      SCF_GUESS ATOMIC
      &MIXING
        ALPHA 0.35
        METHOD BROYDEN_MIXING
      &END MIXING
      &PRINT
        &RESTART OFF
        &END RESTART
      &END PRINT
    &END SCF
    &XC
      &XC_FUNCTIONAL PADE
      &END XC_FUNCTIONAL
    &END XC
  &END DFT
  &SUBSYS
    &CELL
      A 4.8000000000 0.0000000000 0.0000000000
      B 0.0000000000 6.2000000000 0.0000000000
      C 1.7000000000 0.0000000000 7.3000000000
    &END CELL
    &COORD
      SCALED
      H   0.17000000   0.23000000   0.31000000
      H   0.83000000   0.23000000   0.69000000
      H   0.41000000   0.62000000   0.12000000
      H   0.59000000   0.62000000   0.88000000
      H   0.73000000   0.18000000   0.57000000
      H   0.27000000   0.18000000   0.43000000
    &END COORD
    &KIND H
      BASIS_SET SZV-GTH
      POTENTIAL GTH-PADE-q1
    &END KIND
  &END SUBSYS
&END FORCE_EVAL
