&GLOBAL
  PRINT_LEVEL LOW
  PROJECT H_TETRA_C4_SYM_RED
  RUN_TYPE ENERGY
&END GLOBAL

&FORCE_EVAL
  &DFT
    BASIS_SET_FILE_NAME GTH_BASIS_SETS
    POTENTIAL_FILE_NAME POTENTIAL
    &KPOINTS
      EPS_SYMMETRY 1.e-8
      FULL_GRID OFF
      PARALLEL_GROUP_SIZE -1
      SCHEME MONKHORST-PACK 2 2 2
      SYMMETRY ON
    &END KPOINTS
    &MGRID
      CUTOFF 100
      REL_CUTOFF 30
    &END MGRID
    &QS
      EPS_DEFAULT 1.0E-10
      METHOD GPW
    &END QS
    &SCF
      CHOLESKY OFF
      EPS_EIGVAL 1.e-8
      EPS_SCF 1.0E-8
      MAX_SCF 80
      SCF_GUESS ATOMIC
      &MIXING
        ALPHA 0.35
        METHOD BROYDEN_MIXING
      &END MIXING
      &PRINT
        &RESTART OFF
        &END RESTART
      &END PRINT
    &END SCF
    &XC
      &XC_FUNCTIONAL PADE
      &END XC_FUNCTIONAL
    &END XC
  &END DFT
  &SUBSYS
    &CELL
      ABC 5.1000000000 5.1000000000 7.3000000000
    &END CELL
    &COORD
      SCALED
      H   0.17000000   0.29000000   0.23000000
      H   0.71000000   0.17000000   0.23000000
      H   0.83000000   0.71000000   0.23000000
      H   0.29000000   0.83000000   0.23000000
      H   0.11000000   0.37000000   0.61000000
      H   0.63000000   0.11000000   0.61000000
      H   0.89000000   0.63000000   0.61000000
      H   0.37000000   0.89000000   0.61000000
    &END COORD
    &KIND H
      BASIS_SET SZV-GTH
      POTENTIAL GTH-PADE-q1
    &END KIND
  &END SUBSYS
&END FORCE_EVAL
