&GLOBAL
  PRINT_LEVEL LOW
  PROJECT HE_SC_WANNIER90_SCF_SYM
  RUN_TYPE ENERGY
&END GLOBAL

&FORCE_EVAL
  &DFT
    BASIS_SET_FILE_NAME BASIS_MOLOPT_UZH
    POTENTIAL_FILE_NAME POTENTIAL_UZH
    &KPOINTS
      EPS_SYMMETRY 1.e-8
      FULL_GRID OFF
      SCHEME MONKHORST-PACK 2 2 2
      SYMMETRY ON
      SYMMETRY_BACKEND K290
      VERBOSE T
      WAVEFUNCTIONS COMPLEX
    &END KPOINTS
    &MGRID
      CUTOFF 100
      REL_CUTOFF 30
    &END MGRID
    &PRINT
      &WANNIER90 ON
        KPOINTS_SOURCE SCF
        SEED_NAME HE_SC_WANNIER90_SCF_SYM
        WANNIER_FUNCTIONS 1
      &END WANNIER90
    &END PRINT
    &QS
      EPS_DEFAULT 1.0E-10
      METHOD GPW
    &END QS
    &SCF
      CHOLESKY OFF
      EPS_EIGVAL 1.e-8
      EPS_SCF 1.0E-9
      MAX_SCF 100
      SCF_GUESS ATOMIC
      &MIXING
        ALPHA 0.50
        METHOD BROYDEN_MIXING
      &END MIXING
      &PRINT
        &RESTART OFF
        &END RESTART
      &END PRINT
    &END SCF
    &XC
      &XC_FUNCTIONAL PBE
      &END XC_FUNCTIONAL
    &END XC
  &END DFT
  &SUBSYS
    &CELL
      ABC 4.0 4.0 4.0
    &END CELL
    &COORD
      SCALED
      He    0.500000    0.500000    0.500000
    &END COORD
    &KIND He
      BASIS_SET ORB DZVP-MOLOPT-GGA-GTH-q2
      POTENTIAL GTH-GGA-q2
    &END KIND
  &END SUBSYS
&END FORCE_EVAL
