       3
 i =        0, time =        0.000, E =         0.0000000000
  C        12.0000000000       10.0000000000       10.0000000000
  H        10.0000000000       10.0000000000       10.0000000000
  O        10.0000000000       13.0000000000       10.0000000000
       3
 i =        1, time =        0.250, E =         0.0000000000
  C        11.9990947524       10.0006412199       10.0005469228
  H         9.9990947005        9.9995474222       10.0000000000
  O        10.0007355169       12.9995473712        9.9995898079
       3
 i =        2, time =        0.500, E =         0.0000000000
  C        11.9981895129       10.0012824397       10.0010938456
  H         9.9981893050        9.9990949403       10.0000000000
  O        10.0014710338       12.9990947365        9.9991796158
       3
 i =        3, time =        0.750, E =         0.0000000000
  C        11.9972842813       10.0019236596       10.0016407684
  H         9.9972838134        9.9986425546        9.9999999998
  O        10.0022065506       12.9986420957        9.9987694237
       3
 i =        4, time =        1.000, E =         0.0000000000
  C        11.9963790578       10.0025648794       10.0021876913
  H         9.9963782256        9.9981902651        9.9999999996
  O        10.0029420675       12.9981894488        9.9983592316
       3
 i =        5, time =        1.250, E =         0.0000000000
  C        11.9954738424       10.0032060993       10.0027346141
  H         9.9954725413        9.9977380721        9.9999999992
  O        10.0036775844       12.9977367960        9.9979490395
       3
 i =        6, time =        1.500, E =         0.0000000000
  C        11.9945686350       10.0038473193       10.0032815370
  H         9.9945667605        9.9972859756        9.9999999986
  O        10.0044131012       12.9972841371        9.9975388474
       3
 i =        7, time =        1.750, E =         0.0000000000
  C        11.9936634357       10.0044885392       10.0038284598
  H         9.9936608829        9.9968339758        9.9999999978
  O        10.0051486180       12.9968314721        9.9971286553
       3
 i =        8, time =        2.000, E =         0.0000000000
  C        11.9927582445       10.0051297592       10.0043753827
  H         9.9927549085        9.9963820728        9.9999999967
  O        10.0058841348       12.9963788011        9.9967184632
       3
 i =        9, time =        2.250, E =         0.0000000000
  C        11.9918530615       10.0057709792       10.0049223056
  H         9.9918488372        9.9959302669        9.9999999952
  O        10.0066196516       12.9959261239        9.9963082711
       3
 i =       10, time =        2.500, E =         0.0000000000
  C        11.9909478865       10.0064121992       10.0054692285
  H         9.9909426687        9.9954785580        9.9999999934
  O        10.0073551683       12.9954734407        9.9958980790
       3
 i =       11, time =        2.750, E =         0.0000000000
  C        11.9900427197       10.0070534193       10.0060161514
  H         9.9900364029        9.9950269465        9.9999999913
  O        10.0080906850       12.9950207513        9.9954878870
       3
 i =       12, time =        3.000, E =         0.0000000000
  C        11.9891375611       10.0076946395       10.0065630744
  H         9.9891300396        9.9945754324        9.9999999886
  O        10.0088262017       12.9945680559        9.9950776949
       3
 i =       13, time =        3.250, E =         0.0000000000
  C        11.9882324107       10.0083358597       10.0071099974
  H         9.9882235788        9.9941240159        9.9999999855
  O        10.0095617183       12.9941153543        9.9946675029
       3
 i =       14, time =        3.500, E =         0.0000000000
  C        11.9873272684       10.0089770799       10.0076569204
  H         9.9873170203        9.9936726971        9.9999999819
  O        10.0102972349       12.9936626465        9.9942573108
       3
 i =       15, time =        3.750, E =         0.0000000000
  C        11.9864221344       10.0096183002       10.0082038434
  H         9.9864103639        9.9932214762        9.9999999776
  O        10.0110327514       12.9932099326        9.9938471188
       3
 i =       16, time =        4.000, E =         0.0000000000
  C        11.9855170086       10.0102595206       10.0087507665
  H         9.9855036094        9.9927703533        9.9999999728
  O        10.0117682679       12.9927572124        9.9934369268
       3
 i =       17, time =        4.250, E =         0.0000000000
  C        11.9846118911       10.0109007411       10.0092976896
  H         9.9845967568        9.9923193286        9.9999999674
  O        10.0125037844       12.9923044861        9.9930267348
       3
 i =       18, time =        4.500, E =         0.0000000000
  C        11.9837067819       10.0115419616       10.0098446128
  H         9.9836898059        9.9918684023        9.9999999612
  O        10.0132393007       12.9918517536        9.9926165428
       3
 i =       19, time =        4.750, E =         0.0000000000
  C        11.9828016809       10.0121831822       10.0103915360
  H         9.9827827564        9.9914175744        9.9999999543
  O        10.0139748170       12.9913990149        9.9922063509
       3
 i =       20, time =        5.000, E =         0.0000000000
  C        11.9818965882       10.0128244029       10.0109384592
  H         9.9818756084        9.9909668451        9.9999999466
  O        10.0147103333       12.9909462700        9.9917961589
       3
 i =       21, time =        5.250, E =         0.0000000000
  C        11.9809915039       10.0134656237       10.0114853825
  H         9.9809683616        9.9905162146        9.9999999381
  O        10.0154458495       12.9904935188        9.9913859670
       3
 i =       22, time =        5.500, E =         0.0000000000
  C        11.9800864279       10.0141068446       10.0120323059
  H         9.9800610158        9.9900656830        9.9999999288
  O        10.0161813656       12.9900407613        9.9909757751
       3
 i =       23, time =        5.750, E =         0.0000000000
  C        11.9791813603       10.0147480656       10.0125792292
  H         9.9791535710        9.9896152506        9.9999999185
  O        10.0169168816       12.9895879976        9.9905655832
       3
 i =       24, time =        6.000, E =         0.0000000000
  C        11.9782763010       10.0153892867       10.0131261527
  H         9.9782460269        9.9891649173        9.9999999073
  O        10.0176523976       12.9891352276        9.9901553913
       3
 i =       25, time =        6.250, E =         0.0000000000
  C        11.9773712501       10.0160305079       10.0136730762
  H         9.9773383835        9.9887146835        9.9999998951
  O        10.0183879134       12.9886824514        9.9897451994
       3
 i =       26, time =        6.500, E =         0.0000000000
  C        11.9764662077       10.0166717292       10.0142199997
  H         9.9764306405        9.9882645491        9.9999998819
  O        10.0191234292       12.9882296688        9.9893350076
       3
 i =       27, time =        6.750, E =         0.0000000000
  C        11.9755611736       10.0173129507       10.0147669233
  H         9.9755227979        9.9878145145        9.9999998676
  O        10.0198589449       12.9877768798        9.9889248158
       3
 i =       28, time =        7.000, E =         0.0000000000
  C        11.9746561480       10.0179541722       10.0153138470
  H         9.9746148554        9.9873645797        9.9999998521
  O        10.0205944605       12.9873240846        9.9885146240
       3
 i =       29, time =        7.250, E =         0.0000000000
  C        11.9737511309       10.0185953939       10.0158607707
  H         9.9737068129        9.9869147450        9.9999998355
  O        10.0213299760       12.9868712830        9.9881044322
       3
 i =       30, time =        7.500, E =         0.0000000000
  C        11.9728461223       10.0192366157       10.0164076945
  H         9.9727986702        9.9864650104        9.9999998177
  O        10.0220654914       12.9864184750        9.9876942405
       3
 i =       31, time =        7.750, E =         0.0000000000
  C        11.9719411221       10.0198778377       10.0169546184
  H         9.9718904272        9.9860153761        9.9999997987
  O        10.0228010067       12.9859656607        9.9872840488
       3
 i =       32, time =        8.000, E =         0.0000000000
  C        11.9710361305       10.0205190598       10.0175015423
  H         9.9709820838        9.9855658422        9.9999997783
  O        10.0235365219       12.9855128400        9.9868738571
