2
 i = 0, time = 0.000, E = -0.0003487424
 Ar 10.0000000000 10.0000000000 10.0000000000
 Ar 14.0000000000 10.0000000000 10.0000000000
2
 i = 1, time = 0.500, E = -0.0003487425
 Ar 10.0000001701 10.0000000000 10.0000000000
 Ar 13.9999998299 10.0000000000 10.0000000000
2
 i = 2, time = 1.000, E = -0.0003487424
 Ar 10.0000000000 10.0000000000 10.0000000000
 Ar 14.0000000000 10.0000000000 10.0000000000
2
 i = 3, time = 1.500, E = -0.0003487424
 Ar 10.0000000000 10.0000000000 10.0000000000
 Ar 14.0000000000 10.0000000000 10.0000000000
2
 i = 4, time = 2.000, E = -0.0003487424
 Ar 10.0000000000 10.0000000000 10.0000000000
 Ar 14.0000000000 10.0000000000 10.0000000000
2
 i = 5, time = 2.500, E = -0.0003487424
 Ar 10.0000000000 10.0000000000 10.0000000000
 Ar 14.0000000000 10.0000000000 10.0000000000
