&GLOBAL
  PRINT_LEVEL MEDIUM
  PROGRAM_NAME TEST
  RUN_TYPE NONE
  &DBCSR
    N_SIZE_MNK_STACKS 2
  &END DBCSR
  &TIMINGS
    THRESHOLD 0.00000000001
  &END TIMINGS
&END GLOBAL

&TEST
  &CP_DBCSR
    ASPARSITY 0.05
    BSPARSITY 0.05
    BS_K 5 1 3 0 4 2
    BS_M 5 1 3 0 4 2
    BS_N 5 1 3 0 4 2
    CSPARSITY 0.05
    K 128
    M 128
    N 128
    N_LOOP 2
    TRANSA FALSE
    TRANSB FALSE
  &END CP_DBCSR
&END TEST
