&GLOBAL
  PRINT_LEVEL MEDIUM
  PROGRAM_NAME TEST
  RUN_TYPE NONE
  &TIMINGS
    THRESHOLD 0.00000000001
  &END TIMINGS
&END GLOBAL

&TEST
  &CP_DBCSR
    ASPARSITY 0.5
    BSPARSITY 0.5
    BS_K 1 5 1 13 1 16
    BS_M 1 5 1 13 1 16
    BS_N 1 5 1 13 1 16
    CSPARSITY 0.5
    DATA_TYPE real_8
    K 340
    M 340
    N 340
    TEST_TYPE Binary_io
  &END CP_DBCSR
  &CP_DBCSR
    ASPARSITY 0.5
    BSPARSITY 0.5
    BS_K 1 5 1 13 1 16
    BS_M 1 5 1 13 1 16
    BS_N 1 5 1 13 1 16
    CSPARSITY 0.5
    DATA_TYPE complex_8
    K 340
    M 340
    N 340
    TEST_TYPE Binary_io
  &END CP_DBCSR
&END TEST
