&GLOBAL
  PRINT_LEVEL MEDIUM
  PROGRAM_NAME TEST
  RUN_TYPE NONE
  &TIMINGS
     THRESHOLD 0.00000000001
  &END
&END GLOBAL
&TEST
  ! check we can do a really large, really sparse matrix in short time.
  ! good to catch non-O(N) behavior in dbcsr.
  ! matrix size and sparsity are such that the test is fast for O(N)
  ! but slow for O(N**foo) 
  &CP_DBCSR
     K 400000
     M 400000
     N 400000
     TRANSA FALSE
     TRANSB TRUE
     N_LOOP 3
     ASPARSITY 0.99999
     BSPARSITY 0.99999
     CSPARSITY 0.99999
     bs_m 1 4
     bs_n 1 4
     bs_k 1 4
  &END
&END TEST
