&GLOBAL
  PRINT_LEVEL  MEDIUM
  PROGRAM_NAME TEST
  RUN_TYPE NONE
  &TIMINGS
     THRESHOLD 0.00000000001
  &END
&END GLOBAL
&TEST
  &CP_DBCSR
     K 80
     M 80
     N 80
     TRANSA FALSE
     TRANSB TRUE
     N_LOOP 2
     ASPARSITY 0.5
     BSPARSITY 0.5
     CSPARSITY 0.5
     FILTER_EPS 0.0
     bs_m 1 0 1 1 1 2 1 3
     bs_k 1 0 1 1 1 2 1 3
     bs_n 1 0 1 1 1 2 1 3
  &END
&END TEST
