&GLOBAL
  PRINT_LEVEL MEDIUM
  PROGRAM_NAME TEST
  RUN_TYPE NONE
  &TIMINGS
     THRESHOLD 0.00000000001
  &END
  &DBCSR
    mm_driver BLAS
  &END DBCSR
&END GLOBAL
&TEST
  &CP_DBCSR
     K 300
     M 170
     N 200
     TRANSA FALSE
     TRANSB TRUE
     N_LOOP 3
     ASPARSITY 0.05
     BSPARSITY 0.05
     CSPARSITY 0.05
     bs_m 1 13 2 5
     bs_n 1 4
  &END
&END TEST
