&GLOBAL
  PRINT_LEVEL  MEDIUM
  PROGRAM_NAME TEST
  RUN_TYPE NONE
  &TIMINGS
     THRESHOLD 0.00000000001
  &END
&END GLOBAL
&TEST
  &CP_DBCSR
     K 800
     M 800
     N 800
     TRANSA FALSE
     TRANSB TRUE
     N_LOOP 2
     ASPARSITY 0.05
     BSPARSITY 0.05
     CSPARSITY 0.05
     bs_m 1 23
     bs_k 1 23
     bs_n 1 23
  &END
&END TEST
