&GLOBAL
  PRINT_LEVEL MEDIUM
  PROGRAM_NAME TEST
  RUN_TYPE NONE
  &TIMINGS
    THRESHOLD 0.00000000001
  &END TIMINGS
&END GLOBAL

&TEST
  &CP_DBCSR
    ASPARSITY 0.5
    BSPARSITY 0.5
    BS_K 1 0 1 1 1 2 1 3
    BS_M 1 0 1 1 1 2 1 3
    BS_N 1 0 1 1 1 2 1 3
    CSPARSITY 0.5
    FILTER_EPS 0.0
    K 80
    M 80
    N 80
    N_LOOP 2
    TRANSA FALSE
    TRANSB TRUE
  &END CP_DBCSR
&END TEST
