&GLOBAL
  PRINT_LEVEL MEDIUM
  PROGRAM_NAME TEST
  RUN_TYPE NONE
  &TIMINGS
     THRESHOLD 0.00000000001
  &END
  &DBCSR
    n_size_mnk_stacks 2
  &END DBCSR
&END GLOBAL
&TEST
  &CP_DBCSR
     K 128
     M 128
     N 128
     TRANSA FALSE
     TRANSB FALSE
     N_LOOP 2
     ASPARSITY 0.05
     BSPARSITY 0.05
     CSPARSITY 0.05
     bs_m 5 1 3 0 4 2
     bs_n 5 1 3 0 4 2
     bs_k 5 1 3 0 4 2
  &END
&END TEST
