&GLOBAL
  PROJECT eig
  PRINT_LEVEL MEDIUM
  PROGRAM_NAME TEST
  RUN_TYPE NONE
&END GLOBAL
&TEST
  &EIGENSOLVER
     N 13
     DIAG_METHOD syevd
  &END
  &EIGENSOLVER
     N 7
     DIAG_METHOD syevd
  &END
  &EIGENSOLVER
     N 13
     DIAG_METHOD syevx
  &END
  &EIGENSOLVER
     N 13
     EIGENVALUES 5
     DIAG_METHOD syevx
  &END
&END
