&GLOBAL
  PRINT_LEVEL MEDIUM
  PROGRAM_NAME TEST
  PROJECT test_pw
  RUN_TYPE NONE
  &TIMINGS
    THRESHOLD 0.00000000001
  &END TIMINGS
&END GLOBAL

&TEST
  @SET SIZE1 20
  @SET SIZE2 20
  @SET SIZE3 20
  &PW_TRANSFER
    GRID ${SIZE1} ${SIZE2} ${SIZE3}
    N_LOOP 10
    PW_GRID SPHERICAL
    PW_GRID_BLOCKED TRUE
  &END PW_TRANSFER
  &PW_TRANSFER
    GRID ${SIZE1} ${SIZE2} ${SIZE3}
    N_LOOP 10
    PW_GRID SPHERICAL
    PW_GRID_BLOCKED FALSE
  &END PW_TRANSFER
  &PW_TRANSFER
    GRID ${SIZE1} ${SIZE2} ${SIZE3}
    N_LOOP 10
    PW_GRID SPHERICAL
    PW_GRID_BLOCKED TRUE
    PW_GRID_LAYOUT -1 2
  &END PW_TRANSFER
  &PW_TRANSFER
    GRID ${SIZE1} ${SIZE2} ${SIZE3}
    N_LOOP 10
    PW_GRID SPHERICAL
    PW_GRID_BLOCKED FALSE
    PW_GRID_LAYOUT -1 2
  &END PW_TRANSFER
  &PW_TRANSFER
    GRID ${SIZE1} ${SIZE2} ${SIZE3}
    N_LOOP 10
    PW_GRID NS-FULLSPACE
    PW_GRID_BLOCKED TRUE
  &END PW_TRANSFER
  &PW_TRANSFER
    GRID ${SIZE1} ${SIZE2} ${SIZE3}
    N_LOOP 10
    PW_GRID NS-FULLSPACE
    PW_GRID_BLOCKED FALSE
  &END PW_TRANSFER
  &PW_TRANSFER
    GRID ${SIZE1} ${SIZE2} ${SIZE3}
    N_LOOP 10
    PW_GRID NS-FULLSPACE
    PW_GRID_BLOCKED TRUE
    PW_GRID_LAYOUT -1 2
  &END PW_TRANSFER
  &PW_TRANSFER
    GRID ${SIZE1} ${SIZE2} ${SIZE3}
    N_LOOP 10
    PW_GRID NS-FULLSPACE
    PW_GRID_BLOCKED FALSE
    PW_GRID_LAYOUT -1 2
  &END PW_TRANSFER
  &PW_TRANSFER
    GRID ${SIZE1} ${SIZE2} ${SIZE3}
    N_LOOP 10
    PW_GRID NS-HALFSPACE
    PW_GRID_BLOCKED TRUE
  &END PW_TRANSFER
  &PW_TRANSFER
    GRID ${SIZE1} ${SIZE2} ${SIZE3}
    N_LOOP 10
    PW_GRID NS-HALFSPACE
    PW_GRID_BLOCKED FALSE
  &END PW_TRANSFER
  &PW_TRANSFER
    GRID ${SIZE1} ${SIZE2} ${SIZE3}
    N_LOOP 10
    PW_GRID NS-HALFSPACE
    PW_GRID_BLOCKED TRUE
    PW_GRID_LAYOUT -1 2
  &END PW_TRANSFER
  &PW_TRANSFER
    GRID ${SIZE1} ${SIZE2} ${SIZE3}
    N_LOOP 10
    PW_GRID NS-HALFSPACE
    PW_GRID_BLOCKED FALSE
    PW_GRID_LAYOUT -1 2
  &END PW_TRANSFER
  @SET SIZE1 10
  @SET SIZE2 15
  @SET SIZE3 20
  &PW_TRANSFER
    GRID ${SIZE1} ${SIZE2} ${SIZE3}
    N_LOOP 10
    PW_GRID SPHERICAL
    PW_GRID_BLOCKED TRUE
  &END PW_TRANSFER
  &PW_TRANSFER
    GRID ${SIZE1} ${SIZE2} ${SIZE3}
    N_LOOP 10
    PW_GRID SPHERICAL
    PW_GRID_BLOCKED FALSE
  &END PW_TRANSFER
  &PW_TRANSFER
    GRID ${SIZE1} ${SIZE2} ${SIZE3}
    N_LOOP 10
    PW_GRID SPHERICAL
    PW_GRID_BLOCKED TRUE
    PW_GRID_LAYOUT -1 2
  &END PW_TRANSFER
  &PW_TRANSFER
    GRID ${SIZE1} ${SIZE2} ${SIZE3}
    N_LOOP 10
    PW_GRID SPHERICAL
    PW_GRID_BLOCKED FALSE
    PW_GRID_LAYOUT -1 2
  &END PW_TRANSFER
  &PW_TRANSFER
    GRID ${SIZE1} ${SIZE2} ${SIZE3}
    N_LOOP 10
    PW_GRID NS-FULLSPACE
    PW_GRID_BLOCKED TRUE
  &END PW_TRANSFER
  &PW_TRANSFER
    GRID ${SIZE1} ${SIZE2} ${SIZE3}
    N_LOOP 10
    PW_GRID NS-FULLSPACE
    PW_GRID_BLOCKED FALSE
  &END PW_TRANSFER
  &PW_TRANSFER
    GRID ${SIZE1} ${SIZE2} ${SIZE3}
    N_LOOP 10
    PW_GRID NS-FULLSPACE
    PW_GRID_BLOCKED TRUE
    PW_GRID_LAYOUT -1 2
  &END PW_TRANSFER
  &PW_TRANSFER
    GRID ${SIZE1} ${SIZE2} ${SIZE3}
    N_LOOP 10
    PW_GRID NS-FULLSPACE
    PW_GRID_BLOCKED FALSE
    PW_GRID_LAYOUT -1 2
  &END PW_TRANSFER
  &PW_TRANSFER
    GRID ${SIZE1} ${SIZE2} ${SIZE3}
    N_LOOP 10
    PW_GRID NS-HALFSPACE
    PW_GRID_BLOCKED TRUE
  &END PW_TRANSFER
  &PW_TRANSFER
    GRID ${SIZE1} ${SIZE2} ${SIZE3}
    N_LOOP 10
    PW_GRID NS-HALFSPACE
    PW_GRID_BLOCKED FALSE
  &END PW_TRANSFER
  &PW_TRANSFER
    GRID ${SIZE1} ${SIZE2} ${SIZE3}
    N_LOOP 10
    PW_GRID NS-HALFSPACE
    PW_GRID_BLOCKED TRUE
    PW_GRID_LAYOUT -1 2
  &END PW_TRANSFER
  &PW_TRANSFER
    GRID ${SIZE1} ${SIZE2} ${SIZE3}
    N_LOOP 10
    PW_GRID NS-HALFSPACE
    PW_GRID_BLOCKED FALSE
    PW_GRID_LAYOUT -1 2
  &END PW_TRANSFER
&END TEST
