&GLOBAL
  PRINT_LEVEL MEDIUM
  PROGRAM_NAME TEST
  RUN_TYPE NONE
  &TIMINGS
     THRESHOLD 0.00000000001
  &END
&END GLOBAL
&TEST
@SET SIZE1 20
@SET SIZE2 20
@SET SIZE3 20
  &PW_TRANSFER
     GRID ${SIZE1} ${SIZE2} ${SIZE3}
     N_LOOP 10
     PW_GRID_BLOCKED TRUE
     PW_GRID SPHERICAL
  &END
  &PW_TRANSFER
     GRID ${SIZE1} ${SIZE2} ${SIZE3}
     N_LOOP 10
     PW_GRID_BLOCKED FALSE
     PW_GRID SPHERICAL
  &END
  &PW_TRANSFER
     GRID ${SIZE1} ${SIZE2} ${SIZE3}
     N_LOOP 10
     PW_GRID_BLOCKED TRUE
     PW_GRID_LAYOUT -1 2
     PW_GRID SPHERICAL
  &END
  &PW_TRANSFER
     GRID ${SIZE1} ${SIZE2} ${SIZE3}
     N_LOOP 10
     PW_GRID_BLOCKED FALSE
     PW_GRID_LAYOUT -1 2
     PW_GRID SPHERICAL
  &END
  &PW_TRANSFER
     GRID ${SIZE1} ${SIZE2} ${SIZE3}
     N_LOOP 10
     PW_GRID_BLOCKED TRUE
     PW_GRID NS-FULLSPACE
  &END
  &PW_TRANSFER
     GRID ${SIZE1} ${SIZE2} ${SIZE3}
     N_LOOP 10
     PW_GRID_BLOCKED FALSE
     PW_GRID NS-FULLSPACE
  &END
  &PW_TRANSFER
     GRID ${SIZE1} ${SIZE2} ${SIZE3}
     N_LOOP 10
     PW_GRID_BLOCKED TRUE
     PW_GRID_LAYOUT -1 2
     PW_GRID NS-FULLSPACE
  &END
  &PW_TRANSFER
     GRID ${SIZE1} ${SIZE2} ${SIZE3}
     N_LOOP 10
     PW_GRID_BLOCKED FALSE
     PW_GRID_LAYOUT -1 2
     PW_GRID NS-FULLSPACE
  &END

  &PW_TRANSFER
     GRID ${SIZE1} ${SIZE2} ${SIZE3}
     N_LOOP 10
     PW_GRID_BLOCKED TRUE
     PW_GRID NS-HALFSPACE
  &END
  &PW_TRANSFER
     GRID ${SIZE1} ${SIZE2} ${SIZE3}
     N_LOOP 10
     PW_GRID_BLOCKED FALSE
     PW_GRID NS-HALFSPACE
  &END
  &PW_TRANSFER
     GRID ${SIZE1} ${SIZE2} ${SIZE3}
     N_LOOP 10
     PW_GRID_BLOCKED TRUE
     PW_GRID_LAYOUT -1 2
     PW_GRID NS-HALFSPACE
  &END
  &PW_TRANSFER
     GRID ${SIZE1} ${SIZE2} ${SIZE3}
     N_LOOP 10
     PW_GRID_BLOCKED FALSE
     PW_GRID_LAYOUT -1 2
     PW_GRID NS-HALFSPACE
  &END
@SET SIZE1 10
@SET SIZE2 15
@SET SIZE3 20
  &PW_TRANSFER
     GRID ${SIZE1} ${SIZE2} ${SIZE3}
     N_LOOP 10
     PW_GRID_BLOCKED TRUE
     PW_GRID SPHERICAL
  &END
  &PW_TRANSFER
     GRID ${SIZE1} ${SIZE2} ${SIZE3}
     N_LOOP 10
     PW_GRID_BLOCKED FALSE
     PW_GRID SPHERICAL
  &END
  &PW_TRANSFER
     GRID ${SIZE1} ${SIZE2} ${SIZE3}
     N_LOOP 10
     PW_GRID_BLOCKED TRUE
     PW_GRID_LAYOUT -1 2
     PW_GRID SPHERICAL
  &END
  &PW_TRANSFER
     GRID ${SIZE1} ${SIZE2} ${SIZE3}
     N_LOOP 10
     PW_GRID_BLOCKED FALSE
     PW_GRID_LAYOUT -1 2
     PW_GRID SPHERICAL
  &END
  &PW_TRANSFER
     GRID ${SIZE1} ${SIZE2} ${SIZE3}
     N_LOOP 10
     PW_GRID_BLOCKED TRUE
     PW_GRID NS-FULLSPACE
  &END
  &PW_TRANSFER
     GRID ${SIZE1} ${SIZE2} ${SIZE3}
     N_LOOP 10
     PW_GRID_BLOCKED FALSE
     PW_GRID NS-FULLSPACE
  &END
  &PW_TRANSFER
     GRID ${SIZE1} ${SIZE2} ${SIZE3}
     N_LOOP 10
     PW_GRID_BLOCKED TRUE
     PW_GRID_LAYOUT -1 2
     PW_GRID NS-FULLSPACE
  &END
  &PW_TRANSFER
     GRID ${SIZE1} ${SIZE2} ${SIZE3}
     N_LOOP 10
     PW_GRID_BLOCKED FALSE
     PW_GRID_LAYOUT -1 2
     PW_GRID NS-FULLSPACE
  &END

  &PW_TRANSFER
     GRID ${SIZE1} ${SIZE2} ${SIZE3}
     N_LOOP 10
     PW_GRID_BLOCKED TRUE
     PW_GRID NS-HALFSPACE
  &END
  &PW_TRANSFER
     GRID ${SIZE1} ${SIZE2} ${SIZE3}
     N_LOOP 10
     PW_GRID_BLOCKED FALSE
     PW_GRID NS-HALFSPACE
  &END
  &PW_TRANSFER
     GRID ${SIZE1} ${SIZE2} ${SIZE3}
     N_LOOP 10
     PW_GRID_BLOCKED TRUE
     PW_GRID_LAYOUT -1 2
     PW_GRID NS-HALFSPACE
  &END
  &PW_TRANSFER
     GRID ${SIZE1} ${SIZE2} ${SIZE3}
     N_LOOP 10
     PW_GRID_BLOCKED FALSE
     PW_GRID_LAYOUT -1 2
     PW_GRID NS-HALFSPACE
  &END
&END
