&GLOBAL
  PROJECT test_minimax
  PRINT_LEVEL MEDIUM
  PROGRAM_NAME TEST
  RUN_TYPE NONE
&END GLOBAL
&TEST
  MINIMAX 1000
&END TEST
