&GLOBAL
  PROJECT test_01
  PRINT_LEVEL MEDIUM
  PROGRAM_NAME TEST
  RUN_TYPE NONE
&END GLOBAL
&TEST
  MEMORY 64000000
  COPY 10
  MATMUL 7
  ERI 1
  FFT 10
  CLEBSCH_GORDON 10
  MPI 4
&END
