&GLOBAL
  PROJECT test_eri_mme
  PRINT_LEVEL MEDIUM
  PROGRAM_NAME TEST
  RUN_TYPE NONE
&END GLOBAL
&TEST
  &ERI_MME_TEST
    ABC 10.0 10.0 10.0
    MIN_NPOS 8
    NREP 1
    LMAX 5
    ZET_MIN 0.001
    ZET_MAX 1.0E05
    NZET 10
    NSAMPLE_3C 32109
    &ERI_MME
       N_MINIMAX 15
       DO_CALIBRATE_CUTOFF .FALSE.
       CUTOFF 10000
    &END ERI_MME
  &END ERI_MME_TEST
&END TEST
