&GLOBAL
  PRINT_LEVEL MEDIUM
  PROGRAM_NAME TEST
  PROJECT test_eri_mme
  RUN_TYPE NONE
&END GLOBAL

&TEST
  &ERI_MME_TEST
    ABC 10.0 10.0 10.0
    LMAX 5
    MIN_NPOS 8
    NREP 1
    NSAMPLE_3C 32109
    NZET 10
    ZET_MAX 1.0E05
    ZET_MIN 0.001
    &ERI_MME
      CUTOFF 10000
      DO_CALIBRATE_CUTOFF .FALSE.
      N_MINIMAX 15
    &END ERI_MME
  &END ERI_MME_TEST
&END TEST
