&GLOBAL
  PROJECT test_eri_mme
  PRINT_LEVEL MEDIUM
  PROGRAM_NAME TEST
  RUN_TYPE NONE
&END GLOBAL
&TEST
  &ERI_MME_TEST
    ABC 5.0 4.0 6.0
    MIN_NPOS 8
    NREP 1
    CHECK_2C_ACCURACY .TRUE.
    LMAX 5
    ZET_MIN 0.001
    ZET_MAX 1.0
    NZET 4
    TEST_3C .FALSE.
    &ERI_MME
      N_MINIMAX 15
      &CUTOFF_CALIB
        EPS 0.001
      &END CUTOFF_CALIB
    &END ERI_MME
  &END ERI_MME_TEST
&END TEST
