&GLOBAL
  PRINT_LEVEL MEDIUM
  PROGRAM_NAME TEST
  RUN_TYPE NONE
  &TIMINGS
     THRESHOLD 0.00000000001
  &END
&END GLOBAL
&TEST
 &RS_PW_TRANSFER
    HALO_SIZE 17
    RS2PW TRUE
    GRID 150 150 150
    N_LOOP 3
    &RS_GRID
      DISTRIBUTION_TYPE DISTRIBUTED
    &END
 &END
&END
