&GLOBAL
  PRINT_LEVEL MEDIUM
  PROGRAM_NAME TEST
  PROJECT test_cp_fm_gemm_02
  RUN_TYPE NONE
  &TIMINGS
    THRESHOLD 0.00000000001
  &END TIMINGS
&END GLOBAL

&TEST
  &CP_FM_GEMM
    K 512
    M 512
    N 512
    N_LOOP 2
    TRANSA FALSE
    TRANSB FALSE
  &END CP_FM_GEMM
  &CP_FM_GEMM
    K 512
    M 512
    N 512
    NCOL_BLOCK 31
    NROW_BLOCK 31
    N_LOOP 2
    TRANSA FALSE
    TRANSB FALSE
  &END CP_FM_GEMM
  &CP_FM_GEMM
    K 512
    M 512
    N 512
    NCOL_BLOCK 64
    NROW_BLOCK 64
    N_LOOP 2
    TRANSA FALSE
    TRANSB FALSE
  &END CP_FM_GEMM
  &CP_FM_GEMM
    K 37
    M 37
    N 37
    NCOL_BLOCK 64
    NROW_BLOCK 64
    N_LOOP 200
    TRANSA FALSE
    TRANSB FALSE
  &END CP_FM_GEMM
  &CP_FM_GEMM
    K 37
    M 37
    N 37
    NCOL_BLOCK 16
    NROW_BLOCK 16
    N_LOOP 200
    TRANSA FALSE
    TRANSB FALSE
  &END CP_FM_GEMM
&END TEST
