&GLOBAL
  PROJECT test_pw_05
  PRINT_LEVEL MEDIUM
  PROGRAM_NAME TEST
  RUN_TYPE NONE
  &TIMINGS
     THRESHOLD 0.00000000001
  &END
  FFT_POOL_SCRATCH_LIMIT 4
&END GLOBAL
&TEST
@SET SIZE1 6
@SET SIZE2 6
@SET SIZE3 257
  &PW_TRANSFER
     GRID ${SIZE1} ${SIZE2} ${SIZE3}
     N_LOOP 2
     PW_GRID_BLOCKED FALSE
     PW_GRID_LAYOUT 4 2
     PW_GRID NS-FULLSPACE
  &END
&END
