&GLOBAL
  PRINT_LEVEL MEDIUM
  PROGRAM_NAME TEST
  PROJECT test_minimax
  RUN_TYPE NONE
&END GLOBAL

&TEST
  MINIMAX 100
&END TEST
