&GLOBAL
  PRINT_LEVEL MEDIUM
  PROJECT H2O_ADMM
  RUN_TYPE ENERGY
  &TIMINGS
    THRESHOLD 0.01
  &END TIMINGS
&END GLOBAL

&FORCE_EVAL
  METHOD Quickstep
  &DFT
    BASIS_SET_FILE_NAME HFX_BASIS
    POTENTIAL_FILE_NAME POTENTIAL
    &AUXILIARY_DENSITY_MATRIX_METHOD
      ADMM_PURIFICATION_METHOD MO_DIAG
      METHOD BASIS_PROJECTION
    &END AUXILIARY_DENSITY_MATRIX_METHOD
    &MGRID
      CUTOFF 100
      ! CUTOFF  800
    &END MGRID
    &POISSON
      PERIODIC NONE
      POISSON_SOLVER WAVELET
    &END POISSON
    &QS
      EPS_DEFAULT 1.0E-15
      EPS_PGF_ORB 1.0E-30
      METHOD GPW
    &END QS
    &SCF
      EPS_SCF 1.0E-6
      MAX_SCF 50
      SCF_GUESS ATOMIC
      &OT
      &END OT
      &OUTER_SCF
        EPS_SCF 1.0E-6
        MAX_SCF 50
      &END OUTER_SCF
    &END SCF
    &XC
      &HF
        FRACTION 1.00
        &SCREENING
          EPS_SCHWARZ 1.0E-8
          SCREEN_ON_INITIAL_P FALSE
        &END SCREENING
      &END HF
      &WF_CORRELATION
        MEMORY 1000.
        NUMBER_PROC 1
        &INTEGRALS
          &WFC_GPW
            ! CUTOFF  300
            ! REL_CUTOFF 50
            CUTOFF 100
            EPS_FILTER 1.0E-6
            EPS_GRID 1.0E-6
            REL_CUTOFF 30
          &END WFC_GPW
        &END INTEGRALS
        &MP2
          METHOD MP2_GPW
        &END MP2
      &END WF_CORRELATION
      &XC_FUNCTIONAL NONE
      &END XC_FUNCTIONAL
    &END XC
  &END DFT
  &SUBSYS
    &CELL
      ! ABC [angstrom] 12 12 12
      ABC [angstrom] 5 5 5
      PERIODIC NONE
    &END CELL
    &COORD
      O       0.000000    0.000000    -0.111000
      H       0.000000   -0.744000     0.495000
      H       0.000000    0.744000     0.495000
    &END COORD
    &KIND H
      BASIS_SET ORB cc-TZV2P-GTH
      BASIS_SET AUX_FIT DZVP-GTH
      POTENTIAL GTH-HF-q1
    &END KIND
    &KIND O
      BASIS_SET ORB cc-TZV2P-GTH
      BASIS_SET AUX_FIT DZVP-GTH
      POTENTIAL GTH-HF-q6
    &END KIND
    &TOPOLOGY
      &CENTER_COORDINATES
      &END CENTER_COORDINATES
    &END TOPOLOGY
  &END SUBSYS
&END FORCE_EVAL
