&GLOBAL
  PRINT_LEVEL LOW
  PROJECT MoCO6
  RUN_TYPE ENERGY
&END GLOBAL

&FORCE_EVAL
  &DFT
    CHARGE 0
    MULTIPLICITY 1
    &QS
      METHOD xTB
      &XTB
        DO_EWALD F
        GFN_TYPE 0
        VDW_POTENTIAL DFTD4
      &END XTB
    &END QS
    &SCF
      ADDED_MOS -1 -1
      SCF_GUESS NONE
      &SMEAR ON
        ELECTRONIC_TEMPERATURE 300
        METHOD Fermi_Dirac
      &END SMEAR
    &END SCF
  &END DFT
  &SUBSYS
    &CELL
      ABC 15 15 15
      PERIODIC NONE
    &END CELL
    &COORD
      Mo      10.00000000      10.00000000      10.00000000
      C      10.00000000      12.06535565      10.00000000
      C      10.00000000      10.00000000      12.06535565
      C      12.06535565      10.00000000      10.00000000
      C      10.00000000      10.00000000       7.93464435
      C       7.93464435      10.00000000      10.00000000
      C      10.00000000       7.93464435      10.00000000
      O      10.00000000      13.22272182      10.00000000
      O      10.00000000      10.00000000      13.22272182
      O      13.22272182      10.00000000      10.00000000
      O      10.00000000      10.00000000       6.77727818
      O       6.77727818      10.00000000      10.00000000
      O      10.00000000       6.77727818      10.00000000
    &END COORD
    &TOPOLOGY
      &CENTER_COORDINATES T
      &END CENTER_COORDINATES
    &END TOPOLOGY
  &END SUBSYS
&END FORCE_EVAL
