&GLOBAL
  PRINT_LEVEL LOW
  PROJECT Na3N
  RUN_TYPE ENERGY
&END GLOBAL

&FORCE_EVAL
  &DFT
    CHARGE 0
    MULTIPLICITY 1
    &QS
      METHOD xTB
      &XTB
        DO_EWALD F
        GFN_TYPE 0
        VDW_POTENTIAL DFTD4
      &END XTB
    &END QS
    &SCF
      ADDED_MOS -1 -1
      SCF_GUESS NONE
      &SMEAR ON
        ELECTRONIC_TEMPERATURE 300
        METHOD Fermi_Dirac
      &END SMEAR
    &END SCF
  &END DFT
  &SUBSYS
    &CELL
      ABC 15 15 15
      PERIODIC NONE
    &END CELL
    &COORD
      N       8.98510347       9.50000000       9.84871654
      Na       7.95531041      11.28365391       9.15128346
      Na       7.95531041       7.71634609       9.15128346
      Na      11.04468959       9.50000000       9.15128346
    &END COORD
    &TOPOLOGY
      &CENTER_COORDINATES T
      &END CENTER_COORDINATES
    &END TOPOLOGY
  &END SUBSYS
&END FORCE_EVAL
