&GLOBAL
  PRINT_LEVEL LOW
  PROJECT OsCO5
  RUN_TYPE ENERGY
&END GLOBAL

&FORCE_EVAL
  &DFT
    CHARGE 0
    MULTIPLICITY 1
    &QS
      METHOD xTB
      &XTB
        DO_EWALD F
        GFN_TYPE 0
        VDW_POTENTIAL DFTD4
      &END XTB
    &END QS
    &SCF
      ADDED_MOS -1 -1
      SCF_GUESS NONE
      &SMEAR ON
        ELECTRONIC_TEMPERATURE 300
        METHOD Fermi_Dirac
      &END SMEAR
    &END SCF
  &END DFT
  &SUBSYS
    &CELL
      ABC 15 15 15
      PERIODIC NONE
    &END CELL
    &COORD
      Os      10.78307440      10.00000000      10.00000000
      C      11.76864428       8.29294290      10.00000000
      C      11.76864428      11.70705710      10.00000000
      C       8.81193465      10.00000000      10.00000000
      C      10.78307440      10.00000000      11.98360861
      C      10.78307440      10.00000000       8.01639139
      O      12.34922321       7.28735070      10.00000000
      O      12.34922321      12.71264930      10.00000000
      O       7.65077679      10.00000000      10.00000000
      O      10.78307440      10.00000000      13.13892255
      O      10.78307440      10.00000000       6.86107745
    &END COORD
    &TOPOLOGY
      &CENTER_COORDINATES T
      &END CENTER_COORDINATES
    &END TOPOLOGY
  &END SUBSYS
&END FORCE_EVAL
