&GLOBAL
  PRINT_LEVEL LOW
  PROJECT PtCO4
  RUN_TYPE ENERGY
&END GLOBAL

&FORCE_EVAL
  &DFT
    CHARGE 0
    MULTIPLICITY 1
    &QS
      METHOD xTB
      &XTB
        DO_EWALD F
        GFN_TYPE 0
        VDW_POTENTIAL DFTD4
      &END XTB
    &END QS
    &SCF
      ADDED_MOS -1 -1
      SCF_GUESS NONE
      &SMEAR ON
        ELECTRONIC_TEMPERATURE 300
        METHOD Fermi_Dirac
      &END SMEAR
    &END SCF
  &END DFT
  &SUBSYS
    &CELL
      ABC 15 15 15
      PERIODIC NONE
    &END CELL
    &COORD
      Pt       8.50000000       8.50000000       8.50000000
      C       9.64947611       7.35052389       9.64947611
      C       7.35052389       9.64947611       9.64947611
      C       7.35052389       7.35052389       7.35052389
      C       9.64947611       9.64947611       7.35052389
      O      10.31611985       6.68388015      10.31611985
      O       6.68388015      10.31611985      10.31611985
      O       6.68388015       6.68388015       6.68388015
      O      10.31611985      10.31611985       6.68388015
    &END COORD
    &TOPOLOGY
      &CENTER_COORDINATES T
      &END CENTER_COORDINATES
    &END TOPOLOGY
  &END SUBSYS
&END FORCE_EVAL
