&GLOBAL
  PRINT_LEVEL LOW
  PROJECT RuCO5
  RUN_TYPE ENERGY
&END GLOBAL

&FORCE_EVAL
  &DFT
    CHARGE 0
    MULTIPLICITY 1
    &QS
      METHOD xTB
      &XTB
        DO_EWALD F
        GFN_TYPE 0
        VDW_POTENTIAL DFTD4
      &END XTB
    &END QS
    &SCF
      ADDED_MOS -1 -1
      SCF_GUESS NONE
      &SMEAR ON
        ELECTRONIC_TEMPERATURE 300
        METHOD Fermi_Dirac
      &END SMEAR
    &END SCF
  &END DFT
  &SUBSYS
    &CELL
      ABC 15 15 15
      PERIODIC NONE
    &END CELL
    &COORD
      Ru      10.77799499      10.00000000      10.00000000
      C      11.75422117       8.30912666      10.00000000
      C      11.75422117      11.69087334      10.00000000
      C       8.82554263      10.00000000      10.00000000
      C      10.77799499      10.00000000      11.95332831
      C      10.77799499      10.00000000       8.04667169
      O      12.33398496       7.30494631      10.00000000
      O      12.33398496      12.69505369      10.00000000
      O       7.66601504      10.00000000      10.00000000
      O      10.77799499      10.00000000      13.10827737
      O      10.77799499      10.00000000       6.89172263
    &END COORD
    &TOPOLOGY
      &CENTER_COORDINATES T
      &END CENTER_COORDINATES
    &END TOPOLOGY
  &END SUBSYS
&END FORCE_EVAL
