&GLOBAL
  PRINT_LEVEL LOW
  PROJECT CH2O
  RUN_TYPE DEBUG
&END GLOBAL

&DEBUG
  DEBUG_FORCES T
  DEBUG_STRESS_TENSOR F
  DX 0.00001
  STOP_ON_MISMATCH T
&END DEBUG

&FORCE_EVAL
  METHOD Quickstep
  &DFT
    &EFIELD
      INTENSITY 0.01
      POLARISATION 5 2 1
    &END EFIELD
    &QS
      EPS_DEFAULT 1.E-14
      METHOD xTB
      &XTB
        GFN_TYPE 0
        VDW_POTENTIAL DFTD3
      &END XTB
    &END QS
    &SCF
      SCF_GUESS NONE
    &END SCF
  &END DFT
  &SUBSYS
    &CELL
      ABC 10.0 10.0 10.0
      PERIODIC NONE
    &END CELL
    &COORD
      O     0.051368    0.000000    0.000000
      C     1.278612    0.000000    0.000000
      H     1.870460    0.939607    0.000000
      H     1.870460   -0.939607    0.000000
    &END COORD
  &END SUBSYS
&END FORCE_EVAL
