&GLOBAL
  PRINT_LEVEL LOW
  PROJECT CH2O
  RUN_TYPE DEBUG
&END GLOBAL

&DEBUG
  DEBUG_FORCES T
  DEBUG_STRESS_TENSOR F
  DX 0.0001
  EPS_NO_ERROR_CHECK 0.000001
  STOP_ON_MISMATCH T
&END DEBUG

&FORCE_EVAL
  &DFT
    &LS_SCF
      EPS_FILTER 1.0E-7
      MATRIX_CLUSTER_TYPE ATOMIC
      MU -0.20
      NON_MONOTONIC T
      PURIFICATION_METHOD TC2
      REPORT_ALL_SPARSITIES OFF
      S_PRECONDITIONER MOLECULAR
    &END LS_SCF
    &QS
      LS_SCF
      METHOD xTB
      &XTB
        GFN_TYPE 0
        VDW_POTENTIAL DFTD3
      &END XTB
    &END QS
  &END DFT
  &SUBSYS
    &CELL
      ABC 20.0 20.0 20.0
      PERIODIC NONE
    &END CELL
    &COORD
      O     0.051368    0.000000    0.000000
      C     1.278612    0.000000    0.000000
      H     1.870460    0.939607    0.000000
      H     1.870460   -0.939607    0.000000
    &END COORD
  &END SUBSYS
&END FORCE_EVAL
