&GLOBAL
  PRINT_LEVEL MEDIUM
  PROJECT H2O_gfn0_yz_kp_debug
  RUN_TYPE DEBUG
&END GLOBAL

&DEBUG
  DEBUG_FORCES T
  DEBUG_STRESS_TENSOR T
  DX 0.0001
  MAX_RELATIVE_ERROR 0.5
  STOP_ON_MISMATCH F
&END DEBUG

&FORCE_EVAL
  STRESS_TENSOR ANALYTICAL
  &DFT
    &KPOINTS
      EPS_SYMMETRY 1.e-8
      FULL_GRID OFF
      SCHEME MONKHORST-PACK 1 2 2
      SYMMETRY ON
      SYMMETRY_BACKEND SPGLIB
      VERBOSE T
    &END KPOINTS
    &QS
      EPS_DEFAULT 1.00E-10
      METHOD xTB
      &XTB
        GFN_TYPE 0
        VDW_POTENTIAL DFTD3
      &END XTB
    &END QS
    &SCF
      EPS_SCF 1.e-10
      MAX_SCF 300
      SCF_GUESS MOPAC
      &MIXING
        ALPHA 0.2
        METHOD DIRECT_P_MIXING
      &END MIXING
      &PRINT
        &RESTART OFF
        &END RESTART
      &END PRINT
    &END SCF
  &END DFT
  &SUBSYS
    &CELL
      ABC 18.0000000000 6.0000000000 6.0000000000
      PERIODIC YZ
    &END CELL
    &COORD
      O     0.421000    0.377000    0.289000
      H     1.179602    0.391000    0.793284
      H    -0.337602    0.364000    0.793284
    &END COORD
  &END SUBSYS
&END FORCE_EVAL
