&GLOBAL
  PRINT_LEVEL MEDIUM
  PROJECT Si_gfn0_1d_x_diag_debug
  RUN_TYPE DEBUG
&END GLOBAL

&DEBUG
  DEBUG_FORCES T
  DEBUG_STRESS_TENSOR T
  DX 0.0001
  MAX_RELATIVE_ERROR 0.5
  STOP_ON_MISMATCH F
&END DEBUG

&FORCE_EVAL
  STRESS_TENSOR DIAGONAL_ANALYTICAL
  &DFT
    &KPOINTS
      FULL_GRID OFF
      SCHEME MONKHORST-PACK 2 1 1
      SYMMETRY ON
      VERBOSE T
    &END KPOINTS
    &QS
      EPS_DEFAULT 1.00E-10
      METHOD xTB
      &XTB
        GFN_TYPE 0
        VDW_POTENTIAL DFTD3
      &END XTB
    &END QS
    &SCF
      ADDED_MOS -1 -1
      EPS_SCF 1.e-10
      MAX_SCF 300
      SCF_GUESS MOPAC
      &MIXING
        ALPHA 0.2
        METHOD DIRECT_P_MIXING
      &END MIXING
      &SMEAR ON
        ELECTRONIC_TEMPERATURE 300
        METHOD FERMI_DIRAC
      &END SMEAR
      &PRINT
        &RESTART OFF
        &END RESTART
      &END PRINT
    &END SCF
  &END DFT
  &SUBSYS
    &CELL
      ABC 5.4310000000 18.0000000000 5.4310000000
      PERIODIC X
    &END CELL
    &COORD
      Si     0.00000000    0.00000000    0.00000000
      Si     2.71550000    2.71550000    0.00000000
      Si     2.71550000    0.00000000    2.71550000
      Si     0.00000000    2.71550000    2.71550000
      Si     1.35775000    1.35775000    1.35775000
      Si     1.35775000    4.10040500    4.10040500
      Si     4.10040500    1.35775000    4.10040500
      Si     4.10040500    4.10040500    1.35775000
    &END COORD
  &END SUBSYS
&END FORCE_EVAL
