&GLOBAL
  PRINT_LEVEL low
  PROJECT SiH-stress
  RUN_TYPE DEBUG
&END GLOBAL

&DEBUG
  DEBUG_FORCES F
  DEBUG_STRESS_TENSOR T
  DX 0.0005
  EPS_NO_ERROR_CHECK 0.000001
  MAX_RELATIVE_ERROR 0.3
  STOP_ON_MISMATCH T
&END DEBUG

&FORCE_EVAL
  STRESS_TENSOR ANALYTICAL
  &DFT
    &KPOINTS
      SCHEME MONKHORST-PACK 2 2 2
    &END KPOINTS
    &QS
      METHOD xTB
      &XTB
        GFN_TYPE 0
        VDW_POTENTIAL DFTD3
        &EEQ
          ALPHA 1.0
          EPS_DIIS 1.E-12
        &END EEQ
      &END XTB
    &END QS
    &SCF
      ADDED_MOS 100
      SCF_GUESS NONE
      &SMEAR
        ELECTRONIC_TEMPERATURE 1000
        METHOD FERMI_DIRAC
      &END SMEAR
    &END SCF
  &END DFT
  &PRINT
    &STRESS_TENSOR
      COMPONENTS
    &END STRESS_TENSOR
  &END PRINT
  &SUBSYS
    &CELL
      ##ABC 4.8800 4.8800 4.8800
      A 4.8800 0.2500 0.1500
      B 0.0000 4.8800 0.2500
      C 0.0000 0.0000 4.8800
    &END CELL
    &COORD
      SCALED
      C  0.000 0.000 0.000
      C  0.500 0.500 0.000
      C  0.500 0.000 0.500
      C  0.000 0.500 0.500
      Si  0.250 0.250 0.250
      Si  0.250 0.750 0.750
      Si  0.750 0.250 0.750
      Si  0.750 0.750 0.250
    &END COORD
  &END SUBSYS
&END FORCE_EVAL
