&GLOBAL
  PRINT_LEVEL LOW
  PROJECT SiC
  RUN_TYPE DEBUG
&END GLOBAL

&DEBUG
  DEBUG_FORCES F
  DEBUG_STRESS_TENSOR T
  DX 0.0001
  EPS_NO_ERROR_CHECK 0.000001
  STOP_ON_MISMATCH T
&END DEBUG

&FORCE_EVAL
  STRESS_TENSOR ANALYTICAL
  &DFT
    &QS
      METHOD xTB
      &XTB
        GFN_TYPE 0
        VDW_POTENTIAL DFTD3
      &END XTB
    &END QS
    &SCF
      SCF_GUESS NONE
    &END SCF
  &END DFT
  &SUBSYS
    &CELL
      ABC 4.8800 4.8800 4.8800
    &END CELL
    &COORD
      SCALED
      C  0.000 0.000 0.000
      C  0.500 0.500 0.000
      C  0.500 0.000 0.500
      C  0.000 0.500 0.500
      Si  0.250 0.250 0.250
      Si  0.250 0.750 0.750
      Si  0.750 0.250 0.750
      Si  0.750 0.750 0.250
    &END COORD
  &END SUBSYS
&END FORCE_EVAL
