&GLOBAL
  PRINT_LEVEL low
  PROJECT He-LDA_RIbas
  RUN_TYPE ENERGY
&END GLOBAL

&FORCE_EVAL
  &DFT
    BASIS_SET_FILE_NAME EMSL_BASIS_SETS
    BASIS_SET_FILE_NAME BASIS_def2_QZVP_RI_ALL
    POTENTIAL_FILE_NAME POTENTIAL
    &POISSON
      PERIODIC NONE
      POISSON_SOLVER MT
    &END POISSON
    &QS
      METHOD GAPW
    &END QS
    &XC
      &XC_FUNCTIONAL PADE
      &END XC_FUNCTIONAL
    &END XC
  &END DFT
  &PROPERTIES
    &RIXS
      &TDDFPT
        KERNEL FULL
        MAX_ITER 5
        NSTATES 3
      &END TDDFPT
      &XAS_TDP
        GRID He 150 250
        TDA T
        &DONOR_STATES
          ATOM_LIST 1
          DEFINE_EXCITED BY_INDEX
          N_SEARCH 1
          STATE_TYPES 1s
        &END DONOR_STATES
        &KERNEL
          &XC_FUNCTIONAL
            &LDA_XC_TETER93
            &END LDA_XC_TETER93
          &END XC_FUNCTIONAL
        &END KERNEL
      &END XAS_TDP
    &END RIXS
  &END PROPERTIES
  &SUBSYS
    &CELL
      ABC 5.0 5.0 5.0
      PERIODIC NONE
    &END CELL
    &COORD
      He 2.5 2.5 2.5
    &END COORD
    &KIND He
      BASIS_SET def2-QZVP
      BASIS_SET RI_XAS RI-5Z
      POTENTIAL ALL
    &END KIND
  &END SUBSYS
&END FORCE_EVAL
