&GLOBAL
  PRINT_LEVEL LOW
  PROJECT SiH4-PBE0-admm-pseudo
  RUN_TYPE ENERGY
&END GLOBAL

&FORCE_EVAL
  &DFT
    AUTO_BASIS RI_XAS MEDIUM
    BASIS_SET_FILE_NAME EMSL_BASIS_SETS
    BASIS_SET_FILE_NAME BASIS_MOLOPT
    BASIS_SET_FILE_NAME BASIS_ADMM
    POTENTIAL_FILE_NAME POTENTIAL
    &AUXILIARY_DENSITY_MATRIX_METHOD
      ADMM_PURIFICATION_METHOD MO_DIAG
      METHOD BASIS_PROJECTION
    &END AUXILIARY_DENSITY_MATRIX_METHOD
    &POISSON
      PERIODIC NONE
      POISSON_SOLVER MT
    &END POISSON
    &QS
      METHOD GAPW
    &END QS
    &SCF
      &OT
        ENERGY_GAP 0.01
        PRECONDITIONER FULL_ALL
      &END OT
    &END SCF
    &XC
      &HF
        FRACTION 0.25
      &END HF
      &XC_FUNCTIONAL
        &GGA_C_PBE
        &END GGA_C_PBE
        &GGA_X_PBE
          SCALE 0.75
        &END GGA_X_PBE
      &END XC_FUNCTIONAL
    &END XC
  &END DFT
  &PROPERTIES
    &RIXS
      &TDDFPT
        KERNEL FULL
        MAX_ITER 5
        NSTATES 2
      &END TDDFPT
      &XAS_TDP
        GRID Si 150 150
        TDA T
        &DONOR_STATES
          DEFINE_EXCITED BY_KIND
          KIND_LIST Si
          N_SEARCH 5
          STATE_TYPES 1s
        &END DONOR_STATES
        &KERNEL
          &EXACT_EXCHANGE
            FRACTION 0.25
          &END EXACT_EXCHANGE
          &XC_FUNCTIONAL
            &GGA_C_PBE
            &END GGA_C_PBE
            &GGA_X_PBE
              SCALE 0.75
            &END GGA_X_PBE
          &END XC_FUNCTIONAL
        &END KERNEL
      &END XAS_TDP
    &END RIXS
  &END PROPERTIES
  &SUBSYS
    &CELL
      ABC 5.0 5.0 5.0
      PERIODIC NONE
    &END CELL
    &COORD
      Si   0.000000    0.000000    0.000000
      H    0.853686    0.853686    0.853686
      H   -0.853686   -0.853686    0.853686
      H   -0.853686    0.853686   -0.853686
      H    0.853686   -0.853686   -0.853686
    &END COORD
    &KIND Si
      BASIS_SET Ahlrichs-def2-SVP
      BASIS_SET AUX_FIT Ahlrichs-def2-SVP
      POTENTIAL ALL
    &END KIND
    &KIND H
      BASIS_SET SZV-MOLOPT-SR-GTH
      BASIS_SET AUX_FIT FIT3
      POTENTIAL GTH-PBE
    &END KIND
  &END SUBSYS
&END FORCE_EVAL
