&FORCE_EVAL
  METHOD Quickstep
  &DFT
    &QS
      METHOD PM6
      &SE
      &END
    &END QS
    &SCF
      MAX_SCF 0
    &END SCF
  &END DFT
  &SUBSYS
    &CELL
#Fe_7 W_6 & R(-3)m-D^5_{3d} #166 (ac^3h) & hR13 & D8_5 & mu phase
     A   2.37850000 -1.37322762  8.61333333
     B   0.00000000  2.74645523  8.61333333
     C  -2.37850000 -1.37322762  8.61333333
    &END CELL
    &COORD
 SCALED
Fe  0.00000000  0.00000000  0.00000000     0.00000000  0.00000000  0.00000000
W   0.16700000  0.16700000  0.16700000     0.00000000  0.00000000  4.31528000
W  -0.16700000 -0.16700000 -0.16700000     0.00000000  0.00000000 -4.31528000
W   0.34600000  0.34600000  0.34600000     0.00000000  0.00000000  8.94064000
W  -0.34600000 -0.34600000 -0.34600000     0.00000000  0.00000000 -8.94064000
W   0.44800000  0.44800000  0.44800000     0.00000000  0.00000000 11.57632000
W  -0.44800000 -0.44800000 -0.44800000     0.00000000  0.00000000-11.57632000
Fe  0.09000000  0.59100000  0.09000000     0.00000000  1.37597407  6.64088000
Fe  0.09000000  0.09000000  0.59100000    -1.19162850 -0.68798704  6.64088000
Fe  0.59100000  0.09000000  0.09000000     1.19162850 -0.68798704  6.64088000
Fe -0.09000000 -0.59100000 -0.09000000     0.00000000 -1.37597407 -6.64088000
Fe -0.59100000 -0.09000000 -0.09000000    -1.19162850  0.68798704 -6.64088000
Fe -0.09000000 -0.09000000 -0.59100000     1.19162850  0.68798704 -6.64088000
    &END COORD
    &PRINT
      &SYMMETRY
       CHECK_SYMMETRY <3>m
      &END
    &END
    &TOPOLOGY
      CONNECTIVITY OFF
    &END
  &END SUBSYS
&END FORCE_EVAL
&GLOBAL
  PROJECT c_10_Fe7W6
  RUN_TYPE ENERGY
&END GLOBAL
