&FORCE_EVAL
  METHOD Quickstep
  &DFT
    &QS
      METHOD PM6
      &SE
      &END
    &END QS
    &SCF
      MAX_SCF 0
    &END SCF
  &END DFT
  &SUBSYS
    &CELL
#Bi_2 Te_3 & R(-3)m-D_{3d}^5 #166 & hR5 & C33 & Wyckoff, v II, pp. 29-31
     A   2.19175000 -1.26540750 10.16233330
     B   0.00000000  2.53081490 10.16233330
     C  -2.19175000 -1.26540750 10.16233330
    &END CELL
    &COORD
 SCALED
Te  0.00000000  0.00000000  0.00000000     0.00000000  0.00000000  0.00000000
Te  0.21200000  0.21200000  0.21200000     0.00000000 -0.00000002  6.46324398
Te -0.21200000 -0.21200000 -0.21200000     0.00000000  0.00000002 -6.46324398
Bi  0.40000000  0.40000000  0.40000000     0.00000000 -0.00000004 12.19479996
Bi -0.40000000 -0.40000000 -0.40000000     0.00000000  0.00000004-12.19479996
    &END COORD
    &PRINT
      &SYMMETRY
       CHECK_SYMMETRY <3>m
      &END
    &END
    &TOPOLOGY
      CONNECTIVITY OFF
    &END
  &END SUBSYS
&END FORCE_EVAL
&GLOBAL
  PROJECT c_10_Bi2Te3
  RUN_TYPE ENERGY
&END GLOBAL
