&FORCE_EVAL
  METHOD Quickstep
  &DFT
    LSD
    &QS
      METHOD PM6
      &SE
      &END
    &END QS
    &SCF
      MAX_SCF 0
    &END SCF
  &END DFT
  &SUBSYS
    &CELL
#CrNaS_2 & R(-3)m (D^5_{3d}, #166) & hR4 & F5_1
     A   1.75500000 -1.01324972  6.52333333
     B   0.00000000  2.02649944  6.52333333
     C  -1.75500000 -1.01324972  6.52333333
    &END CELL
    &COORD
 SCALED
Cr  0.00000000  0.00000000  0.00000000     0.00000000  0.00000000  0.00000000
Na  0.50000000  0.50000000  0.50000000     0.00000000  0.00000000  9.78500000
S   0.26400000  0.26400000  0.26400000     0.00000000  0.00000000  5.16648000
S  -0.26400000 -0.26400000 -0.26400000     0.00000000  0.00000000 -5.16648000
    &END COORD
    &PRINT
      &SYMMETRY
       CHECK_SYMMETRY <3>m
      &END
    &END
    &TOPOLOGY
      CONNECTIVITY OFF
    &END
  &END SUBSYS
&END FORCE_EVAL
&GLOBAL
  PROJECT c_10_caswellsiverite
  RUN_TYPE ENERGY
&END GLOBAL
