&FORCE_EVAL
  METHOD Quickstep
  &DFT
    LSD
    &QS
      METHOD PM6
      &SE
      &END
    &END QS
    &SCF
      MAX_SCF 0
    &END SCF
  &END DFT
  &SUBSYS
    &CELL
#NbZr_2 & P(-3)m1 (#164) & hP3 & trigonal omega
     A   2.40000000 -4.15692194   .00000000
     B   2.40000000  4.15692194   .00000000
     C    .00000000   .00000000  2.92800000
    &END CELL
    &COORD
 SCALED
Nb   .00000000   .00000000   .00000000      .00000000   .00000000   .00000000
Zr   .33333333   .66666667   .55000000     2.40000000  1.38564065  1.61040000
Zr   .66666667   .33333333   .45000000     2.40000000 -1.38564065  1.31760000
    &END COORD
    &PRINT
      &SYMMETRY
       CHECK_SYMMETRY <3>m
      &END
    &END
    &TOPOLOGY
      CONNECTIVITY OFF
    &END
  &END SUBSYS
&END FORCE_EVAL
&GLOBAL
  PROJECT c_10_omega
  RUN_TYPE ENERGY
&END GLOBAL
