&FORCE_EVAL
  METHOD Quickstep
  &DFT
    &QS
      METHOD PM6
      &SE
      &END
    &END QS
    &SCF
      MAX_SCF 0
    &END SCF
  &END DFT
  &SUBSYS
    &CELL
#alpha-Boron & R(-3)m D^5_{3d} #166 & hR12
     A   2.45500000 -1.41739000  4.19000000
     B    .00000000  2.83479000  4.19000000
     C  -2.45500000 -1.41739000  4.19000000
    &END CELL
    &COORD
 SCALED
B    .01000011  -.35100021   .01000011      .00000000 -1.02336000 -1.38689000
B    .01000077   .01000050  -.35100127      .88626000   .51168000 -1.38689000
B   -.35100127   .01000050   .01000077     -.88626000   .51168000 -1.38689000
B   -.01000011   .35100021  -.01000011     -.00000000  1.02336000  1.38689000
B   -.01000077  -.01000050   .35100127     -.88626000  -.51168000  1.38689000
B    .35100127  -.01000050  -.01000077      .88626000  -.51168000  1.38689000
B    .23000041  -.37100083   .23000041      .00000000 -1.70371000   .37291000
B    .23000145   .22999913  -.37100058     1.47546000   .85185000   .37291000
B   -.37100058   .22999913   .23000145    -1.47546000   .85185000   .37291000
B   -.23000041   .37100083  -.23000041     -.00000000  1.70371000  -.37291000
B   -.23000145  -.22999913   .37100058    -1.47546000  -.85185000  -.37291000
B    .37100058  -.22999913  -.23000145     1.47546000  -.85185000  -.37291000
    &END COORD
    &PRINT
      &SYMMETRY
       CHECK_SYMMETRY <3>m
      &END
    &END
    &TOPOLOGY
      CONNECTIVITY OFF
    &END
  &END SUBSYS
&END FORCE_EVAL
&GLOBAL
  PROJECT c_10_aB
  RUN_TYPE ENERGY
&END GLOBAL
