&FORCE_EVAL
  METHOD Quickstep
  &DFT
    LSD
    &QS
      METHOD PM6
      &SE
      &END
    &END QS
    &SCF
      MAX_SCF 0
    &END SCF
  &END DFT
  &SUBSYS
    &CELL
#BaPtSb   & P-6m2 (#187) D_{3h}^1 & hP3
     A   2.26750000 -3.92742521   .00000000
     B   2.26750000  3.92742521   .00000000
     C    .00000000   .00000000  4.88400000
    &END CELL
    &COORD
 SCALED
Ba   .00000000   .00000000   .00000000      .00000000   .00000000   .00000000
Pt   .33333333   .66666667   .50000000     2.26750000  1.30914174  2.44200000
Sb   .66666667   .33333333   .50000000     2.26750000 -1.30914174  2.44200000
    &END COORD
    &PRINT
      &SYMMETRY
       CHECK_SYMMETRY <3>m
      &END
    &END
    &TOPOLOGY
      CONNECTIVITY OFF
    &END
  &END SUBSYS
&END FORCE_EVAL
&GLOBAL
  PROJECT c_10_BaPtSb
  RUN_TYPE ENERGY
&END GLOBAL
