&FORCE_EVAL
  METHOD Quickstep
  &DFT
    &QS
      METHOD PM6
      &SE
      &END
    &END QS
    &SCF
      MAX_SCF 0
    &END SCF
  &END DFT
  &SUBSYS
    &CELL
#Mo Ni_4 & I4/m-C_{2h}^5 #87 & tI10 & D1_a & Pearson's Handbook Vol. IV
     A   5.72000000  0.00000000  0.00000000
     B   0.00000000  5.72000000  0.00000000
     C   2.86000000  2.86000000  1.78200000
    &END CELL
    &COORD
 SCALED
Mo  0.00000000  0.00000000  0.00000000     0.00000000  0.00000000  0.00000000
Ni  0.20000000  0.40000000  0.00000000     1.14400000  2.28800000  0.00000000
Ni -0.40000000  0.20000000  0.00000000    -2.28800000  1.14400000  0.00000000
Ni -0.20000000 -0.40000000  0.00000000    -1.14400000 -2.28800000  0.00000000
Ni  0.40000000 -0.20000000  0.00000000     2.28800000 -1.14400000  0.00000000
    &END COORD
    &PRINT
      &SYMMETRY
       CHECK_SYMMETRY 4/m
      &END
    &END
    &TOPOLOGY
      CONNECTIVITY OFF
    &END
  &END SUBSYS
&END FORCE_EVAL
&GLOBAL
  PROJECT c_13_MoNi4
  RUN_TYPE ENERGY
&END GLOBAL
