&FORCE_EVAL
  METHOD Quickstep
  &DFT
    &QS
      METHOD PM6
      &SE
      &END
    &END QS
    &SCF
      MAX_SCF 0
    &END SCF
  &END DFT
  &SUBSYS
    &CELL
#Te_4 Ti_5 & I4/m-C_{4h}^5 #87 (ah^2) & tI18 & Pearson Handbook IV 5321, Alloys
     A  -5.08200000  5.08200000  1.88600000
     B   5.08200000 -5.08200000  1.88600000
     C   5.08200000  5.08200000 -1.88600000
    &END CELL
    &COORD
 SCALED
Ti  0.00000000  0.00000000  0.00000000     0.00000000  0.00000000  0.00000000
Te  0.27970000  0.05890000  0.33860000     0.59865960  2.84287080  0.00000000
Te -0.27970000 -0.05890000 -0.33860000    -0.59865960 -2.84287080  0.00000000
Te  0.05890000 -0.27970000 -0.22080000    -2.84287080  0.59865960  0.00000000
Te -0.05890000  0.27970000  0.22080000     2.84287080 -0.59865960  0.00000000
Ti  0.37520000  0.31440000  0.68960000     3.19556160  3.81353280  0.00000000
Ti -0.37520000 -0.31440000 -0.68960000    -3.19556160 -3.81353280  0.00000000
Ti  0.31440000 -0.37520000 -0.06080000    -3.81353280  3.19556160  0.00000000
Ti -0.31440000  0.37520000  0.06080000     3.81353280 -3.19556160  0.00000000
    &END COORD
    &PRINT
      &SYMMETRY
       CHECK_SYMMETRY 4/m
      &END
    &END
    &TOPOLOGY
      CONNECTIVITY OFF
    &END
  &END SUBSYS
&END FORCE_EVAL
&GLOBAL
  PROJECT c_13_Te4Ti5
  RUN_TYPE ENERGY
&END GLOBAL
