&FORCE_EVAL
  METHOD Quickstep
  &DFT
    &QS
      METHOD PM6
      &SE
      &END
    &END QS
    &SCF
      MAX_SCF 0
    &END SCF
  &END DFT
  &SUBSYS
    &CELL
#P4_2/m-C_{4h}^2 #84 & tP16 & PdS & B34
      A  6.42900000  0.00000000  0.00000000
      B  0.00000000  6.42900000  0.00000000
      C  0.00000000  0.00000000  6.66100000
    &END CELL
    &COORD
 SCALED
Pd  0.00000000  0.50000000  0.00000000     0.00000000  3.21450000  0.00000000
Pd  0.50000000  0.00000000  0.50000000     3.21450000  0.00000000  3.33050000
Pd  0.00000000  0.00000000  0.25000000     0.00000000  0.00000000  1.66525000
Pd  0.00000000  0.00000000  0.75000000     0.00000000  0.00000000  4.99575000
Pd  0.46779200  0.25713200  0.00000000     3.00743477  1.65310163  0.00000000
Pd -0.46779200 -0.25713200  0.00000000    -3.00743477 -1.65310163  0.00000000
Pd -0.25713200  0.46779200  0.50000000    -1.65310163  3.00743477  3.33050000
Pd  0.25713200 -0.46779200  0.50000000     1.65310163 -3.00743477  3.33050000
S   0.19361000  0.30754000  0.22904000     1.24471869  1.97717466  1.52563544
S  -0.19361000 -0.30754000  0.22904000    -1.24471869 -1.97717466  1.52563544
S  -0.30754000  0.19361000  0.72904000    -1.97717466  1.24471869  4.85613544
S   0.30754000 -0.19361000  0.72904000     1.97717466 -1.24471869  4.85613544
S  -0.19361000 -0.30754000 -0.22904000    -1.24471869 -1.97717466 -1.52563544
S   0.19361000  0.30754000 -0.22904000     1.24471869  1.97717466 -1.52563544
S   0.30754000 -0.19361000  0.27096000     1.97717466 -1.24471869  1.80486456
S  -0.30754000  0.19361000  0.27096000    -1.97717466  1.24471869  1.80486456
    &END COORD
    &PRINT
      &SYMMETRY
       CHECK_SYMMETRY 4/m
      &END
    &END
    &TOPOLOGY
      CONNECTIVITY OFF
    &END
  &END SUBSYS
&END FORCE_EVAL
&GLOBAL
  PROJECT c_13_PdS
  RUN_TYPE ENERGY
&END GLOBAL
