&FORCE_EVAL
  METHOD Quickstep
  &DFT
    &QS
      METHOD PM6
      &SE
      &END
    &END QS
    &SCF
      MAX_SCF 0
    &END SCF
  &END DFT
  &SUBSYS
    &CELL
#alpha (low) cristobalte & SiO_2 & P4_1_2_1 (#92) D^4_4 & hP12
      A  4.97800000   .00000000   .00000000
      B   .00000000  4.97800000   .00000000
      C   .00000000   .00000000  6.94800000
    &END CELL
    &COORD
 SCALED
Si   .30004000   .30004000   .00000000     1.49359912  1.49359912   .00000000
Si  -.30004000  -.30004000   .50000000    -1.49359912 -1.49359912  3.47400000
Si   .19996000   .80004000   .25000000      .99540088  3.98259912  1.73700000
Si   .80004000   .19996000   .75000000     3.98259912   .99540088  5.21100000
O    .23976000   .10324000   .17844000     1.19352528   .51392872  1.23980112
O   -.23976000  -.10324000   .67844000    -1.19352528  -.51392872  4.71380112
O    .39676000   .73976000   .42844000     1.97507128  3.68252528  2.97680112
O    .60324000   .26024000   .92844000     3.00292872  1.29547472  6.45080112
O    .10324000   .23976000  -.17844000      .51392872  1.19352528 -1.23980112
O   -.10324000  -.23976000   .32156000     -.51392872 -1.19352528  2.23419888
O    .26024000   .60324000   .07156000     1.29547472  3.00292872   .49719888
O    .73976000   .39676000   .57156000     3.68252528  1.97507128  3.97119888
    &END COORD
    &PRINT
      &SYMMETRY
       CHECK_SYMMETRY 422
      &END
    &END
    &TOPOLOGY
      CONNECTIVITY OFF
    &END
  &END SUBSYS
&END FORCE_EVAL
&GLOBAL
  PROJECT c_14_cristaobalite
  RUN_TYPE ENERGY
&END GLOBAL
