&FORCE_EVAL
  METHOD Quickstep
  &DFT
    &QS
      METHOD PM6
      &SE
      &END
    &END QS
    &SCF
      MAX_SCF 0
    &END SCF
  &END DFT
  &SUBSYS
    &CELL
#CuFeS_2 & Chalcopyrite & I(-4)2d #122 D^{12}_{2d} & E1_1 & tI16
     A   5.28640000   .00000000   .00000000
     B    .00000000  5.28640000   .00000000
     C   2.64320000  2.64320000  5.20510000
    &END CELL
    &COORD
 SCALED
Cu   .00000000   .00000000   .00000000      .00000000   .00000000   .00000000
Cu  -.25000000   .25000000   .50000000      .00000000  2.64320000  2.60255000
Fe   .50000000   .50000000   .00000000     2.64320000  2.64320000   .00000000
Fe   .25000000  -.25000000   .50000000     2.64320000   .00000000  2.60255000
S    .13200004   .12500000   .25000000     1.35860500  1.32160000  1.30127500
S   -.38200004  -.37500000   .25000000    -1.35860500 -1.32160000  1.30127500
S   -.12500000   .38200004  -.25000000    -1.32160000  1.35860500 -1.30127500
S    .37500000  -.13200004  -.25000000     1.32160000 -1.35860500 -1.30127500
    &END COORD
    &PRINT
      &SYMMETRY
       CHECK_SYMMETRY 4mm
      &END
    &END
    &TOPOLOGY
      CONNECTIVITY OFF
    &END
  &END SUBSYS
&END FORCE_EVAL
&GLOBAL
  PROJECT c_15_chalcopyrite
  RUN_TYPE ENERGY
&END GLOBAL
