&FORCE_EVAL
  METHOD Quickstep
  &DFT
    &QS
      METHOD PM6
      &SE
      &END
    &END QS
    &SCF
      MAX_SCF 0
    &END SCF
  &END DFT
  &SUBSYS
    &CELL
#Pb O & P4/nmm & #129 & tP4 & B10
     A   3.99980000   .00000000   .00000000
     B    .00000000  3.99980000   .00000000
     C    .00000000   .00000000  5.06540000
    &END CELL
    &COORD
 SCALED
O    .25000000   .75000000   .00000000      .99995000  2.99985000   .00000000
O    .75000000   .25000000   .00000000     2.99985000   .99995000   .00000000
Pb   .25000000   .25000000   .23420006      .99995000   .99995000  1.18631700
Pb   .75000000   .75000000  -.23420006     2.99985000  2.99985000 -1.18631700
    &END COORD
    &PRINT
      &SYMMETRY
       CHECK_SYMMETRY 4/mmm
      &END
    &END
    &TOPOLOGY
      CONNECTIVITY OFF
    &END
  &END SUBSYS
&END FORCE_EVAL
&GLOBAL
  PROJECT c_17_PbO
  RUN_TYPE ENERGY
&END GLOBAL
