&FORCE_EVAL
  METHOD Quickstep
  &DFT
    &QS
      METHOD PM6
      &SE
      &END
    &END QS
    &SCF
      MAX_SCF 0
    &END SCF
  &END DFT
  &SUBSYS
    &CELL
#N_2 (gamma) & P4_2/mnm-D_{4h}^{14} & tP4 & Donohue, pp. 287-9
     A   3.95700000  0.00000000  0.00000000
     B   0.00000000  3.95700000  0.00000000
     C   0.00000000  0.00000000  5.10900000
    &END CELL
    &COORD
 SCALED
N   0.09800000  0.09800000  0.00000000     0.38778600  0.38778600  0.00000000
N  -0.09800000 -0.09800000  0.00000000    -0.38778600 -0.38778600  0.00000000
N   0.40200000  0.59800000  0.50000000     1.59071400  2.36628600  2.55450000
N   0.59800000  0.40200000  0.50000000     2.36628600  1.59071400  2.55450000
    &END COORD
    &PRINT
      &SYMMETRY
       CHECK_SYMMETRY 4/mmm
      &END
    &END
    &TOPOLOGY
      CONNECTIVITY OFF
    &END
  &END SUBSYS
&END FORCE_EVAL
&GLOBAL
  PROJECT c_17_N2
  RUN_TYPE ENERGY
&END GLOBAL
