&FORCE_EVAL
  METHOD Quickstep
  &DFT
    &QS
      METHOD PM6
      &SE
      &END
    &END QS
    &SCF
      MAX_SCF 0
    &END SCF
  &END DFT
  &SUBSYS
    &CELL
#BMo & I4_1/amd (#141, D^{19}_{4h}) & B_g & tI16
     A   3.10500000  0.00000000  0.00000000
     B   0.00000000  3.10500000  0.00000000
     C   1.55250000  1.55250000  8.48500000
    &END CELL
    &COORD
 SCALED
B  -0.35200000 -0.35200000  0.70400000     0.00000000  0.00000000  5.97344000
B  -0.60200000 -0.10200000  0.20400000    -1.55250000  0.00000000  1.73094000
B   0.10200000 -0.39800000  0.79600000     1.55250000  0.00000000  6.75406000
B   0.35200000  0.35200000  0.29600000     1.55250000  1.55250000  2.51156000
Mo -0.19600000 -0.19600000  0.39200000     0.00000000  0.00000000  3.32612000
Mo -0.44600000  0.05400000  0.89200000     0.00000000  1.55250000  7.56862000
Mo -0.05400000 -0.55400000  0.10800000     0.00000000 -1.55250000  0.91638000
Mo  0.19600000  0.19600000  0.60800000     1.55250000  1.55250000  5.15888000
    &END COORD
    &PRINT
      &SYMMETRY
       CHECK_SYMMETRY 4/mmm
      &END
    &END
    &TOPOLOGY
      CONNECTIVITY OFF
    &END
  &END SUBSYS
&END FORCE_EVAL
&GLOBAL
  PROJECT c_17_MoB
  RUN_TYPE ENERGY
&END GLOBAL
