&FORCE_EVAL
  METHOD Quickstep
  &DFT
    LSD
    &QS
      METHOD PM6
      &SE
      &END
    &END QS
    &SCF
      MAX_SCF 0
    &END SCF
  &END DFT
  &SUBSYS
    &CELL
#Cu Ti_3 & P4/mmm (#123) & tP4 & L6_0
     A   4.15800000   .00000000   .00000000
     B    .00000000  4.15800000   .00000000
     C    .00000000   .00000000  3.59400000
    &END CELL
    &COORD
 SCALED
Cu   .00000000   .00000000   .00000000      .00000000   .00000000   .00000000
Ti   .50000000   .50000000   .00000000     2.07900000  2.07900000   .00000000
Ti   .00000000   .50000000   .50000000      .00000000  2.07900000  1.79700000
Ti   .50000000   .00000000   .50000000     2.07900000   .00000000  1.79700000
    &END COORD
    &PRINT
      &SYMMETRY
       CHECK_SYMMETRY 4/mmm
      &END
    &END
    &TOPOLOGY
      CONNECTIVITY OFF
    &END
  &END SUBSYS
&END FORCE_EVAL
&GLOBAL
  PROJECT c_17_CuTi3
  RUN_TYPE ENERGY
&END GLOBAL
