&FORCE_EVAL
  METHOD Quickstep
  &DFT
    &QS
      METHOD PM6
      &SE
      &END
    &END QS
    &SCF
      MAX_SCF 0
    &END SCF
  &END DFT
  &SUBSYS
    &CELL
#AuCu    & P4/mmm (#123) & tP4 & L1_0
     A   1.98150000 -1.98150000   .00000000
     B   1.98150000  1.98150000   .00000000
     C    .00000000   .00000000  3.67100000
    &END CELL
    &COORD
 SCALED
Au   .00000000   .00000000   .00000000      .00000000   .00000000   .00000000
Cu   .50000000   .50000000   .50000000     1.98150000   .00000000  1.83550000
    &END COORD
    &PRINT
      &SYMMETRY
       CHECK_SYMMETRY 4/mmm
      &END
    &END
    &TOPOLOGY
      CONNECTIVITY OFF
    &END
  &END SUBSYS
&END FORCE_EVAL
&GLOBAL
  PROJECT c_17_AuCu
  RUN_TYPE ENERGY
&END GLOBAL
