&FORCE_EVAL
  METHOD Quickstep
  &DFT
    &QS
      METHOD PM6
      &SE
      &END
    &END QS
    &SCF
      MAX_SCF 0
    &END SCF
  &END DFT
  &SUBSYS
    &CELL
#HoCoGa5 & P4/mmm-D_{4h}^1 #123 (abci) & tI7 & Pearson's Handbook II, 2403
     A   4.20700000  0.00000000  0.00000000
     B   0.00000000  4.20700000  0.00000000
     C   0.00000000  0.00000000  6.79500000
    &END CELL
    &COORD
 SCALED
#replace Ho by Cd
Cd  0.00000000  0.00000000  0.00000000     0.00000000  0.00000000  0.00000000
Co  0.00000000  0.00000000  0.50000000     0.00000000  0.00000000  3.39750000
Ga  0.50000000  0.50000000  0.00000000     2.10350000  2.10350000  0.00000000
Ga  0.00000000  0.50000000  0.31200000     0.00000000  2.10350000  2.12004000
Ga  0.50000000  0.00000000  0.31200000     2.10350000  0.00000000  2.12004000
Ga  0.00000000  0.50000000 -0.31200000     0.00000000  2.10350000 -2.12004000
Ga  0.50000000  0.00000000 -0.31200000     2.10350000  0.00000000 -2.12004000
    &END COORD
    &PRINT
      &SYMMETRY
       CHECK_SYMMETRY 4/mmm
      &END
    &END
    &TOPOLOGY
      CONNECTIVITY OFF
    &END
  &END SUBSYS
&END FORCE_EVAL
&GLOBAL
  PROJECT c_17_HoCoGa5
  RUN_TYPE ENERGY
&END GLOBAL
