&FORCE_EVAL
  METHOD Quickstep
  &DFT
    LSD
    &QS
      METHOD PM6
      &SE
      &END
    &END QS
    &SCF
      MAX_SCF 0
    &END SCF
  &END DFT
  &SUBSYS
    &CELL
#In & I4/mmm-D_{4h}^{17} #139 & tI2 & A6 & Pearson (Alloys) 310
     A   3.25127698  0.00000000  0.00000000
     B   0.00000000  3.25127698  0.00000000
     C   1.62563849  1.62563849  2.47350000
    &END CELL
    &COORD
 SCALED
In  0.00000000  0.00000000  0.00000000     0.00000000  0.00000000  0.00000000
    &END COORD
    &PRINT
      &SYMMETRY
       CHECK_SYMMETRY 4/mmm
      &END
    &END
    &TOPOLOGY
      CONNECTIVITY OFF
    &END
  &END SUBSYS
&END FORCE_EVAL
&GLOBAL
  PROJECT c_17_In
  RUN_TYPE ENERGY
&END GLOBAL
