&FORCE_EVAL
  METHOD Quickstep
  &DFT
    &QS
      METHOD PM6
      &SE
      &END
    &END QS
    &SCF
      MAX_SCF 0
    &END SCF
  &END DFT
  &SUBSYS
    &CELL
#Cu_2 Sb & P4/nmm & D_{4h}^7 & #129 & C38 & tP6
      A  3.99200000  0.00000000  0.00000000
      B  0.00000000  3.99200000  0.00000000
      C  0.00000000  0.00000000  6.09100000
    &END CELL
    &COORD
 SCALED
Cu  0.75000000  0.25000000  0.00000000     2.99400000  0.99800000  0.00000000
Cu  0.25000000  0.75000000  0.00000000     0.99800000  2.99400000  0.00000000
Cu  0.25000000  0.25000000  0.27000000     0.99800000  0.99800000  1.64457000
Cu  0.75000000  0.75000000 -0.27000000     2.99400000  2.99400000 -1.64457000
Sb  0.25000000  0.25000000  0.70000000     0.99800000  0.99800000  4.26370000
Sb  0.75000000  0.75000000  0.30000000     2.99400000  2.99400000  1.82730000
    &END COORD
    &PRINT
      &SYMMETRY
       CHECK_SYMMETRY 4/mmm
      &END
    &END
    &TOPOLOGY
      CONNECTIVITY OFF
    &END
  &END SUBSYS
&END FORCE_EVAL
&GLOBAL
  PROJECT c_17_Cu2Sb
  RUN_TYPE ENERGY
&END GLOBAL
