&FORCE_EVAL
  METHOD Quickstep
  &DFT
    &QS
      METHOD PM6
      &SE
      &END
    &END QS
    &SCF
      MAX_SCF 0
    &END SCF
  &END DFT
  &SUBSYS
    &CELL
#Al_2 Cu & I4/mcm & D_{4h}^{18} & #194 & tI12 & C16
     A   6.06300000  0.00000000  0.00000000
     B   0.00000000  6.06300000  0.00000000
     C   3.03150000  3.03150000  2.43600000
    &END CELL
    &COORD
 SCALED
Cu -0.25000000 -0.25000000  0.50000000     0.00000000  0.00000000  1.21800000
Cu  0.25000000  0.25000000 -0.50000000     0.00000000  0.00000000 -1.21800000
Al  0.15410000  0.65410000  0.00000000     0.93430830  3.96580830  0.00000000
Al -0.15410000  0.34590000  0.00000000    -0.93430830  2.09719170  0.00000000
Al  0.34590000  0.15410000  0.00000000     2.09719170  0.93430830  0.00000000
Al  0.65410000 -0.15410000  0.00000000     3.96580830 -0.93430830  0.00000000
    &END COORD
    &PRINT
      &SYMMETRY
       CHECK_SYMMETRY 4/mmm
      &END
    &END
    &TOPOLOGY
      CONNECTIVITY OFF
    &END
  &END SUBSYS
&END FORCE_EVAL
&GLOBAL
  PROJECT c_17_Al2Cu
  RUN_TYPE ENERGY
&END GLOBAL
