&FORCE_EVAL
  METHOD Quickstep
  &DFT
    &QS
      METHOD PM6
      &SE
      &END
    &END QS
    &SCF
      MAX_SCF 0
    &END SCF
  &END DFT
  &SUBSYS
    &CELL
#Ga_2 Hf & I4_1/amd     & #141 & tI24
      A  4.04600000   .00000000   .00000000
      B   .00000000  4.04600000   .00000000
      C  2.02300000  2.02300000 12.72300000
    &END CELL
    &COORD
 SCALED
Ga  -.25000000  -.25000000   .50000000      .00000000   .00000000  6.36150000
Ga   .25000000   .25000000  -.50000000      .00000000   .00000000 -6.36150000
Ga  -.50000000  0.00000000  1.00000000      .00000000  2.02300000 12.72300000
Ga   .00000000   .50000000   .00000000      .00000000  2.02300000   .00000000
Ga  -.41399984  -.41399984   .82799969      .00000000   .00000000 10.53464000
Ga   .41399984   .41399984  -.82799969      .00000000   .00000000-10.53464000
Ga  -.66399984  -.16399984  1.32799969      .00000000  2.02300000 16.89614000
Ga   .16399984   .66399984  -.32799969      .00000000  2.02300000 -4.17314000
Hf  -.07399984  -.07399984   .14799969      .00000000   .00000000  1.88300000
Hf   .07399984   .07399984  -.14799969      .00000000   .00000000 -1.88300000
Hf  -.32399984   .17600016   .64799969      .00000000  2.02300000  8.24450000
Hf  -.17600016   .32399984   .35200031      .00000000  2.02300000  4.47850000
    &END COORD
    &PRINT
      &SYMMETRY
       CHECK_SYMMETRY 4/mmm
      &END
    &END
    &TOPOLOGY
      CONNECTIVITY OFF
    &END
  &END SUBSYS
&END FORCE_EVAL
&GLOBAL
  PROJECT c_17_Ga2Hf
  RUN_TYPE ENERGY
&END GLOBAL
