&FORCE_EVAL
  METHOD Quickstep
  &DFT
    &QS
      METHOD PM6
      &SE
      &END
    &END QS
    &SCF
      MAX_SCF 0
    &END SCF
  &END DFT
  &SUBSYS
    &CELL
#Mn_{12} Th & I4/mmm & D_{4h}^{17} & #139 & tI26 & D2_b
      A  8.74000000  0.00000000  0.00000000
      B  0.00000000  8.74000000  0.00000000
      C  4.37000000  4.37000000  2.47500000
    &END CELL
    &COORD
 SCALED
#replace Th by Zr
Zr  0.00000000  0.00000000  0.00000000     0.00000000  0.00000000  0.00000000
Mn  0.00000000  0.00000000  0.50000000     2.18500000  2.18500000  1.23750000
Mn -0.50000000  0.00000000  0.50000000    -2.18500000  2.18500000  1.23750000
Mn  0.00000000 -0.50000000  0.50000000     2.18500000 -2.18500000  1.23750000
Mn  0.50000000  0.50000000 -0.50000000     2.18500000  2.18500000 -1.23750000
Mn  0.36100000  0.00000000  0.00000000     3.15514000  0.00000000  0.00000000
Mn -0.36100000  0.00000000  0.00000000    -3.15514000  0.00000000  0.00000000
Mn  0.00000000  0.36100000  0.00000000     0.00000000  3.15514000  0.00000000
Mn  0.00000000 -0.36100000  0.00000000     0.00000000 -3.15514000  0.00000000
Mn  0.27700000  0.50000000  0.00000000     2.42098000  4.37000000  0.00000000
Mn -0.27700000  0.50000000  0.00000000    -2.42098000  4.37000000  0.00000000
Mn  0.50000000  0.27700000  0.00000000     4.37000000  2.42098000  0.00000000
Mn  0.50000000 -0.27700000  0.00000000     4.37000000 -2.42098000  0.00000000
    &END COORD
    &PRINT
      &SYMMETRY
       CHECK_SYMMETRY 4/mmm
      &END
    &END
    &TOPOLOGY
      CONNECTIVITY OFF
    &END
  &END SUBSYS
&END FORCE_EVAL
&GLOBAL
  PROJECT c_17_Mn12Th
  RUN_TYPE ENERGY
&END GLOBAL
