&FORCE_EVAL
  METHOD Quickstep
  &DFT
    LSD
    &QS
      METHOD PM6
      &SE
      &END
    &END QS
    &SCF
      MAX_SCF 0
    &END SCF
  &END DFT
  &SUBSYS
    &CELL
#Al_3 Ti & I4/mmm-D_{4h}^{17} & tI8 & D0_22 & Pearson Alloys, p. 328
     A   3.84800000  0.00000000  0.00000000
     B   0.00000000  3.84800000  0.00000000
     C   1.92400000  1.92400000  4.29800000
    &END CELL
    &COORD
 SCALED
Ti  0.00000000  0.00000000  0.00000000     0.00000000  0.00000000  0.00000000
Al  0.50000000  0.50000000  0.00000000     1.92400000  1.92400000  0.00000000
Al -0.25000000  0.25000000  0.50000000     0.00000000  1.92400000  2.14900000
Al  0.25000000 -0.25000000  0.50000000     1.92400000  0.00000000  2.14900000
    &END COORD
    &PRINT
      &SYMMETRY
       CHECK_SYMMETRY 4/mmm
      &END
    &END
    &TOPOLOGY
      CONNECTIVITY OFF
    &END
  &END SUBSYS
&END FORCE_EVAL
&GLOBAL
  PROJECT c_17_Al3Ti
  RUN_TYPE ENERGY
&END GLOBAL
