&FORCE_EVAL
  METHOD Quickstep
  &DFT
    LSD
    &QS
      METHOD PM6
      &SE
      &END
    &END QS
    &SCF
      MAX_SCF 0
    &END SCF
  &END DFT
  &SUBSYS
    &CELL
#NbNi_8 & I4/mmm-D_{4h}^{17} #139 (ahi) & tI18 & Pearson "Metals and Alloys" pp
     A  -3.73352380  3.73352380  1.76000000
     B   3.73352380 -3.73352380  1.76000000
     C   3.73352380  3.73352380 -1.76000000
    &END CELL
    &COORD
 SCALED
Nb  0.00000000  0.00000000  0.00000000     0.00000000  0.00000000  0.00000000
Ni  0.33333333  0.33333333  0.66666667     2.48901587  2.48901587  0.00000000
Ni -0.33333333 -0.33333333 -0.66666667    -2.48901587 -2.48901587  0.00000000
Ni  0.33333333 -0.33333333  0.00000000    -2.48901587  2.48901587  0.00000000
Ni -0.33333333  0.33333333  0.00000000     2.48901587 -2.48901587  0.00000000
Ni  0.00000000  0.33333333  0.33333333     2.48901587  0.00000000  0.00000000
Ni  0.00000000 -0.33333333 -0.33333333    -2.48901587  0.00000000  0.00000000
Ni  0.33333333  0.00000000  0.33333333     0.00000000  2.48901587  0.00000000
Ni -0.33333333  0.00000000 -0.33333333     0.00000000 -2.48901587  0.00000000
    &END COORD
    &PRINT
      &SYMMETRY
       CHECK_SYMMETRY 4/mmm
      &END
    &END
    &TOPOLOGY
      CONNECTIVITY OFF
    &END
  &END SUBSYS
&END FORCE_EVAL
&GLOBAL
  PROJECT c_17_NbNi8
  RUN_TYPE ENERGY
&END GLOBAL
