&FORCE_EVAL
  METHOD Quickstep
  &DFT
    &QS
      METHOD PM6
      &SE
      &END
    &END QS
    &SCF
      MAX_SCF 0
    &END SCF
  &END DFT
  &SUBSYS
    &CELL
#NbP     & I4_1/amd (#141) & tI8 & "40"
      A  3.32500000   .00000000   .00000000
      B   .00000000  3.32500000   .00000000
      C  1.66250000  1.66250000  5.69000000
    &END CELL
    &COORD
 SCALED
Nb  -.12500000   .62500000   .25000000      .00000000  2.49375000  1.42250000
Nb  -.87500000  -.62500000  1.75000000      .00000000   .83125000  9.95750000
P   -.37500000  -.12500000   .75000000      .00000000   .83125000  4.26750000
P   -.62500000   .12500000  1.25000000      .00000000  2.49375000  7.11250000
    &END COORD
    &PRINT
      &SYMMETRY
       CHECK_SYMMETRY 4/mmm
      &END
    &END
    &TOPOLOGY
      CONNECTIVITY OFF
    &END
  &END SUBSYS
&END FORCE_EVAL
&GLOBAL
  PROJECT c_17_NbP
  RUN_TYPE ENERGY
&END GLOBAL
