&FORCE_EVAL
  METHOD Quickstep
  &DFT
    BASIS_SET_FILE_NAME BASIS_SET
    POTENTIAL_FILE_NAME GTH_POTENTIALS
    &MGRID
      CUTOFF 300
    &END MGRID
    &QS
      METHOD GPW
      EPS_DEFAULT 1.E-12
    &END QS
    &EFIELD
    &END
    &ENERGY_CORRECTION
      ENERGY_FUNCTIONAL DCDFT
      HARRIS_BASIS ORBITAL
      &RESPONSE_SOLVER
         METHOD MO_SOLVER
         PRECONDITIONER FULL_SINGLE_INVERSE
      &END
      &XC
        &XC_FUNCTIONAL PBE
        &END
      &END XC
      &PRINT
        &MOMENTS ON
           PERIODIC .FALSE.
           REFERENCE COM
        &END
      &END
    &END ENERGY_CORRECTION
    &SCF
      EPS_SCF 1.0E-7
      SCF_GUESS ATOMIC 
    &END
    &XC
       &XC_FUNCTIONAL PADE
       &END
    &END XC
    &POISSON
       PERIODIC NONE
       POISSON_SOLVER MT
    &END
  &END DFT
  &SUBSYS
    &CELL
      PERIODIC NONE
      ABC 5.0 5.0 5.0
    &END CELL
    &COORD
    O   0.000000    0.000000   -0.065587
    H   0.000000   -0.757136    0.520545
    H   0.000000    0.757136    0.520545
    &END COORD
    &TOPOLOGY
     &CENTER_COORDINATES
     &END
    &END
    &KIND H
      BASIS_SET DZVP-GTH-PADE
      POTENTIAL GTH-PADE-q1
    &END KIND
    &KIND O
      BASIS_SET DZVP-GTH-PADE
      POTENTIAL GTH-PADE-q6
    &END KIND
  &END SUBSYS
&END FORCE_EVAL
&GLOBAL
  PROJECT dcdft
  RUN_TYPE DEBUG
  PRINT_LEVEL LOW
&END GLOBAL
&DEBUG
   DEBUG_FORCES .FALSE.
   DEBUG_STRESS_TENSOR .FALSE.
   DEBUG_DIPOLE .TRUE.
   DEBUG_POLARIZABILITY .FALSE.
   CHECK_DIPOLE_DIRS Z
&END

