&GLOBAL
  PRINT_LEVEL LOW
  PROJECT N2
  RUN_TYPE GEO_OPT
&END GLOBAL

&MOTION
  &GEO_OPT
    MAX_ITER 1
  &END GEO_OPT
&END MOTION

&FORCE_EVAL
  METHOD Quickstep
  &DFT
    BASIS_SET_FILE_NAME BASIS_SET
    POTENTIAL_FILE_NAME GTH_POTENTIALS
    &ENERGY_CORRECTION
      ENERGY_FUNCTIONAL DCDFT
      HARRIS_BASIS ORBITAL
      &RESPONSE_SOLVER
        METHOD MO_SOLVER
        PRECONDITIONER FULL_SINGLE_INVERSE
      &END RESPONSE_SOLVER
      &XC
        &XC_FUNCTIONAL PBE
        &END XC_FUNCTIONAL
      &END XC
    &END ENERGY_CORRECTION
    &MGRID
      CUTOFF 200
    &END MGRID
    &PRINT
      &DERIVATIVES
      &END DERIVATIVES
    &END PRINT
    &QS
      EPS_DEFAULT 1.E-12
    &END QS
    &SCF
      ADDED_MOS 5
      EPS_SCF 1.0E-6
      SCF_GUESS ATOMIC
    &END SCF
    &XC
      &XC_FUNCTIONAL PADE
      &END XC_FUNCTIONAL
    &END XC
  &END DFT
  &SUBSYS
    &CELL
      ABC 4.0 4.0 4.0
    &END CELL
    &COORD
      N     0.400000     0.000000     0.500000
      N    -0.400000     0.000000    -0.500000
    &END COORD
    &KIND N
      BASIS_SET ORB DZV-GTH-BLYP
      POTENTIAL GTH-PADE-q5
    &END KIND
  &END SUBSYS
&END FORCE_EVAL
