&GLOBAL
  PRINT_LEVEL LOW
  PROJECT c2h5cl
  RUN_TYPE DEBUG
&END GLOBAL

&DEBUG
  CHECK_ATOM_FORCE 1 xyz
  CHECK_ATOM_FORCE 8 xyz
&END DEBUG

&FORCE_EVAL
  METHOD Quickstep
  &DFT
    CHARGE 0
    &QS
      METHOD PM6
      &SE
        &COULOMB
          CUTOFF [angstrom] 50.0
          RC_RANGE [angstrom] 0.0
        &END COULOMB
        &EXCHANGE
          CUTOFF [angstrom] 50.0
          RC_RANGE [angstrom] 0.0
        &END EXCHANGE
      &END SE
    &END QS
    &SCF
      EPS_SCF 1.0E-8
      MAX_SCF 100
      SCF_GUESS ATOMIC
      &MIXING
        ALPHA 0.1
        METHOD DIRECT_P_MIXING
      &END MIXING
      &OT
        MINIMIZER DIIS
        PRECONDITIONER NONE
      &END OT
      &OUTER_SCF
        EPS_SCF 1.0E-8
        MAX_SCF 10
      &END OUTER_SCF
      &PRINT
        &RESTART OFF
        &END RESTART
        &RESTART_HISTORY OFF
        &END RESTART_HISTORY
      &END PRINT
    &END SCF
  &END DFT
  &SUBSYS
    &CELL
      ABC 50.0 50.0 50.0
      PERIODIC NONE
    &END CELL
    &COORD
      C        0.00000        0.00000        0.00000
      C        1.51040        0.00000        0.00000
      H        1.92040        1.01980        0.00000
      H        1.92080       -0.50550        0.88530
      H        1.90960       -0.51230       -0.88550
      H       -0.42160        0.53860       -0.86860
      H       -0.42150       -1.02160        0.02840
      Cl       -0.58480        0.84960        1.47790
    &END COORD
    &PRINT
      &KINDS
        BASIS_SET
        POTENTIAL
        SE_PARAMETERS
      &END KINDS
    &END PRINT
    &TOPOLOGY
      CONNECTIVITY OFF
    &END TOPOLOGY
  &END SUBSYS
&END FORCE_EVAL
