&GLOBAL
  PROJECT CH3Cl2
  RUN_TYPE DEBUG
&END GLOBAL

&DEBUG
&END DEBUG

&MOTION
  &MD
    ENSEMBLE NVE
    STEPS 1
    TEMPERATURE 300
    TIMESTEP 0.1
  &END MD
&END MOTION

&FORCE_EVAL
  METHOD Quickstep
  &DFT
    CHARGE -1
    &QS
      METHOD PM6
      &SE
        ANALYTICAL_GRADIENTS T
      &END SE
    &END QS
    &SCF
      EPS_SCF 1.0E-6
      SCF_GUESS ATOMIC
    &END SCF
  &END DFT
  &SUBSYS
    &CELL
      ABC 20.0 20.0 20.0
      PERIODIC NONE
    &END CELL
    &COORD
      H     1.993159     1.759423     3.347927
      H     0.233386     1.618910     3.687861
      H     0.829187     2.854381     2.524314
      C     1.049523     2.304150     3.443131
      Cl     1.214962     3.504400     4.802289
      Cl     0.796082     0.465450     1.360996
    &END COORD
    &PRINT
      &KINDS
        SE_PARAMETERS
      &END KINDS
    &END PRINT
  &END SUBSYS
&END FORCE_EVAL
