&GLOBAL
  PROJECT Hg_dicat3
  RUN_TYPE ENERGY_FORCE
  PRINT_LEVEL LOW
&END GLOBAL
&FORCE_EVAL
  METHOD Quickstep
  &DFT
    CHARGE 2
    &QS
      METHOD PM6
      &SE
      &END
    &END QS
    &SCF
      MAX_SCF 50
      EPS_SCF 1.0E-6
      SCF_GUESS mopac
      &MIXING
          METHOD DIRECT_P_MIXING
          ALPHA   0.1
      &END
      &OT
        MINIMIZER SD
        PRECONDITIONER NONE
      &END
      &OUTER_SCF
        EPS_SCF 1.0E-6
        MAX_SCF 5
      &END
    &END SCF
  &END DFT
  &SUBSYS
    &CELL
      ABC 10.0 10.0 10.0
      PERIODIC NONE
    &END CELL
    &COORD
 Hg    0.000000     0.000000     0.000000
    &END COORD
    &PRINT
      &KINDS
        SE_PARAMETERS
        BASIS_SET
        POTENTIAL
      &END KINDS
    &END PRINT
  &END SUBSYS
&END FORCE_EVAL
