&GLOBAL
  PROJECT Pt-cis-2xpet3Cl2
  RUN_TYPE GEO_OPT
  PRINT_LEVEL LOW
&END GLOBAL
&MOTION
 &GEO_OPT
  OPTIMIZER BFGS
  MAX_ITER  1
  MAX_DR    0.01
  RMS_DR    0.005
  MAX_FORCE 0.0015
  RMS_FORCE 0.001
 &END GEO_OPT
&END MOTION
&FORCE_EVAL
  METHOD Quickstep
  &DFT
    &QS
      METHOD PM6
      &SE
      &END
    &END QS
    &SCF
      MAX_SCF 20
      EPS_SCF 1.0E-4
      SCF_GUESS atomic
      &OT
        MINIMIZER DIIS
        N_DIIS 7
        PRECONDITIONER NONE
      &END
      &OUTER_SCF
        MAX_SCF 5
        EPS_SCF 1.0E-4
      &END
    &END SCF
  &END DFT
  &SUBSYS
    &CELL
      ABC 30.0 30.0 30.0
      PERIODIC NONE
    &END CELL
    &COORD
Pt     5.664194     4.348452     6.089697
Cl     5.664194     4.348452     8.432092
Cl     7.963412     4.348452     5.646152
 P     3.475479     4.361633     6.698833
 P     5.863001     4.289642     3.829353
 C     3.079497     2.768742     7.500998
 C     2.146824     4.433308     5.436883
 C     2.947475     5.675961     7.848487
 C     6.606138     5.844605     3.230467
 C     4.333126     4.193223     2.823153
 C     6.882213     2.963555     3.111233
 C     3.872823     1.730794     6.749773
 H     3.395411     2.809009     8.564407
 H     1.999780     2.536631     7.504078
 H     2.367198     3.695945     4.640643
 C     2.008353     5.821781     4.874901
 H     1.178219     4.100756     5.857728
 C     1.580673     5.457600     8.429502
 H     2.997252     6.645945     7.314322
 H     3.695390     5.752483     8.669544
 H     7.710505     5.775320     3.313801
 H     6.388757     6.052665     2.168119
 C     6.070582     6.928852     4.131128
 H     3.777599     5.141109     2.972847
 C     4.530970     3.969292     1.350200
 H     3.690088     3.388023     3.232376
 C     6.299818     1.633085     3.501303
 H     6.960889     3.064331     2.013199
 H     7.923146     3.056503     3.490605
 H     3.592315     4.142662     0.793766
 H     4.846572     2.934673     1.132732
 H     5.288590     4.651249     0.928709
 H     6.744835     7.802927     4.148583
 H     5.981224     6.552987     5.178905
 H     5.079755     7.281473     3.796705
 H     6.919516     0.805474     3.112487
 H     5.280316     1.494462     3.102453
 H     6.260516     1.526321     4.600993
 H     1.323767     6.269682     9.133831
 H     1.527561     4.510683     8.993283
 H     0.793766     5.438218     7.657200
 H     3.954499     0.793766     7.327787
 H     4.907143     2.104697     6.559379
 H     3.404264     1.484302     5.781142
 H     1.511300     5.810548     3.888687
 H     2.990791     6.311146     4.747730
 H     1.399317     6.465175     5.533297
    &END COORD
    &PRINT
      &KINDS
        BASIS_SET
        POTENTIAL
      &END KINDS
    &END PRINT
  &END SUBSYS
&END FORCE_EVAL
