&GLOBAL
  PRINT_LEVEL LOW
  PROJECT DEBUG_C2_KPSYM
  RUN_TYPE DEBUG
&END GLOBAL

&DEBUG
  CHECK_ATOM_FORCE 1 Z
  DEBUG_FORCES T
  DEBUG_STRESS_TENSOR F
  EPS_NO_ERROR_CHECK 1.0
  STOP_ON_MISMATCH F
&END DEBUG

&FORCE_EVAL
  METHOD Quickstep
  &DFT
    BASIS_SET_FILE_NAME BASIS_MOLOPT_UZH
    POTENTIAL_FILE_NAME POTENTIAL_UZH
    &KPOINTS
      EPS_SYMMETRY 1.e-8
      FULL_GRID OFF
      PARALLEL_GROUP_SIZE -1
      SCHEME MONKHORST-PACK 2 2 2
      SYMMETRY ON
      SYMMETRY_BACKEND SPGLIB
      VERBOSE T
      WAVEFUNCTIONS COMPLEX
    &END KPOINTS
    &MGRID
      CUTOFF 80
      REL_CUTOFF 30
    &END MGRID
    &QS
      EPS_DEFAULT 1.0E-10
      METHOD GPW
    &END QS
    &SCF
      EPS_SCF 1.0E-5
      IGNORE_CONVERGENCE_FAILURE
      MAX_SCF 3
      SCF_GUESS ATOMIC
      &MIXING
        ALPHA 0.70
        METHOD DIRECT_P_MIXING
      &END MIXING
      &PRINT
        &RESTART OFF
        &END RESTART
      &END PRINT
    &END SCF
    &XC
      &XC_FUNCTIONAL PBE
      &END XC_FUNCTIONAL
    &END XC
  &END DFT
  &SUBSYS
    &CELL
      ABC 7.5 7.5 7.5
      ALPHA_BETA_GAMMA 60.0 60.0 60.0
    &END CELL
    &COORD
      SCALED
      C   0.00000000  0.00000000  0.00000000
      C   0.25000000  0.25000000  0.25000000
    &END COORD
    &KIND C
      BASIS_SET DZVP-MOLOPT-PBE-GTH-q4
      POTENTIAL GTH-PBE-q4
    &END KIND
  &END SUBSYS
&END FORCE_EVAL
