&GLOBAL
  PRINT_LEVEL LOW
  PROJECT H_HEX_C3_SYM_RED
  RUN_TYPE ENERGY
&END GLOBAL

&FORCE_EVAL
  &DFT
    BASIS_SET_FILE_NAME GTH_BASIS_SETS
    POTENTIAL_FILE_NAME POTENTIAL
    &KPOINTS
      EPS_SYMMETRY 1.e-8
      FULL_GRID OFF
      INVERSION_SYMMETRY_ONLY ON
      PARALLEL_GROUP_SIZE -1
      SCHEME MONKHORST-PACK 3 3 2
      SYMMETRY ON
      SYMMETRY_BACKEND SPGLIB
      VERBOSE T
    &END KPOINTS
    &MGRID
      CUTOFF 120
      REL_CUTOFF 35
    &END MGRID
    &QS
      EPS_DEFAULT 1.0E-10
      METHOD GPW
    &END QS
    &SCF
      CHOLESKY OFF
      EPS_EIGVAL 1.e-8
      EPS_SCF 1.0E-9
      MAX_SCF 100
      SCF_GUESS ATOMIC
      &MIXING
        ALPHA 0.35
        METHOD BROYDEN_MIXING
      &END MIXING
      &PRINT
        &RESTART OFF
        &END RESTART
      &END PRINT
    &END SCF
    &XC
      &XC_FUNCTIONAL PADE
      &END XC_FUNCTIONAL
    &END XC
  &END DFT
  &SUBSYS
    &CELL
      A 5.4000000000 0.0000000000 0.0000000000
      B -2.7000000000 4.6765371804 0.0000000000
      C 0.0000000000 0.0000000000 8.2000000000
    &END CELL
    &COORD
      SCALED
      H   0.12000000   0.27000000   0.19000000
      H   0.73000000   0.85000000   0.19000000
      H   0.15000000   0.88000000   0.19000000
      H   0.38000000   0.14000000   0.61000000
      H   0.86000000   0.24000000   0.61000000
      H   0.76000000   0.62000000   0.61000000
      H   0.22000000   0.47000000   0.83000000
      H   0.53000000   0.75000000   0.83000000
      H   0.25000000   0.78000000   0.83000000
      H   0.51000000   0.09000000   0.33000000
      H   0.91000000   0.42000000   0.33000000
      H   0.58000000   0.49000000   0.33000000
      H   0.18000000   0.64000000   0.52000000
      H   0.36000000   0.54000000   0.52000000
      H   0.46000000   0.82000000   0.52000000
      H   0.43000000   0.31000000   0.77000000
      H   0.69000000   0.12000000   0.77000000
      H   0.88000000   0.57000000   0.77000000
    &END COORD
    &KIND H
      BASIS_SET SZV-GTH
      POTENTIAL GTH-PADE-q1
    &END KIND
  &END SUBSYS
&END FORCE_EVAL
