&GLOBAL
  PRINT_LEVEL MEDIUM
  PROJECT HE_MONOCLINIC_FULL_SYMMETRY_DEBUG
  RUN_TYPE DEBUG
&END GLOBAL

&DEBUG
  CHECK_ATOM_FORCE 1 Z
  DEBUG_FORCES T
  DEBUG_STRESS_TENSOR T
  DX 1.0E-4
  MAX_RELATIVE_ERROR 0.5
  STOP_ON_MISMATCH F
&END DEBUG

&FORCE_EVAL
  METHOD QS
  STRESS_TENSOR ANALYTICAL
  &DFT
    BASIS_SET_FILE_NAME GTH_BASIS_SETS
    POTENTIAL_FILE_NAME POTENTIAL
    &KPOINTS
      EPS_SYMMETRY 1.0E-8
      FULL_GRID OFF
      SCHEME MACDONALD 2 2 2 0.0 0.0 0.0
      SYMMETRY ON
      SYMMETRY_BACKEND SPGLIB
      SYMMETRY_REDUCTION_METHOD SPGLIB
      VERBOSE T
      WAVEFUNCTIONS COMPLEX
    &END KPOINTS
    &MGRID
      CUTOFF 300
      REL_CUTOFF 50
    &END MGRID
    &QS
      EPS_DEFAULT 1.0E-12
      METHOD GPW
    &END QS
    &SCF
      EPS_SCF 1.0E-9
      MAX_SCF 80
      SCF_GUESS ATOMIC
      &MIXING
        ALPHA 0.7
        METHOD DIRECT_P_MIXING
      &END MIXING
      &PRINT
        &RESTART OFF
        &END RESTART
      &END PRINT
    &END SCF
    &XC
      &XC_FUNCTIONAL PADE
      &END XC_FUNCTIONAL
    &END XC
  &END DFT
  &SUBSYS
    &CELL
      ABC 4.0 5.0 6.0
      ALPHA_BETA_GAMMA 90.0 110.0 90.0
      PERIODIC XYZ
    &END CELL
    &COORD
      SCALED
      He 0.13 0.00 0.17
      He 0.87 0.00 0.83
    &END COORD
    &KIND He
      BASIS_SET DZVP-GTH
      POTENTIAL GTH-PADE-q2
    &END KIND
  &END SUBSYS
&END FORCE_EVAL
