&GLOBAL
  PRINT_LEVEL LOW
  PROJECT CH2O
  RUN_TYPE DEBUG
&END GLOBAL

&DEBUG
  DE 0.0002
  DEBUG_DIPOLE T
  DEBUG_FORCES F
  DEBUG_POLARIZABILITY F
  DEBUG_STRESS_TENSOR F
  STOP_ON_MISMATCH T
&END DEBUG

&FORCE_EVAL
  &DFT
    &EFIELD
    &END EFIELD
    &POISSON
      &EWALD
        ALPHA 0.35
        EWALD_TYPE SPME
        GMAX 25
      &END EWALD
    &END POISSON
    &PRINT
      &MOMENTS ON
        PERIODIC .TRUE.
        REFERENCE COM
      &END MOMENTS
    &END PRINT
    &QS
      METHOD DFTB
      &DFTB
        DISPERSION F
        DO_EWALD T
        ORTHOGONAL_BASIS F
        SELF_CONSISTENT T
        &PARAMETER
          PARAM_FILE_NAME scc_parameter
          PARAM_FILE_PATH DFTB/scc
        &END PARAMETER
      &END DFTB
    &END QS
    &SCF
      EPS_SCF 1.e-8
      MAX_SCF 100
      SCF_GUESS MOPAC
      &MIXING
        ALPHA 0.2
        METHOD DIRECT_P_MIXING
      &END MIXING
    &END SCF
  &END DFT
  &SUBSYS
    &CELL
      ABC 10.0 10.0 10.0
      PERIODIC NONE
    &END CELL
    &COORD
      O     0.051368    0.000000    0.000000
      C     1.278612    0.000000    0.000000
      H     1.870460    0.939607    0.000000
      H     1.870460   -0.939607    0.000000
    &END COORD
  &END SUBSYS
&END FORCE_EVAL
