&GLOBAL
  PRINT_LEVEL LOW
  PROJECT h2o_polar
  RUN_TYPE LINEAR_RESPONSE
&END GLOBAL

&FORCE_EVAL
  &DFT
    &QS
      METHOD xTB
    &END QS
    &SCF
      MAX_SCF 100
      SCF_GUESS ATOMIC
    &END SCF
  &END DFT
  &PROPERTIES
    &LINRES
      EPS 1E-6
      MAX_ITER 2000
      PRECONDITIONER FULL_ALL
      &POLAR
        DO_RAMAN T
        PERIODIC_DIPOLE_OPERATOR F
      &END POLAR
    &END LINRES
  &END PROPERTIES
  &SUBSYS
    &CELL
      ABC [bohr] 10. 10. 10.
      PERIODIC NONE
    &END CELL
    &COORD
      UNIT bohr
      O              0.000000   0.000000    0.224953
      H              1.451310   0.000000   -0.899812
      H             -1.451310   0.000000   -0.899812
    &END COORD
  &END SUBSYS
&END FORCE_EVAL
