&FORCE_EVAL
  METHOD QUICKSTEP
  &DFT
    BASIS_SET_FILE_NAME BASIS_SET
    POTENTIAL_FILE_NAME POTENTIAL
    &MGRID
      CUTOFF 100
    &END MGRID
    &QS
      EPS_DEFAULT 1.0E-10
    &END QS
    &POISSON
      PERIODIC NONE
      PSOLVER MT
    &END
    &SCF
      MAX_SCF 2
      EPS_SCF 1.0E-6
      SCF_GUESS ATOMIC
    &END SCF
    &XC
      &XC_FUNCTIONAL NONE
      &END XC_FUNCTIONAL
      &HF
        &SCREENING
          EPS_SCHWARZ 1.0E-10
        &END
        &INTERACTION_POTENTIAL
          POTENTIAL_TYPE SHORTRANGE
          OMEGA 0.2
        &END
        &MEMORY
          MAX_MEMORY 100
          EPS_STORAGE_SCALING 0.1
        &END
        FRACTION 1.0
      &END HF
      &HF
        &SCREENING
          EPS_SCHWARZ 1.0E-10
        &END
        &INTERACTION_POTENTIAL
          POTENTIAL_TYPE LONGRANGE
          OMEGA 0.2
        &END
        &MEMORY
          MAX_MEMORY 100
          EPS_STORAGE_SCALING 0.1
        &END
        FRACTION 1.0
      &END HF
    &END XC
  &END DFT
  &SUBSYS
    &CELL
      ABC 8.0 8.0 8.0
      PERIODIC NONE
    &END CELL
    &COORD
    O   0.000000    0.000000   -0.065587
    H   0.000000   -0.757136    0.520545
    H   0.000000    0.757136    0.520545
    &END COORD
    &KIND H
      BASIS_SET ORB DZVP-GTH-PBE
      POTENTIAL GTH-PBE-q1
    &END KIND
    &KIND O
      BASIS_SET ORB DZVP-GTH-PBE
      POTENTIAL GTH-PBE-q6
    &END KIND
  &END SUBSYS
&END FORCE_EVAL
&GLOBAL
  PROJECT H2O-HF
  RUN_TYPE ENERGY
  PRINT_LEVEL LOW
&END GLOBAL
