&GLOBAL
  PRINT_LEVEL MEDIUM
  PROJECT dftd4_argon_stress
  RUN_TYPE ENERGY_FORCE
&END GLOBAL

&FORCE_EVAL
  METHOD QS
  STRESS_TENSOR ANALYTICAL
  &DFT
    BASIS_SET_FILE_NAME BASIS_MOLOPT
    POTENTIAL_FILE_NAME POTENTIAL
    &MGRID
      CUTOFF 600
      REL_CUTOFF 60
    &END MGRID
    &POISSON
      PERIODIC XYZ
      POISSON_SOLVER ANALYTIC
    &END POISSON
    &PRINT
      &XRAY_DIFFRACTION_SPECTRUM OFF
      &END XRAY_DIFFRACTION_SPECTRUM
    &END PRINT
    &QS
      EPS_DEFAULT 1.0E-14
      METHOD GPW
    &END QS
    &SCF
      EPS_SCF 1.0E-7
      MAX_SCF 100
      SCF_GUESS ATOMIC
    &END SCF
    &XC
      &VDW_POTENTIAL
        DISPERSION_FUNCTIONAL PAIR_POTENTIAL
        &PAIR_POTENTIAL
          REFERENCE_FUNCTIONAL PBE
          TYPE DFTD4
          &PRINT_DFTD
          &END PRINT_DFTD
        &END PAIR_POTENTIAL
      &END VDW_POTENTIAL
      &XC_FUNCTIONAL PBE
      &END XC_FUNCTIONAL
    &END XC
  &END DFT
  &PRINT
    &FORCES ON
    &END FORCES
    &STRESS_TENSOR
      COMPONENTS
    &END STRESS_TENSOR
  &END PRINT
  &SUBSYS
    &CELL
      ABC 8.30 8.30 8.30
      PERIODIC XYZ
    &END CELL
    &COORD
      SCALED  T
      Ar    0.0 0.0 0.0
      Ar    0.5 0.5 0.0
      Ar    0.5 0.0 0.5
      Ar    0.0 0.5 0.5
    &END COORD
    &KIND Ar
      BASIS_SET SZV-MOLOPT-SR-GTH
      POTENTIAL GTH-PBE-q8
    &END KIND
    &TOPOLOGY
      &CENTER_COORDINATES
      &END CENTER_COORDINATES
    &END TOPOLOGY
  &END SUBSYS
&END FORCE_EVAL
