&GLOBAL
  PRINT_LEVEL MEDIUM
  PROJECT dftd4_3H2O_bsse
  RUN_TYPE BSSE
&END GLOBAL

&FORCE_EVAL
  METHOD QS
  &BSSE
    &FRAGMENT
      LIST 1 2 3
    &END FRAGMENT
    &FRAGMENT
      LIST 4 5
      LIST 6
    &END FRAGMENT
  &END BSSE
  &DFT
    BASIS_SET_FILE_NAME BASIS_SET
    POTENTIAL_FILE_NAME POTENTIAL
    &MGRID
      CUTOFF 80
    &END MGRID
    &POISSON
      PERIODIC none
      POISSON_SOLVER MT
    &END POISSON
    &QS
      EPS_DEFAULT 1.0E-6
    &END QS
    &SCF
      EPS_SCF 1.0E-4
      MAX_SCF 40
      SCF_GUESS ATOMIC
      &OUTER_SCF
        EPS_SCF 1.0E-6
        MAX_SCF 10
      &END OUTER_SCF
    &END SCF
    &XC
      &VDW_POTENTIAL
        DISPERSION_FUNCTIONAL PAIR_POTENTIAL
        &PAIR_POTENTIAL
          REFERENCE_FUNCTIONAL PBE
          TYPE DFTD4
          &PRINT_DFTD
          &END PRINT_DFTD
        &END PAIR_POTENTIAL
      &END VDW_POTENTIAL
      &XC_FUNCTIONAL PBE
      &END XC_FUNCTIONAL
    &END XC
  &END DFT
  &SUBSYS
    &CELL
      ABC 10.0 10.0 10.0
      PERIODIC NONE
    &END CELL
    &COORD
      O     0.000000     0.000000     0.000000    H2O1
      H     0.000000     0.000000     1.000000    H2O1
      H     0.942809     0.000000    -0.333333    H2O1
      O    -1.617979    -0.948062    -2.341650    H2O2
      H    -2.529195    -1.296822    -2.122437    H2O2
      H    -1.534288    -0.833088    -3.331486    H2O2
    &END COORD
    &KIND H_ghost
      BASIS_SET ORB DZV-GTH-PBE
      GHOST
    &END KIND
    &KIND O_ghost
      BASIS_SET ORB DZVP-GTH-PBE
      GHOST
    &END KIND
    &KIND H
      BASIS_SET ORB DZV-GTH-PBE
      POTENTIAL GTH-PBE-q1
    &END KIND
    &KIND O
      BASIS_SET ORB DZVP-GTH-PBE
      POTENTIAL GTH-PBE-q6
    &END KIND
    &TOPOLOGY
      &CENTER_COORDINATES
      &END CENTER_COORDINATES
    &END TOPOLOGY
  &END SUBSYS
&END FORCE_EVAL
