&GLOBAL
  PRINT_LEVEL LOW
  PROJECT test
  RUN_TYPE ENERGY_FORCE
&END GLOBAL

&FORCE_EVAL
  METHOD QS
  STRESS_TENSOR ANALYTICAL
  &DFT
    BASIS_SET_FILE_NAME BASIS_SET
    POTENTIAL_FILE_NAME POTENTIAL_UZH
    &MGRID
      CUTOFF 300
      REL_CUTOFF 40
    &END MGRID
    &QS
      EPS_DEFAULT 1.0E-14
    &END QS
    &SCF
      EPS_SCF 1.0E-7
      MAX_SCF 100
      SCF_GUESS ATOMIC
    &END SCF
    &XC
      &VDW_POTENTIAL
        DISPERSION_FUNCTIONAL PAIR_POTENTIAL
        &PAIR_POTENTIAL
          CALCULATE_C9_TERM T
          D4_CUTOFF 30.
          D4_REFERENCE_CODE F
          REFERENCE_FUNCTIONAL PBE
          R_CUTOFF 20.
          TYPE DFTD4
          &EEQ
            EPS_DIIS 1.E-12
          &END EEQ
        &END PAIR_POTENTIAL
      &END VDW_POTENTIAL
      &XC_FUNCTIONAL PADE
      &END XC_FUNCTIONAL
    &END XC
  &END DFT
  &PRINT
    &FORCES ON
    &END FORCES
    &STRESS_TENSOR
      COMPONENTS
    &END STRESS_TENSOR
  &END PRINT
  &SUBSYS
    &CELL
      ABC 9.0 9.0 9.0
    &END CELL
    &KIND H
      BASIS_SET ORB SZV-GTH-PADE
      POTENTIAL GTH-PBE-q1
    &END KIND
    &KIND C
      BASIS_SET ORB SZV-GTH-PADE
      POTENTIAL GTH-PBE-q4
    &END KIND
    &TOPOLOGY
      CONNECTIVITY OFF
      COORDINATE XYZ
      COORD_FILE_NAME ../sample_xyz/ch4-ch4-in.xyz
      &CENTER_COORDINATES
      &END CENTER_COORDINATES
    &END TOPOLOGY
  &END SUBSYS
&END FORCE_EVAL
