&GLOBAL
  PRINT_LEVEL LOW
  PROJECT td_force
  RUN_TYPE DEBUG
&END GLOBAL

&DEBUG
  CHECK_ATOM_FORCE 1 z
  DEBUG_FORCES .TRUE.
  DEBUG_STRESS_TENSOR .FALSE.
  STOP_ON_MISMATCH T
&END DEBUG

&FORCE_EVAL
  METHOD Quickstep
  &DFT
    BASIS_SET_FILE_NAME BASIS_SET
    POTENTIAL_FILE_NAME GTH_POTENTIALS
    &EXCITED_STATES T
      DEBUG_FORCES T
      STATE 1
    &END EXCITED_STATES
    &MGRID
      CUTOFF 200
    &END MGRID
    &POISSON
      PERIODIC NONE
      POISSON_SOLVER MT
    &END POISSON
    &QS
      EPS_DEFAULT 1.E-14
      METHOD GAPW_XC
    &END QS
    &SCF
      EPS_SCF 1.0E-7
      MAX_SCF 20
      SCF_GUESS ATOMIC
      &OT
        MINIMIZER DIIS
        PRECONDITIONER FULL_ALL
        STEPSIZE 0.1
      &END OT
      &OUTER_SCF
        EPS_SCF 1.0E-7
        MAX_SCF 20
      &END OUTER_SCF
    &END SCF
    &XC
      &XC_FUNCTIONAL PBE
      &END XC_FUNCTIONAL
    &END XC
  &END DFT
  &PROPERTIES
    &TDDFPT
      CONVERGENCE [eV] 1.0e-7
      KERNEL NONE
      MAX_ITER 50
      NSTATES 1
    &END TDDFPT
  &END PROPERTIES
  &SUBSYS
    &CELL
      ABC [angstrom] 6.0 6.0 6.0
      PERIODIC NONE
    &END CELL
    &COORD
      O   0.000000    0.000000   -0.065587
      H   0.000000   -0.757136    0.520545
      H   0.000000    0.757136    0.520545
    &END COORD
    &KIND H
      BASIS_SET DZVP-GTH-PADE
      POTENTIAL GTH-PADE-q1
    &END KIND
    &KIND O
      BASIS_SET DZVP-GTH-PADE
      POTENTIAL GTH-PADE-q6
    &END KIND
    &TOPOLOGY
      &CENTER_COORDINATES
      &END CENTER_COORDINATES
    &END TOPOLOGY
  &END SUBSYS
&END FORCE_EVAL
