&GLOBAL
  PROJECT H2O_GAPW
  RUN_TYPE ENERGY
  PRINT_LEVEL LOW
&END GLOBAL
&FORCE_EVAL
  METHOD Quickstep
  &PROPERTIES
    &TDDFPT
       NSTATES      3
       MAX_ITER    10
       MAX_KV      10
       CONVERGENCE 1.0e-5
       &XC
         &XC_FUNCTIONAL PBE
         &END XC_FUNCTIONAL
       &END XC
       RKS_TRIPLETS T
    &END TDDFPT
  &END PROPERTIES

  &DFT
    BASIS_SET_FILE_NAME EMSL_BASIS_SETS
    POTENTIAL_FILE_NAME POTENTIAL
    &MGRID
      CUTOFF 200
    &END MGRID
    &QS
       METHOD GAPW
    &END QS
    &SCF
      MAX_SCF 40
      SCF_GUESS ATOMIC
    &END SCF
    &XC
      &XC_FUNCTIONAL PBE
      &END XC_FUNCTIONAL
    &END XC
    &POISSON
       PERIODIC NONE
       POISSON_SOLVER WAVELET
    &END
  &END DFT
  &SUBSYS
    &CELL
      ABC  6.0  6.0  6.0
      PERIODIC NONE
    &END CELL
    &COORD
    O   0.000000    0.000000   -0.065587 H2O
    H   0.000000   -0.757136    0.520545 H2O
    H   0.000000    0.757136    0.520545 H2O
    &END COORD
    &TOPOLOGY
     &CENTER_COORDINATES
     &END
    &END
    &KIND H
      BASIS_SET ORB 6-311Gxx
      POTENTIAL ALL
    &END KIND
    &KIND O
      BASIS_SET ORB 6-311Gxx
      POTENTIAL ALL
    &END KIND
  &END SUBSYS
&END FORCE_EVAL
