&GLOBAL
  PROJECT H2O_tddfpt-s-2
  RUN_TYPE ELECTRONIC_SPECTRA
  PRINT_LEVEL LOW
&END GLOBAL
&FORCE_EVAL
  METHOD Quickstep
  &DFT
    EXCITATIONS tddfpt
    BASIS_SET_FILE_NAME BASIS_SET
    POTENTIAL_FILE_NAME POTENTIAL
    &MGRID
      CUTOFF 100
    &END MGRID
    &QS
    &END QS
    &SCF
      MAX_SCF 4
      SCF_GUESS atomic
    &END SCF
    &TDDFPT
      KERNEL T
      MAX_KV 10
      METHOD LANCZOS
      OE_CORR SAOP
      NEV 3
      REORTHO 2
      RES_ETYPE SINGLETS
      RESTARTS 2
      PRECOND F
      &XC
        &XC_FUNCTIONAL
          &XALPHA
          &END
        &END XC_FUNCTIONAL
        &XC_GRID
         XC_DERIV SPLINE2_SMOOTH
        &END XC_GRID
      &END XC
    &END TDDFPT
    &XC
      &XC_FUNCTIONAL PBE
      &END XC_FUNCTIONAL
    &END XC
  &END DFT
  &SUBSYS
    &CELL
      ABC 4.0 4.0 4.0
    &END CELL
    &COORD
    O   0.000000    0.000000   -0.065587 H2O
    H   0.000000   -0.757136    0.520545 H2O
    H   0.000000    0.757136    0.520545 H2O
    &END COORD
    &KIND H
      BASIS_SET DZVP-GTH-PADE
      POTENTIAL GTH-PADE-q1
    &END KIND
    &KIND O
      BASIS_SET DZVP-GTH-PADE
      POTENTIAL GTH-PADE-q6
    &END KIND
  &END SUBSYS
&END FORCE_EVAL
