&GLOBAL
  PRINT_LEVEL LOW
  PROJECT H2O_tddfpt-s-1
  RUN_TYPE ENERGY
&END GLOBAL

&FORCE_EVAL
  METHOD Quickstep
  &DFT
    BASIS_SET_FILE_NAME BASIS_SET
    POTENTIAL_FILE_NAME POTENTIAL
    &MGRID
      CUTOFF 100
    &END MGRID
    &QS
    &END QS
    &SCF
      IGNORE_CONVERGENCE_FAILURE
      MAX_SCF 10
      SCF_GUESS atomic
    &END SCF
    &XC
      &XC_FUNCTIONAL PBE
      &END XC_FUNCTIONAL
    &END XC
  &END DFT
  &PROPERTIES
    &TDDFPT
      CONVERGENCE 1.0e-5
      MAX_ITER 10
      MAX_KV 10
      NSTATES 3
      &XC
        &XC_FUNCTIONAL PBE
        &END XC_FUNCTIONAL
        &XC_GRID
          XC_DERIV SPLINE2_SMOOTH
        &END XC_GRID
      &END XC
    &END TDDFPT
  &END PROPERTIES
  &SUBSYS
    &CELL
      ABC 5.0 5.0 5.0
    &END CELL
    &COORD
      O   0.000000    0.000000   -0.065587 H2O
      H   0.000000   -0.757136    0.520545 H2O
      H   0.000000    0.757136    0.520545 H2O
    &END COORD
    &KIND H
      BASIS_SET DZVP-GTH-PADE
      POTENTIAL GTH-PADE-q1
    &END KIND
    &KIND O
      BASIS_SET DZVP-GTH-PADE
      POTENTIAL GTH-PADE-q6
    &END KIND
  &END SUBSYS
&END FORCE_EVAL
