&GLOBAL
  PROJECT test
  RUN_TYPE ENERGY
  PRINT_LEVEL LOW
&END GLOBAL
&FORCE_EVAL
  METHOD Quickstep
  &PROPERTIES
    &TDDFPT
       NSTATES      3
       MAX_ITER    10
       MAX_KV      10
       CONVERGENCE 1.0e-5
       &XC
         &XC_FUNCTIONAL PBE
         &END XC_FUNCTIONAL
         &XC_GRID
            XC_DERIV SPLINE2_SMOOTH
         &END XC_GRID
       &END XC
       &PRINT
          &NTO_ANALYSIS
             CUBE_FILES
             THRESHOLD  0.99
          &END
          &MOS_MOLDEN
          &END
       &END
    &END TDDFPT
  &END PROPERTIES

  &DFT
    CHARGE 1
    LSD
    BASIS_SET_FILE_NAME BASIS_SET
    POTENTIAL_FILE_NAME POTENTIAL
    &MGRID
      CUTOFF 100
    &END MGRID
    &QS
    &END QS
    &SCF
      MAX_SCF 10
      SCF_GUESS atomic
    &END SCF
    &XC
      &XC_FUNCTIONAL PBE
      &END XC_FUNCTIONAL
    &END XC
  &END DFT
  &SUBSYS
    &CELL
      ABC 5.0 5.0 5.0
    &END CELL
    &COORD
    O   0.000000    0.000000   -0.065587 H2O
    H   0.000000   -0.757136    0.520545 H2O
    H   0.000000    0.757136    0.520545 H2O
    &END COORD
    &KIND H
      BASIS_SET DZVP-GTH-PADE
      POTENTIAL GTH-PADE-q1
    &END KIND
    &KIND O
      BASIS_SET DZVP-GTH-PADE
      POTENTIAL GTH-PADE-q6
    &END KIND
  &END SUBSYS
&END FORCE_EVAL
