&GLOBAL
  PROJECT Ne
  PRINT_LEVEL LOW
  RUN_TYPE ENERGY
&END GLOBAL
&FORCE_EVAL
  &PROPERTIES
    &TDDFPT
        &DIPOLE_MOMENTS
    DIPOLE_FORM LENGTH
   &END DIPOLE_MOMENTS
       NSTATES     1
       MAX_ITER    10
       MAX_KV      60
       CONVERGENCE 1.0e-5
    &XC
      &XC_FUNCTIONAL PBE
      &END XC_FUNCTIONAL
      2ND_DERIV_ANALYTICAL T
    &END XC
       RKS_TRIPLETS T
    &END TDDFPT
  &END PROPERTIES
  METHOD Quickstep
  &DFT
    BASIS_SET_FILE_NAME EMSL_BASIS_SETS
    BASIS_SET_FILE_NAME basis
    POTENTIAL_FILE_NAME POTENTIAL
    &QS
      METHOD GAPW
       EPS_DEFAULT 1.0E-17
      EPS_PGF_ORB 1.0E-20
    &END QS
    &MGRID
      CUTOFF 200
      REL_CUTOFF 80
    &END MGRID
    &SCF
      SCF_GUESS RESTART
      &OT
         PRECONDITIONER FULL_SINGLE_INVERSE
         MINIMIZER DIIS
         STEPSIZE 0.1
      &END
      &OUTER_SCF
         MAX_SCF  20
         EPS_SCF 1.0E-7
      &END
      MAX_SCF  20
      EPS_SCF 1.0E-7
    &END SCF
    &POISSON
      PERIODIC NONE
      PSOLVER WAVELET
    &END
    &XC
      &XC_FUNCTIONAL PBE
      &END XC_FUNCTIONAL
      2ND_DERIV_ANALYTICAL T
    &END XC
  &END DFT
  &SUBSYS
    &CELL
      ABC 6.0 6.0 6.0
      PERIODIC NONE
    &END CELL
    &COORD
      Ne 2.5 2.5 2.5
    &END COORD
    &KIND Ne
      BASIS_SET Ahlrichs-def2-SVP
      POTENTIAL ALL
    &END KIND
  &END SUBSYS
&END FORCE_EVAL

