&GLOBAL
  PROJECT NO_tddfpt-s-1
  RUN_TYPE ELECTRONIC_SPECTRA
  PRINT_LEVEL LOW
&END GLOBAL
&FORCE_EVAL
  METHOD Quickstep
  &DFT
    EXCITATIONS tddfpt
    LSD T
    MULTIPLICITY 2
    BASIS_SET_FILE_NAME ../../../data/BASIS_SET
    POTENTIAL_FILE_NAME ../../../data/POTENTIAL
    &MGRID
      CUTOFF 260
    &END MGRID
    &QS
    &END QS
    &SCF
      MAX_SCF 15
      SCF_GUESS atomic
    &END SCF
    &TDDFPT
      KERNEL T
      MAX_KV 10
      METHOD DAVIDSON
      NEV 3
      REORTHO 2
      RES_ETYPE SINGLETS
      RESTARTS 2
      &XC
        &XC_FUNCTIONAL PBE
        &END XC_FUNCTIONAL
        &XC_GRID
         XC_DERIV NN10_SMOOTH
        &END XC_GRID
      &END XC
    &END TDDFPT
    &XC
      &XC_FUNCTIONAL PBE
      &END XC_FUNCTIONAL
    &END XC
  &END DFT
  &SUBSYS
    &CELL
      ABC 4.0 4.0 4.0
    &END CELL
    &COORD
  O   0.100000    0.000000    0.542338
  N   0.000000    0.300000   -0.619815
    &END COORD
    &KIND N
      BASIS_SET DZVP-GTH-PADE
      POTENTIAL GTH-PADE-q5
    &END KIND
    &KIND O
      BASIS_SET DZVP-GTH-PADE
      POTENTIAL GTH-PADE-q6
    &END KIND
  &END SUBSYS
&END FORCE_EVAL
