&GLOBAL
  PRINT_LEVEL LOW
  PROJECT arginine
  RUN_TYPE md
&END GLOBAL

&MOTION
  &MD
    ENSEMBLE NVE
    STEPS 15
    TEMPERATURE 298
    TEMP_TOL 298
    TIMESTEP 2.5
  &END MD
&END MOTION

&FORCE_EVAL
  METHOD FIST
  &MM
    &FORCEFIELD
      PARMTYPE CHM
      PARM_FILE_NAME ../sample_pot/arginine.pot
    &END FORCEFIELD
    &POISSON
      &EWALD
        ALPHA .36
        EWALD_TYPE ewald
        GMAX 29
      &END EWALD
    &END POISSON
    &PRINT
      &FF_INFO
        SPLINE_INFO
      &END FF_INFO
    &END PRINT
  &END MM
  &SUBSYS
    &CELL
      ABC 30.0 30.0 30.0
    &END CELL
    &TOPOLOGY
      CHARGE_BETA
      COORDINATE PDB
      COORD_FILE_NAME ../sample_pdb/arginine.pdb
      &DUMP_PDB
      &END DUMP_PDB
      &DUMP_PSF
      &END DUMP_PSF
      &GENERATE
        &ANGLE REMOVE
          ATOMS 13 12 14
        &END ANGLE
        &ANGLE REMOVE
          ATOMS 14 12 13
        &END ANGLE
        &BOND ADD
          ATOMS 16 15
        &END BOND
        &BOND ADD
          ATOMS 16 15
        &END BOND
        &BOND REMOVE
          ATOMS 16 15
        &END BOND
        &BOND REMOVE
          ATOMS 16 15
        &END BOND
        &IMPROPER REMOVE
          ATOMS 26 28 27 25
          ATOMS 29 30 31 25
        &END IMPROPER
        &TORSION ADD
          ATOMS 23 20 17 14
        &END TORSION
      &END GENERATE
    &END TOPOLOGY
  &END SUBSYS
&END FORCE_EVAL
