&FORCE_EVAL
  METHOD FIST
  &MM
    &FORCEFIELD
      &NONBONDED
        &GENPOT
          atoms Ar Ar
          FUNCTION 4.0*A*((S/x)^12)
          PARAMETERS A S
          VALUES  3.7938446209757681E-04   6.4345174860018615
          VARIABLES x
          RCUT 7.6
        &END GENPOT
      &END NONBONDED
      &CHARGE
        ATOM Ar
        CHARGE 0.0
      &END CHARGE
    &END FORCEFIELD
    &POISSON
      &EWALD
        EWALD_TYPE none
      &END EWALD
    &END POISSON
  &END MM
  &SUBSYS
    &CELL
      ABC 15.2368 15.2368 15.2368
    &END CELL
    &COORD
Ar       -7.6184000969       -7.6184000969       -7.6184000969
Ar       -5.0789333979       -5.0789333979       -7.6184000969
Ar       -5.0789333979       -7.6184000969       -5.0789333979
Ar       -7.6184000969       -5.0789333979       -5.0789333979
Ar       -7.6184000969       -7.6184000969       -2.5394666990
Ar       -5.0789333979       -5.0789333979       -2.5394666990
Ar       -5.0789333979       -7.6184000969        0.0000000000
Ar       -7.6184000969       -5.0789333979        0.0000000000
Ar       -7.6184000969       -7.6184000969        2.5394666990
Ar       -5.0789333979       -5.0789333979        2.5394666990
Ar       -5.0789333979       -7.6184000969        5.0789333979
Ar       -7.6184000969       -5.0789333979        5.0789333979
Ar       -7.6184000969       -2.5394666990       -7.6184000969
Ar       -5.0789333979        0.0000000000       -7.6184000969
Ar       -5.0789333979       -2.5394666990       -5.0789333979
Ar       -7.6184000969        0.0000000000       -5.0789333979
Ar       -7.6184000969       -2.5394666990       -2.5394666990
Ar       -5.0789333979        0.0000000000       -2.5394666990
Ar       -5.0789333979       -2.5394666990        0.0000000000
Ar       -7.6184000969        0.0000000000        0.0000000000
Ar       -7.6184000969       -2.5394666990        2.5394666990
Ar       -5.0789333979        0.0000000000        2.5394666990
Ar       -5.0789333979       -2.5394666990        5.0789333979
Ar       -7.6184000969        0.0000000000        5.0789333979
Ar       -7.6184000969        2.5394666990       -7.6184000969
Ar       -5.0789333979        5.0789333979       -7.6184000969
Ar       -5.0789333979        2.5394666990       -5.0789333979
Ar       -7.6184000969        5.0789333979       -5.0789333979
Ar       -7.6184000969        2.5394666990       -2.5394666990
Ar       -5.0789333979        5.0789333979       -2.5394666990
Ar       -5.0789333979        2.5394666990        0.0000000000
Ar       -7.6184000969        5.0789333979        0.0000000000
Ar       -7.6184000969        2.5394666990        2.5394666990
Ar       -5.0789333979        5.0789333979        2.5394666990
Ar       -5.0789333979        2.5394666990        5.0789333979
Ar       -7.6184000969        5.0789333979        5.0789333979
Ar       -2.5394666990       -7.6184000969       -7.6184000969
Ar        0.0000000000       -5.0789333979       -7.6184000969
Ar        0.0000000000       -7.6184000969       -5.0789333979
Ar       -2.5394666990       -5.0789333979       -5.0789333979
Ar       -2.5394666990       -7.6184000969       -2.5394666990
Ar        0.0000000000       -5.0789333979       -2.5394666990
Ar        0.0000000000       -7.6184000969        0.0000000000
Ar       -2.5394666990       -5.0789333979        0.0000000000
Ar       -2.5394666990       -7.6184000969        2.5394666990
Ar        0.0000000000       -5.0789333979        2.5394666990
Ar        0.0000000000       -7.6184000969        5.0789333979
Ar       -2.5394666990       -5.0789333979        5.0789333979
Ar       -2.5394666990       -2.5394666990       -7.6184000969
Ar        0.0000000000        0.0000000000       -7.6184000969
Ar        0.0000000000       -2.5394666990       -5.0789333979
Ar       -2.5394666990        0.0000000000       -5.0789333979
Ar       -2.5394666990       -2.5394666990       -2.5394666990
Ar        0.0000000000        0.0000000000       -2.5394666990
Ar        0.0000000000       -2.5394666990        0.0000000000
Ar       -2.5394666990        0.0000000000        0.0000000000
Ar       -2.5394666990       -2.5394666990        2.5394666990
Ar        0.0000000000        0.0000000000        2.5394666990
Ar        0.0000000000       -2.5394666990        5.0789333979
Ar       -2.5394666990        0.0000000000        5.0789333979
Ar       -2.5394666990        2.5394666990       -7.6184000969
Ar        0.0000000000        5.0789333979       -7.6184000969
Ar        0.0000000000        2.5394666990       -5.0789333979
Ar       -2.5394666990        5.0789333979       -5.0789333979
Ar       -2.5394666990        2.5394666990       -2.5394666990
Ar        0.0000000000        5.0789333979       -2.5394666990
Ar        0.0000000000        2.5394666990        0.0000000000
Ar       -2.5394666990        5.0789333979        0.0000000000
Ar       -2.5394666990        2.5394666990        2.5394666990
Ar        0.0000000000        5.0789333979        2.5394666990
Ar        0.0000000000        2.5394666990        5.0789333979
Ar       -2.5394666990        5.0789333979        5.0789333979
Ar        2.5394666990       -7.6184000969       -7.6184000969
Ar        5.0789333979       -5.0789333979       -7.6184000969
Ar        5.0789333979       -7.6184000969       -5.0789333979
Ar        2.5394666990       -5.0789333979       -5.0789333979
Ar        2.5394666990       -7.6184000969       -2.5394666990
Ar        5.0789333979       -5.0789333979       -2.5394666990
Ar        5.0789333979       -7.6184000969        0.0000000000
Ar        2.5394666990       -5.0789333979        0.0000000000
Ar        2.5394666990       -7.6184000969        2.5394666990
Ar        5.0789333979       -5.0789333979        2.5394666990
Ar        5.0789333979       -7.6184000969        5.0789333979
Ar        2.5394666990       -5.0789333979        5.0789333979
Ar        2.5394666990       -2.5394666990       -7.6184000969
Ar        5.0789333979        0.0000000000       -7.6184000969
Ar        5.0789333979       -2.5394666990       -5.0789333979
Ar        2.5394666990        0.0000000000       -5.0789333979
Ar        2.5394666990       -2.5394666990       -2.5394666990
Ar        5.0789333979        0.0000000000       -2.5394666990
Ar        5.0789333979       -2.5394666990        0.0000000000
Ar        2.5394666990        0.0000000000        0.0000000000
Ar        2.5394666990       -2.5394666990        2.5394666990
Ar        5.0789333979        0.0000000000        2.5394666990
Ar        5.0789333979       -2.5394666990        5.0789333979
Ar        2.5394666990        0.0000000000        5.0789333979
Ar        2.5394666990        2.5394666990       -7.6184000969
Ar        5.0789333979        5.0789333979       -7.6184000969
Ar        5.0789333979        2.5394666990       -5.0789333979
Ar        2.5394666990        5.0789333979       -5.0789333979
Ar        2.5394666990        2.5394666990       -2.5394666990
Ar        5.0789333979        5.0789333979       -2.5394666990
Ar        5.0789333979        2.5394666990        0.0000000000
Ar        2.5394666990        5.0789333979        0.0000000000
Ar        2.5394666990        2.5394666990        2.5394666990
Ar        5.0789333979        5.0789333979        2.5394666990
Ar        5.0789333979        2.5394666990        5.0789333979
Ar        2.5394666990        5.0789333979        5.0789333979
    &END COORD
    &COLVAR
      &QPARM
        RSTART 4.3
        RCUT   4.4
        L      6
        ATOMS_FROM  1  2  3  4  5  6  7  8  9 10 
        ATOMS_FROM 11 12 13 14 15 16 17 18 19 20 
        ATOMS_FROM 21 22 23 24 25 26 27 28 29 30 
        ATOMS_FROM 31 32 33 34 35 36 37 38 39 40 
        ATOMS_FROM 41 42 43 44 45 46 47 48 49 50 
        ATOMS_FROM 51 52 53 54 55 56 57 58 59 60 
        ATOMS_FROM 61 62 63 64 65 66 67 68 69 70
        ATOMS_FROM 71 72 73 74 75 76 77 78 79 80 
        ATOMS_FROM 81 82 83 84 85 86 87 88 89 90 
        ATOMS_FROM 91 92 93 94 95 96 97 98 99 100 
        ATOMS_FROM 101 102 103 104 105 106 107 108
        ATOMS_TO    1  2  3  4  5  6  7  8  9 10 
        ATOMS_TO   11 12 13 14 15 16 17 18 19 20 
        ATOMS_TO   21 22 23 24 25 26 27 28 29 30 
        ATOMS_TO   31 32 33 34 35 36 37 38 39 40 
        ATOMS_TO   41 42 43 44 45 46 47 48 49 50 
        ATOMS_TO   51 52 53 54 55 56 57 58 59 60 
        ATOMS_TO   61 62 63 64 65 66 67 68 69 70 
        ATOMS_TO   71 72 73 74 75 76 77 78 79 80 
        ATOMS_TO   81 82 83 84 85 86 87 88 89 90 
        ATOMS_TO   91 92 93 94 95 96 97 98 99 100 
        ATOMS_TO   101 102 103 104 105 106 107 108
      &END QPARM
    &END COLVAR
  &END SUBSYS
&END FORCE_EVAL
&GLOBAL
  PROJECT argon_GENPOT_fcc-ql
  RUN_TYPE md
  PRINT_LEVEL LOW
&END GLOBAL
&MOTION
  &FREE_ENERGY
    METHOD METADYN
    &METADYN
      DO_HILLS
      NT_HILLS 1
      WW 5.0e-3
      &PRINT
        &COLVAR
          FILENAME test.colvar
        &END COLVAR
        &HILLS
          FILENAME test.hills
        &END HILLS
      &END PRINT
      &METAVAR
        COLVAR 1
        SCALE .12
      &END METAVAR
    &END METADYN
  &END FREE_ENERGY
  &MD
    ENSEMBLE NVE
    STEPS 20
    TIMESTEP 5.
  &END MD
&END MOTION
