&FORCE_EVAL
  METHOD FIST
   &MM
     &FORCEFIELD
       PARM_FILE_NAME ../sample_pot/acn.pot
       PARMTYPE CHM
      &SPLINE
        EMAX_SPLINE 1000.0
      &END
      &CHARGE
        ATOM YC
CHARGE 0.48
      &END CHARGE
      &CHARGE
        ATOM CT
CHARGE -0.48
      &END CHARGE
      &CHARGE
        ATOM YN
CHARGE -0.531
      &END CHARGE
      &CHARGE
        ATOM HC
CHARGE 0.177
      &END CHARGE
      &CHARGE
        ATOM TI
CHARGE 2.0824117312
      &END CHARGE
      &CHARGE
        ATOM O
CHARGE -1.04121
      &END CHARGE
      &BOND
        ATOMS HC CT
        KIND QUARTIC
     K  0.3296890432 -0.5218235500 0.4290887413
     R0  2.0715
      &END BOND
       &NONBONDED
         &LENNARD-JONES
           atoms HC O
     EPSILON  3.0923
     SIGMA  2.9048921595
           RCUT 11.4
         &END LENNARD-JONES
         &LENNARD-JONES
           atoms HC Ti
     EPSILON  1.03869
     SIGMA  2.6129375740
           RCUT 11.4
         &END LENNARD-JONES
         &LENNARD-JONES
           atoms YC O
     EPSILON  1.20623
     SIGMA  4.4230034810
           RCUT 11.4
         &END LENNARD-JONES
         &LENNARD-JONES
           atoms YC Ti
     EPSILON  2.97184
     SIGMA  2.6734175168
           RCUT 11.4
         &END LENNARD-JONES
         &LENNARD-JONES
           atoms YN O
     EPSILON  1.47088
     SIGMA  4.3028848872
           RCUT 11.4
         &END LENNARD-JONES
         &LENNARD-JONES
           atoms YN Ti
     EPSILON  0.352899
     SIGMA  4.1319025644
           RCUT 11.4
         &END LENNARD-JONES
         &LENNARD-JONES
           atoms CT O
     EPSILON  2.93582
     SIGMA  1.6818063234
           RCUT 11.4
         &END LENNARD-JONES
         &LENNARD-JONES
           atoms CT Ti
     EPSILON  3.65529
     SIGMA  4.1347358579
           RCUT 11.4
         &END LENNARD-JONES
        &WILLIAMS
          atoms TI O
       A  10614100
       B  3.54295
       C  12034
          RCUT 9.0
        &END WILLIAMS
       &WILLIAMS
          atoms O O
       A  1054820
       B  2.00486
       C  8449.8
          RCUT 9.0
        &END WILLIAMS
        &WILLIAMS
          atoms Ti Ti
       A  28611619
       B  2.68229
       C  14446200
          RCUT 9.0
        &END WILLIAMS
        &END NONBONDED
     &END FORCEFIELD
     &POISSON
       &EWALD
         EWALD_TYPE spme
         ALPHA .5
         GMAX 24
       &END EWALD
     &END POISSON
   &END MM
  &SUBSYS
    &CELL
    ABC  22.692   10.2269983   39.0000
    &END CELL
    &COORD
TI    1.1138597647768274E+01   -9.8783149483521016E-01   -1.0398898194631020E-01 t1
O    1.1118347543754725E+01    2.9909840198960271E+00   -9.1359225259514876E+00 t2
TI    1.1053766438712628E+01   -5.4645648552634505E+00   -8.2301599659788316E+00 t3
O    1.1053537028700099E+01    6.5200433245712541E-01    6.1437842473897564E-01 t4
O    1.0974124571679512E+01   -3.5362033432159343E+00   -7.3970751523101237E+00 t5
O    9.0718473204304875E+00   -5.1293609948521883E+00   -8.3041269940896587E+00 t6
TI    9.1070225717230677E+00    4.1466744454958206E+00    1.3496573066693462E-01 t7
O    9.2081092517391490E+00    1.4011342772516042E+00   -7.2488646957476188E+00 t8
TI    9.0708931725957882E+00   -4.0828397671277666E-01   -8.1885208802760356E+00 t9
O    1.1077402360665518E+01    7.1115954755795519E-02   -8.2991729547801647E+00 t10
O    9.1922133641530142E+00   -2.0687914983315689E+00   -9.1215747056847949E+00 t11
O    9.1386880077759773E+00   -4.1864807004211242E+00    7.8395418336891343E-01 t12
TI    1.4832322718009840E+01   -9.7017957005517352E-01   -7.3229060136021831E-02 t13
O    1.5017137310979681E+01    3.0202302545275161E+00   -9.0478620897363378E+00 t14
TI    1.4890881260635231E+01   -5.4329926515409497E+00   -8.1857625485696097E+00 t15
O    1.4881559726940734E+01    4.9451503715637002E-01    8.7141589753589310E-01 t16
O    1.4869984120152003E+01   -3.5967031815555504E+00   -7.4823703110150834E+00 t17
O    1.2936719054662273E+01   -5.1013954952609817E+00   -8.2599967669540089E+00 t18
TI    1.3040373262419717E+01    4.1231626434560651E+00   -7.9434693324913680E-02 t19
O    1.2874660549741407E+01    1.7053305218029005E+00   -7.4905629342477935E+00 t20
TI    1.2852806238537484E+01   -3.9150265504101328E-01   -8.2459859339692603E+00 t21
O    1.4865293089533496E+01    1.0824166844492854E-02   -8.2603083724620046E+00 t22
O    1.2932932078602956E+01   -2.0328043132838740E+00   -9.0661108347785984E+00 t23
O    1.2980518229015965E+01   -4.4693873573525567E+00    8.9002059716362680E-01 t24
TI    7.4627055759555212E+00   -1.0377213600474606E+00   -1.5288584704481994E-01 t25
O    7.3757099719956409E+00    2.7958994987954995E+00   -9.0537663989106854E+00 t26
TI    7.3177373765154305E+00   -5.7477907506640014E+00   -8.1706850098085955E+00 t27
O    7.5385571728593996E+00    6.1259240119009251E-01    7.8093730091373204E-01 t28
O    7.2744249961240737E+00   -3.5220106047715469E+00   -7.7110029384113714E+00 t29
O    1.6687089562331046E+01   -5.0480529453798937E+00   -8.2421778387437978E+00 t30
TI    1.6843419499699454E+01    4.1144605913983208E+00    1.2836373234928036E-01 t31
O    1.6836350903561286E+01    1.5950345077249424E+00   -7.4476038438653465E+00 t32
TI    1.6683759722382142E+01   -3.4437661269008624E-01   -8.1339142545547745E+00 t33
O    7.2481968560133616E+00    1.8759091188519372E-01   -8.1976823744753915E+00 t34
O    1.6586867319164845E+01   -1.8876690100647451E+00   -9.1066159910193001E+00 t35
O    1.6554206108737617E+01   -4.3535084634953432E+00    8.1097278640703507E-01 t36
TI    1.1139660986912611E+01    4.4091842223213740E-01   -3.7377012329645312E+00 t37
O    1.1016734199179268E+01   -7.5617090335165421E-02   -1.7732368613261595E+00 t38
TI    1.1039472270237786E+01    1.8947737663898392E+00   -8.6866361603353581E-01 t39
O    1.1083880507980080E+01    2.2427979250612666E+00   -2.7590055118763619E+00 t40
O    1.1052864157758469E+01    3.7728181929643445E+00   -1.1426794160006677E-01 t41
O    9.1950217184712901E+00    2.3249847035193887E+00   -6.1926762145031378E-01 t42
TI    9.1884093766309309E+00   -4.7801510766549926E+00   -3.5509389375425013E+00 t43
O    9.3573698752552641E+00   -1.5378547916801033E+00   -4.5301683107125583E-03 t44
TI    9.2424105208488747E+00   -3.3800884665831750E+00   -9.6179274173899987E-01 t45
O    1.1212968820300601E+01   -2.9861571281059351E+00   -8.3457879490902998E-01 t46
O    8.9783064382198106E+00   -5.1291568651904766E+00   -1.6214042911552624E+00 t47
O    9.0644926756432334E+00   -2.9164696623607131E+00   -2.9540349230561853E+00 t48
TI    1.4906526434526100E+01    4.3367179943902889E-01   -3.7362494345930033E+00 t49
O    1.4742727515259871E+01    2.4106257639643504E-02   -1.6492611832802448E+00 t50
TI    1.4872230899554649E+01    1.7998725922863605E+00   -7.4342522134351741E-01 t51
O    1.5050607590521938E+01    2.1982949294277976E+00   -2.8926872375359443E+00 t52
O    1.4873216684529972E+01    3.6044898796645084E+00    2.1415041647879604E-01 t53
O    1.3024372046168649E+01    2.2333611194223622E+00   -6.8396734176792495E-01 t54
TI    1.2973398844160664E+01   -4.7209753773585010E+00   -3.6082729715530291E+00 t55
O    1.3000195835889588E+01   -1.5033767269189637E+00    2.7853873168111343E-01 t56
TI    1.3047385442967791E+01   -3.4320901337742664E+00   -6.6149300422083246E-01 t57
O    1.4856024094019666E+01   -2.8745503301033528E+00   -5.9399196596385140E-01 t58
O    1.3184126027492816E+01   -5.1533005532692222E+00   -1.6069344039513627E+00 t59
O    1.3085197599326525E+01   -2.9215297935112483E+00   -2.7171510468426230E+00 t60
TI    7.3299788090360476E+00    4.2051208367954546E-01   -3.7502958231278662E+00 t61
O    7.3899183032385460E+00   -9.0561345592177031E-02   -1.7829217210570185E+00 t62
TI    7.2547634173730007E+00    1.9151313654658759E+00   -8.8493614768488027E-01 t63
O    7.1046196480550767E+00    2.2472004915655539E+00   -2.8461949854179887E+00 t64
O    7.1897594975638652E+00    3.6565871266349523E+00    1.2922056710765892E-01 t65
O    1.6734243469358034E+01    2.1423357942516175E+00   -5.5388167788738574E-01 t66
TI    1.6811689445510975E+01   -4.7388102368858611E+00   -3.5909571437717984E+00 t67
O    1.6816397497281361E+01   -1.3327955352646721E+00    1.6214768654267508E-01 t68
TI    1.6763083935201152E+01   -3.3526118607817956E+00   -7.5659441846335973E-01 t69
O    7.2867015851096824E+00   -2.9434056515773603E+00   -7.9451681946207808E-01 t70
O    1.6748133690472777E+01   -5.2094237925728430E+00   -1.5164595276986244E+00 t71
O    1.6676121587237507E+01   -2.8837014742532494E+00   -2.7095322313208796E+00 t72
TI    1.1021452190896582E+01    1.9599432865595738E+00   -7.4526242930473359E+00 t73
O    1.1244117565640851E+01    1.5219870747228168E+00   -5.2970227884449317E+00 t74
TI    1.1076560639432135E+01    3.1674630183294608E+00   -4.6017885810014798E+00 t75
O    1.1032179259676731E+01    3.7148470698133407E+00   -6.5911481716845204E+00 t76
O    1.1129318201576957E+01   -5.0533292532501966E+00   -3.4828964763175989E+00 t77
O    9.3772983861670660E+00    3.5557313972396600E+00   -4.2361358922733139E+00 t78
TI    9.0805539424197850E+00   -3.1391207892036705E+00   -7.4607911605654822E+00 t79
O    9.2142390705579871E+00    1.5005797621489750E-01   -3.8970834146106772E+00 t80
TI    9.1916329547307800E+00   -1.8612538556906024E+00   -4.6232610952012081E+00 t81
O    1.1119408247129225E+01   -1.5467371149864326E+00   -4.3273595017163480E+00 t82
O    9.0763602502763359E+00   -3.7547215384613408E+00   -5.3400974208300678E+00 t83
O    9.2397815695873771E+00   -1.5298355291583907E+00   -6.6195485495889539E+00 t84
TI    1.4787409892664654E+01    2.0495447473408026E+00   -7.4737085052641268E+00 t85
O    1.4782351928293650E+01    1.6002767575738259E+00   -5.4421771108558490E+00 t86
TI    1.4956183566949781E+01    3.1977698704063946E+00   -4.6243318428819657E+00 t87
O    1.4746704881756605E+01    3.8046941804984580E+00   -6.5761995205800883E+00 t88
O    1.4912081506628116E+01   -5.0567962237387665E+00   -3.7434539213922866E+00 t89
O    1.3003579000557780E+01    3.7701792299908976E+00   -4.3405620892025363E+00 t90
TI    1.2977153653082169E+01   -3.1705069480014529E+00   -7.3456779996018922E+00 t91
O    1.3032881402593755E+01    8.8921551503497523E-02   -3.7312490624838559E+00 t92
TI    1.3037573158763331E+01   -1.8854861991966796E+00   -4.4578293441374450E+00 t93
O    1.4854605653319863E+01   -1.6512225416826751E+00   -4.2845758170143737E+00 t94
O    1.2953316674339826E+01   -3.6245195655984532E+00   -5.3822783145354238E+00 t95
O    1.2931166577200438E+01   -1.3415331336069873E+00   -6.5904647071072828E+00 t96
TI    7.2330604047256646E+00    1.7817581680793069E+00   -7.3590089049970624E+00 t97
O    7.0708737267718451E+00    1.5149280122345443E+00   -5.2907369716376316E+00 t98
TI    7.1735370717972406E+00    3.2815109134894698E+00   -4.6635246324166184E+00 t99
O    7.3919395519623867E+00    3.6271351793995730E+00   -6.4498400930040960E+00 t100
O    7.3210396437590672E+00   -5.1110943994331146E+00   -3.8047607386748483E+00 t101
O    1.6834998363049696E+01    3.5285422533405542E+00   -4.4993513081546217E+00 t102
TI    1.6680813291685091E+01   -3.0647833327988372E+00   -7.4707963266912456E+00 t103
O    1.6743062532811358E+01    6.2635111381482020E-02   -3.7043532389473355E+00 t104
TI    1.6724662664108127E+01   -1.9352711822327895E+00   -4.2971532408977877E+00 t105
O    7.3655286246526801E+00   -1.3834689452039586E+00   -4.5490029972563137E+00 t106
O    1.6638054651186344E+01   -3.5837642462769761E+00   -5.2463361217109457E+00 t107
O    1.6669081933793965E+01   -1.3558070065719088E+00   -6.5498038897268129E+00 t108
TI   -2.4320634276327510E-01   -1.0171635968873127E+00    8.2975316733904972E-02 t109
O   -2.9298124243077689E-01    2.9992403817907896E+00   -8.8852635552085424E+00 t110
TI   -3.7392820387902742E-01   -5.5040353672604576E+00   -7.9918105479842962E+00 t111
O   -2.7538632039725131E-01    7.0087068773574623E-01    7.8577932600187217E-01 t112
O   -3.3767117373994116E-01   -3.5641053993013898E+00   -7.3467408912799028E+00 t113
O   -2.2129883359874367E+00   -4.9428656300728209E+00   -8.0076955432675643E+00 t114
TI   -2.0118194983283408E+00    4.0986415009678652E+00    2.9474653465240714E-02 t115
O   -2.0711268010794925E+00    1.5041039452754066E+00   -7.4601660579858873E+00 t116
TI   -2.2766714805171806E+00   -3.4412342789451972E-01   -8.1482827293685620E+00 t117
O   -3.5506166263671368E-01   -2.2250166868088284E-01   -8.3834595516111676E+00 t118
O   -2.3407455914026651E+00   -1.9980729954091867E+00   -9.0189620572647762E+00 t119
O   -2.0794446791902632E+00   -4.5324767140776414E+00    9.9103665350935710E-01 t120
TI    3.5223475686163752E+00   -9.3802930452569033E-01    4.6302922450448564E-02 t121
O    3.4103124655867361E+00    2.9381094334355899E+00   -9.2927746940646294E+00 t122
TI    3.5484565224077187E+00   -5.7298964865550355E+00   -8.3380122992928669E+00 t123
O    3.5086938081639976E+00    7.2662879653615298E-01    8.9771779669968954E-01 t124
O    3.6619910863361289E+00   -3.8936519599228618E+00   -7.4577173859090511E+00 t125
O    1.5161633115181967E+00   -5.1371191522381299E+00   -8.0421435941624839E+00 t126
TI    1.5749907155817104E+00    4.2207211992871727E+00   -8.6106599542825221E-02 t127
O    1.6030335063462298E+00    1.4529288590751988E+00   -7.4238559088477132E+00 t128
TI    1.5313986161721185E+00   -4.6771003318384524E-01   -8.2935614215500717E+00 t129
O    3.4563571658682899E+00   -1.9473164655482163E-02   -8.2925311279832776E+00 t130
O    1.7112986823893024E+00   -2.2413279029286923E+00   -8.9539367800498049E+00 t131
O    1.6605314473895345E+00   -4.3940510341577994E+00    8.4186182771597007E-01 t132
TI   -4.0019943889804495E+00   -1.0183038808614306E+00    8.3193801392006550E-02 t133
O   -3.9729234488959233E+00    3.2942436273418689E+00   -8.9030995539378992E+00 t134
TI   -4.1181010908868405E+00   -5.4018748745719360E+00   -8.0488117174479523E+00 t135
O   -3.9477606841929158E+00    6.2676698638144657E-01    1.0187319556446381E+00 t136
O   -4.2181642681686924E+00   -3.5777330698323291E+00   -7.4879294524211915E+00 t137
O    5.5881644059233242E+00   -5.2670600745322105E+00   -8.4812323077377183E+00 t138
TI    5.2856009097480507E+00    4.0428111982908659E+00   -1.0020260536792744E-01 t139
O    5.3580947753279000E+00    1.5930908962702914E+00   -7.6250484313680884E+00 t140
TI    5.3335209790345939E+00   -3.6054721430998332E-01   -8.2825025408203246E+00 t141
O   -4.0668837755184715E+00    1.9980732872630111E-01   -8.3938696200629028E+00 t142
O    5.1550300621329486E+00   -2.1012362360782229E+00   -9.1405238830180799E+00 t143
O    5.4443513954695693E+00   -4.5724632927856659E+00    7.4538092478252904E-01 t144
TI   -2.0692901368972969E-01    3.6701660870402997E-01   -3.7731245355475869E+00 t145
O   -2.8294997449166404E-01   -1.4982660628705707E-01   -1.6323043722721666E+00 t146
TI   -3.1619050753352951E-01    1.6326762113182944E+00   -8.2442404545646286E-01 t147
O   -2.3916162865096308E-01    2.2209027362654750E+00   -2.8739091250978515E+00 t148
O   -2.3781581686392483E-01    3.6780275211215181E+00    2.9108830826646753E-01 t149
O   -2.0690295032127115E+00    2.1834215491475089E+00   -7.1770496921884530E-01 t150
TI   -2.2419784796767561E+00   -4.6289799552977575E+00   -3.4838100100501102E+00 t151
O   -2.1580714205928202E+00   -1.5811798362500373E+00    3.0101929915266795E-01 t152
TI   -2.1027026225470165E+00   -3.3229361158104584E+00   -5.3969851637720212E-01 t153
O   -1.9753647052691928E-01   -3.0291918825872362E+00   -4.9185260121214702E-01 t154
O   -2.0720686016587853E+00   -5.0519696144557917E+00   -1.4718316933083859E+00 t155
O   -2.1545980602441386E+00   -2.7530946985331752E+00   -2.6269038395820496E+00 t156
TI    3.5368336208022177E+00    4.8001463368597702E-01   -3.6137528914380153E+00 t157
O    3.4368553868380221E+00   -3.5187481826119818E-02   -1.6685112938880375E+00 t158
TI    3.5364889369059953E+00    1.7367284047842981E+00   -8.2349255956106060E-01 t159
O    3.5893048212990890E+00    2.3421765993110366E+00   -2.6939289564920612E+00 t160
O    3.4670591146341874E+00    3.6596761924280283E+00    2.3443262386711752E-01 t161
O    1.5457502501712477E+00    2.3293487380262188E+00   -7.8890435342455800E-01 t162
TI    1.6049553930364653E+00   -4.5346909271914955E+00   -3.6177157516290448E+00 t163
O    1.7474440872643406E+00   -1.3211169644378704E+00    2.4332091485013821E-01 t164
TI    1.6426669883243650E+00   -3.2526725814710393E+00   -5.2189614737380863E-01 t165
O    3.5812428362533093E+00   -2.8956944623411509E+00   -7.4887598711306580E-01 t166
O    1.6708084028319954E+00   -5.0182275276251485E+00   -1.6628727778433616E+00 t167
O    1.4962786572619304E+00   -2.7470549255029519E+00   -2.7546625765061767E+00 t168
TI   -4.0227387859344788E+00    3.5788182188212986E-01   -3.4504039883003039E+00 t169
O   -3.9662401124321445E+00   -8.0504682028118918E-02   -1.5652533542145994E+00 t170
TI   -4.0917048096828630E+00    1.7236364065917451E+00   -6.4031889135469822E-01 t171
O   -4.1461703048498828E+00    2.2532840807181724E+00   -2.7102909659049579E+00 t172
O   -3.9915569762797682E+00    3.5941799476480130E+00    1.3461070862159910E-01 t173
O    5.3917720874697279E+00    2.2133836634614048E+00   -6.5422550052715467E-01 t174
TI    5.3839555587350576E+00   -4.6740214673653675E+00   -3.7474954763791768E+00 t175
O    5.5621300045497266E+00   -1.2664985236044974E+00    1.3340635344603907E-01 t176
TI    5.5241387703444227E+00   -3.4743701894197914E+00   -7.3040088628554445E-01 t177
O   -4.0356451226135892E+00   -3.0367451990828900E+00   -6.2622826450258740E-01 t178
O    5.2512443984541717E+00   -5.3320788321575350E+00   -1.7234566668188989E+00 t179
O    5.3787678875179861E+00   -2.9876172151586697E+00   -3.0072179132302370E+00 t180
TI   -2.0991740415143245E-01    2.0153352222701133E+00   -7.3113426983516039E+00 t181
O   -1.3485686691106694E-01    1.4913519291544377E+00   -5.3736237064889885E+00 t182
TI   -3.5742515257526553E-01    3.3585007105326694E+00   -4.4184271194287170E+00 t183
O   -4.2811467558511695E-01    3.8070093400251337E+00   -6.3906534363017276E+00 t184
O   -3.8998206683977410E-01   -4.8213171817431464E+00   -3.5770422306804583E+00 t185
O   -2.2066810258293192E+00    3.6564630724568912E+00   -4.1009923392601300E+00 t186
TI   -2.2573789015597741E+00   -3.1167459006160541E+00   -7.4417197008421994E+00 t187
O   -2.1296490137724637E+00    7.0094815171629299E-02   -3.6723813874568330E+00 t188
TI   -2.2051294487464044E+00   -1.8110397624043502E+00   -4.3694733351839234E+00 t189
O   -2.8171045942039086E-01   -1.3546878448571327E+00   -4.5765761084079317E+00 t190
O   -2.3199985916947421E+00   -3.6925821723824344E+00   -5.1638844411966680E+00 t191
O   -2.2818191463695849E+00   -1.4386715050827636E+00   -6.5826667696386911E+00 t192
TI    3.5302658450294424E+00    1.8450605547849668E+00   -7.5373492787940997E+00 t193
O    3.5935347693665753E+00    1.4241856137064910E+00   -5.2692736130802107E+00 t194
TI    3.4631726503930707E+00    3.3742630133109195E+00   -4.4861874448755579E+00 t195
O    3.5364548517195460E+00    3.5178236410788797E+00   -6.7063285332878975E+00 t196
O    3.4684309354260825E+00   -4.9405293844925797E+00   -3.7899963803534029E+00 t197
O    1.5726243263922441E+00    3.7670063461464962E+00   -4.3430007201261827E+00 t198
TI    1.5807531010657430E+00   -3.2645871956083901E+00   -7.3569602554885689E+00 t199
O    1.7245832844960944E+00    1.2492154397405186E-01   -3.7961940038499069E+00 t200
TI    1.5874319877417002E+00   -1.7804121843862910E+00   -4.6214451320395735E+00 t201
O    3.5164959045451298E+00   -1.6523529552728811E+00   -4.5993560455617200E+00 t202
O    1.6763664376694409E+00   -3.6733332518340363E+00   -5.2734937070767645E+00 t203
O    1.5019806996739760E+00   -1.4419563238055588E+00   -6.5846170604075320E+00 t204
TI   -3.9544815848790305E+00    2.0475175047159055E+00   -7.3420864293879768E+00 t205
O   -3.9723679383382526E+00    1.3598825228406346E+00   -5.3040397416709872E+00 t206
TI   -3.9759723099115725E+00    3.2433330279649781E+00   -4.4185554290185411E+00 t207
O   -3.9408490385779240E+00    3.7741773265290548E+00   -6.3828794051460767E+00 t208
O   -4.0825800111586315E+00   -5.0759044799845139E+00   -3.5204823018300240E+00 t209
O    5.2961385972969959E+00    3.6092797794208389E+00   -4.4400201866559099E+00 t210
TI    5.3917519692223603E+00   -3.1582942067443009E+00   -7.5645840712509891E+00 t211
O    5.3363221263942338E+00   -7.2104013005713952E-02   -3.6073776815377281E+00 t212
TI    5.4692859675974530E+00   -1.9600484188348264E+00   -4.6769626891827292E+00 t213
O   -4.0593269932463310E+00   -1.5593116886598746E+00   -4.3146809088989277E+00 t214
O    5.4944267162137077E+00   -3.7481320545065144E+00   -5.5194718350067689E+00 t215
O    5.4268620418172162E+00   -1.3772981076988993E+00   -6.5659676277201351E+00 t216
YC    1.6501392681184948E+00    4.0626982689708209E+00    1.5908925084785432E+01 ACN
CT    3.1486851165573375E+00    4.0699887756629103E+00    1.5886711267794494E+01 ACN
YN    4.7810119676560114E-01    4.0204891102188016E+00    1.5892834601213931E+01 ACN
HC    3.5740138065564810E+00    3.1665746616970796E+00    1.6408153742357271E+01 ACN
HC    3.4737806733989935E+00    3.9259455938786605E+00    1.4859811056363364E+01 ACN
HC    3.4958722688863997E+00    4.9539884984781350E+00    1.6445075507272158E+01 ACN
YC    3.3531476532290405E+00    4.5026110017287273E+00    7.8232269663711431E+00 ACN
CT    3.1104887389548623E+00    3.1866189277035506E+00    7.3573684145723828E+00 ACN
YN    3.3772972626037605E+00    5.6143435878278591E+00    8.2031418557416220E+00 ACN
HC    2.3197825184223535E+00    3.0725636058303283E+00    6.5871237801797271E+00 ACN
HC    4.0445114554824384E+00    2.7002926048575513E+00    7.0774267214601272E+00 ACN
HC    2.7447443004171168E+00    2.5723027458395102E+00    8.2360074590757222E+00 ACN
YC   -5.4612810089100767E+00    5.1877608749791735E+00    1.0133732163573873E+01 ACN
CT   -5.3897124871870918E+00    3.8064713858400814E+00    1.0615928839386861E+01 ACN
YN   -5.4498375472751848E+00    6.2451442366636449E+00    9.6538596561792414E+00 ACN
HC   -4.4921726520239291E+00    3.5340337839731903E+00    1.1187197480135698E+01 ACN
HC   -6.1936785307751059E+00    3.6656524865686579E+00    1.1370621653923234E+01 ACN
HC   -5.6228178750552269E+00    3.0733374945201257E+00    9.8269713059376045E+00 ACN
YC    8.8416802789453630E+00    1.1760000245069092E+01    2.7974682502281617E+01 ACN
CT    8.8276589442628381E+00    1.3008218428047703E+01    2.7073410769162585E+01 ACN
YN    8.9778459833857607E+00    1.0836999945750403E+01    2.8686191716479559E+01 ACN
HC    7.8443810275954462E+00    1.3262475175091931E+01    2.6785463639649137E+01 ACN
HC    9.2950882696570325E+00    1.3853007476537394E+01    2.7634658183485609E+01 ACN
HC    9.3843802314967011E+00    1.2978273743223427E+01    2.6110626985665487E+01 ACN
YC    2.2699962877246600E+00    5.9464417090006547E+00    1.2212165849468487E+01 ACN
CT    1.8655695553524771E+00    7.3452628076917232E+00    1.2490173473075673E+01 ACN
YN    2.6627798192297187E+00    4.8714807442500927E+00    1.1953162703111603E+01 ACN
HC    1.8031896460679031E+00    7.9223268957922564E+00    1.1576783515901818E+01 ACN
HC    8.9189012339799267E-01    7.3687771701542859E+00    1.2972671722355342E+01 ACN
HC    2.6657662046754647E+00    7.7910785176618251E+00    1.3065357214294412E+01 ACN
YC    2.9463691288956557E+00    1.1578623042322587E+01    1.3401278827060647E+01 ACN
CT    2.9135868027230614E+00    1.1723411497202418E+01    1.1919672527742390E+01 ACN
YN    3.0124868916721388E+00    1.1401843224155355E+01    1.4559873605888706E+01 ACN
HC    3.8696160098800889E+00    1.2104071069429249E+01    1.1527454609382737E+01 ACN
HC    2.7601448858495314E+00    1.0679259048876892E+01    1.1538840164267118E+01 ACN
HC    2.0576522698742923E+00    1.2325533158057452E+01    1.1569863611798246E+01 ACN
YC    1.1697960461463655E+01    1.2523659045651947E+01    1.9475731321205160E+01 ACN
CT    1.1945777367187105E+01    1.3211526412307665E+01    2.0733958021010853E+01 ACN
YN    1.1469455486327835E+01    1.1847369636357293E+01    1.8546477267693071E+01 ACN
HC    1.1010341637989443E+01    1.3375578896096100E+01    2.1249590557452329E+01 ACN
HC    1.2619707616242268E+01    1.2691187855035309E+01    2.1403949177329743E+01 ACN
HC    1.2302127291868819E+01    1.4234017283771696E+01    2.0482402805215237E+01 ACN
YC    1.2414709059370459E+00    1.3608076076701860E+00    4.9798270850317081E+00 ACN
CT    1.8156371119580985E+00    1.9776307676578753E+00    3.7725587825900138E+00 ACN
YN    6.2330154801732518E-01    8.1539600480034002E-01    5.8530270297455109E+00 ACN
HC    1.6015723789293816E+00    3.0511400658525440E+00    3.6928196121830092E+00 ACN
HC    2.9587428107848086E+00    1.9255518988866975E+00    3.6615874015894656E+00 ACN
HC    1.3009810366155794E+00    1.5643455317465347E+00    2.8565337745589199E+00 ACN
YC   -2.4545468416130141E+00    8.2647224740746406E-01    1.1119377297331527E+01 ACN
CT   -1.2716797167194931E+00    1.2264611464127624E+00    1.0332443692054261E+01 ACN
YN   -3.4122907739789139E+00    8.3250989577061363E-01    1.1765210130040279E+01 ACN
HC   -3.7978285551290558E-01    1.4828389155382309E+00    1.0971928360084981E+01 ACN
HC   -1.4190226996837465E+00    2.1632039614289216E+00    9.7892479612274403E+00 ACN
HC   -9.8451042214654372E-01    5.4149677263434470E-01    9.5344641553603982E+00 ACN
YC    1.4012184906638741E+00    9.0643176515632717E+00    8.3613521647250479E+00 ACN
CT    1.0830672905736745E+00    7.8412610502198792E+00    7.6329376547793144E+00 ACN
YN    1.7333045445197710E+00    1.0008761592616441E+01    8.9162672644223164E+00 ACN
HC   -1.6459616758100409E-02    7.7211029234183881E+00    7.4344221023170896E+00 ACN
HC    1.6816677585419091E+00    7.8163064851743886E+00    6.7149718591980978E+00 ACN
HC    1.3708602878943177E+00    7.0512214668749333E+00    8.3071501249801223E+00 ACN
YC    6.1560052984043070E+00   -3.8661925879241155E+00    1.4624010097956392E+01 ACN
CT    5.7006856069661671E+00   -2.6331392778607805E+00    1.5177228252856812E+01 ACN
YN    6.5023360314435434E+00   -4.8268631779105595E+00    1.4063508967069998E+01 ACN
HC    6.4339229973871976E+00   -2.3623934497694594E+00    1.5928428319709052E+01 ACN
HC    5.5600135842759650E+00   -1.8607142140145643E+00    1.4395202564187423E+01 ACN
HC    4.7267280156628564E+00   -2.8292239544412148E+00    1.5660684733596435E+01 ACN
YC   -2.6747985705119750E+00   -1.0995849488722452E+01    5.4050367858404869E+00 ACN
CT   -2.3054859869338364E+00   -9.7655248000826909E+00    4.7319350265451599E+00 ACN
YN   -3.0158720205554825E+00   -1.2021174363435792E+01    5.8385887246066153E+00 ACN
HC   -2.2669675739615802E+00   -8.9627304631997315E+00    5.4915198716062497E+00 ACN
HC   -1.4547225691710697E+00   -9.7341892730336284E+00    4.0376517370056630E+00 ACN
HC   -3.0440508338299126E+00   -9.4592463316846711E+00    4.0237729815087837E+00 ACN
YC   -6.6733549783778630E+00    5.8205207598379882E+00    6.4828058753776130E+00 ACN
CT   -6.9676401353218989E+00    7.0904879687957143E+00    5.8319830168122140E+00 ACN
YN   -6.4337603782805246E+00    4.7242983684853002E+00    6.8498582506031358E+00 ACN
HC   -6.0020500184739065E+00    7.6425647065351638E+00    5.7663372608139278E+00 ACN
HC   -7.5227590374884699E+00    6.9968475997110726E+00    4.9039874854513066E+00 ACN
HC   -7.6474120345572159E+00    7.5580869091364162E+00    6.4811889201476385E+00 ACN
YC   -1.6429607615288797E+00    6.5941648417453784E+00    1.0647727548381756E+01 ACN
CT   -1.9752372562526999E+00    7.9037451822378646E+00    1.0120332278569803E+01 ACN
YN   -1.5460181412713927E+00    5.5416891028612767E+00    1.1157305051519000E+01 ACN
HC   -2.4210981319701381E+00    7.7824498149980172E+00    9.1206203669760235E+00 ACN
HC   -2.8388188820446740E+00    8.2829009457895442E+00    1.0682398892538426E+01 ACN
HC   -1.1468262924613495E+00    8.5744089496982436E+00    1.0117411324528524E+01 ACN
YC   -1.0988216324719577E+00   -5.6865315561989638E+00    6.7255700709956425E+00 ACN
CT   -2.5004643764197931E+00   -5.6490516887872708E+00    7.0964916527323290E+00 ACN
YN    2.4378701679336187E-02   -5.6458939990686110E+00    6.4220339332835019E+00 ACN
HC   -2.5454543168898187E+00   -5.6349766202437257E+00    8.1704001772938479E+00 ACN
HC   -3.0041182032700875E+00   -4.7117486610069657E+00    6.8356081113306404E+00 ACN
HC   -3.0145671153968898E+00   -6.5138009661173353E+00    6.6617463451016166E+00 ACN
YC   -3.9895431797933032E+00   -3.0341254497765893E+00    2.8690746573773063E+00 ACN
CT   -4.3043884429745747E+00   -4.2842020110221242E+00    3.6306605011253335E+00 ACN
YN   -4.0372028269550926E+00   -2.0301177824835506E+00    2.2525702444830316E+00 ACN
HC   -3.6626041275403134E+00   -5.1408368552429939E+00    3.3951742363190882E+00 ACN
HC   -5.3538692777471359E+00   -4.5284583630445656E+00    3.4622591447510946E+00 ACN
HC   -4.1872513445172528E+00   -4.0644089809926074E+00    4.6968113517420784E+00 ACN
YC   -4.1775531462028352E+00   -2.0561277917098999E+00    1.3547027790209983E+01 ACN
CT   -5.3375532709105240E+00   -1.2194179194078543E+00    1.3616066059238065E+01 ACN
YN   -3.1675596838064446E+00   -2.6360840102724836E+00    1.3535247291340498E+01 ACN
HC   -6.2090064180053552E+00   -1.7790450475871940E+00    1.3946631768432741E+01 ACN
HC   -5.5840053143106019E+00   -7.4670878832912047E-01    1.2648536265221001E+01 ACN
HC   -5.0901923283066983E+00   -5.3361368642904805E-01    1.4410935148838226E+01 ACN
YC    1.3469783022414793E+01    3.6631159382350713E+00    1.1406440259449152E+01 ACN
CT    1.2986244181879353E+01    2.8562542893094602E+00    1.0317583541357811E+01 ACN
YN    1.3789825065381025E+01    4.3432348609587033E+00    1.2316168563303803E+01 ACN
HC    1.3592000654013093E+01    2.9200793146527895E+00    9.3917313979032908E+00 ACN
HC    1.2956462328110616E+01    1.7729312040552576E+00    1.0599148971050232E+01 ACN
HC    1.1914819831419891E+01    3.0734681778100525E+00    1.0169819027340120E+01 ACN