
&FORCE_EVAL
  METHOD FIST
  &MM
    &FORCEFIELD
      &spline
       rcut_nb 6.9
      &end
      parm_file_name ../sample_pot/charmm.pot
      parmtype CHM
      &CHARGE
        ATOM NH3
        CHARGE -1.14
      &END CHARGE
      &CHARGE
        ATOM HC
        CHARGE 0.38
      &END CHARGE
    &END FORCEFIELD
    &POISSON
      &EWALD
        EWALD_TYPE ewald
        ALPHA .5
        GMAX 21
      &END EWALD
    &END POISSON
  &END MM
  &SUBSYS
    &CELL
      ABC 13.858 13.858 13.858
      UNIT ANGSTROM
    &END CELL
    &TOPOLOGY
      COORD_FILE_NAME ../sample_pdb/NH3.pdb
      COORDINATE PDB
      NHCOPT MOLECULE
    &END TOPOLOGY
  &END SUBSYS
&END FORCE_EVAL
&GLOBAL
  FFTLIB FFTSG
  PRINT_LEVEL LOW

  PROJECT NH3
  RUN_TYPE MD
&END GLOBAL
&MOTION
  &CONSTRAINT
    &G4X6
      DISTANCES 1.9275 1.9275 1.9275 3.1483 3.1483 3.1483
      MOLECULE 1
      ATOMS 1 2 3 4
    &END G4X6
    &FIXED_ATOMS
      LIST 1 5 9 13 17 21 25 29 33 37 41 45 49 53 57 61 65 69 73 77 81 85 89
    &END
    &FIXED_ATOMS
      LIST 93 97 101 105 109 113 117 121 125 129 133 137 141 145 149 153 157 161
    &END
    &FIXED_ATOMS
      LIST 165 169 173 177 181 185 189 193 197 201 205 209 213 217 221 225 229 233
    &END
    &FIXED_ATOMS
      LIST 237 241 245 249 253
    &END
  &END CONSTRAINT
  &MD
    ENSEMBLE NVT
    STEPS 5
    TIMESTEP 2.5
    TEMPERATURE 298
    &NOSE
      LENGTH 1
      YOSHIDA 3
      TIMECON 500
      MTS 2
    &END NOSE
  &END MD
&END MOTION
