&GLOBAL
  PRINT_LEVEL LOW
  PROJECT Carbon
  RUN_TYPE ENERGY
&END GLOBAL

&FORCE_EVAL
  METHOD Quickstep
  &DFT
    BASIS_SET_FILE_NAME BASIS_SET
    POTENTIAL_FILE_NAME GTH_POTENTIALS
    &ENERGY_CORRECTION
      ENERGY_FUNCTIONAL HARRIS
      HARRIS_BASIS HARRIS
      &KPOINTS
        FULL_GRID ON
        PARALLEL_GROUP_SIZE 0
        SCHEME MONKHORST-PACK 2 2 2
        SYMMETRY ON
      &END KPOINTS
      &PRINT
        &HARRIS_OUTPUT_WFN
        &END HARRIS_OUTPUT_WFN
      &END PRINT
      &XC
        &XC_FUNCTIONAL PBE
        &END XC_FUNCTIONAL
      &END XC
    &END ENERGY_CORRECTION
    &MGRID
      CUTOFF 160
      REL_CUTOFF 40
    &END MGRID
    &QS
      EPS_DEFAULT 1.E-06
    &END QS
    &SCF
      EPS_SCF 1.0E-7
      SCF_GUESS ATOMIC
    &END SCF
    &XC
      &XC_FUNCTIONAL PADE
      &END XC_FUNCTIONAL
    &END XC
  &END DFT
  &SUBSYS
    &CELL
      ABC 3.56683 3.56683 3.56683
    &END CELL
    &COORD
      SCALED
      C     0.000000    0.000000    0.000000
      C     0.500000    0.500000    0.000000
      C     0.500000    0.000000    0.500000
      C     0.000000    0.500000    0.500000
      C     0.250000    0.250000    0.250000
      C     0.250000    0.750000    0.750000
      C     0.750000    0.250000    0.750000
      C     0.750000    0.750000    0.250000
    &END COORD
    &KIND C
      BASIS_SET ORB SZV-GTH-PADE
      BASIS_SET HARRIS DZVP-GTH-PADE
      POTENTIAL GTH-PADE-q4
    &END KIND
  &END SUBSYS
&END FORCE_EVAL
