&GLOBAL
  PRINT_LEVEL LOW
  PROJECT Carbon
  RUN_TYPE DEBUG
&END GLOBAL

&DEBUG
  CHECK_ATOM_FORCE 1 z
  DE 0.0015
  DEBUG_DIPOLE .FALSE.
  DEBUG_FORCES .TRUE.
  DEBUG_POLARIZABILITY .FALSE.
  DEBUG_STRESS_TENSOR .FALSE.
  MAX_RELATIVE_ERROR 0.05
  STOP_ON_MISMATCH T
&END DEBUG

&FORCE_EVAL
  METHOD Quickstep
  &DFT
    BASIS_SET_FILE_NAME BASIS_SET
    POTENTIAL_FILE_NAME GTH_POTENTIALS
    &ENERGY_CORRECTION
      ENERGY_FUNCTIONAL HARRIS
      HARRIS_BASIS ORBITAL
      &KPOINTS
        FULL_GRID ON
        PARALLEL_GROUP_SIZE 0
        SCHEME MONKHORST-PACK 2 2 2
        SYMMETRY ON
      &END KPOINTS
      &RESPONSE_SOLVER
        EPS 1.E-9
        METHOD MO_SOLVER
        PRECONDITIONER FULL_SINGLE_INVERSE
        EPS 1.E-9
      &END RESPONSE_SOLVER
      &XC
        &XC_FUNCTIONAL PADE
        &END XC_FUNCTIONAL
      &END XC
    &END ENERGY_CORRECTION
    &MGRID
      CUTOFF 120
      REL_CUTOFF 40
    &END MGRID
    &QS
      EPS_DEFAULT 1.E-12
    &END QS
    &SCF
      EPS_SCF 1.0E-5
      SCF_GUESS ATOMIC
    &END SCF
    &XC
      &XC_FUNCTIONAL PADE
      &END XC_FUNCTIONAL
    &END XC
  &END DFT
  &SUBSYS
    &CELL
      ABC 3.56683 3.56683 3.56683
    &END CELL
    &COORD
      SCALED
      C     0.000000    0.010000    0.020000
      C     0.500000    0.500000    0.000000
      C     0.500000    0.000000    0.500000
      C     0.000000    0.500000    0.500000
      C     0.250000    0.250000    0.250000
      C     0.250000    0.750000    0.750000
      C     0.750000    0.250000    0.750000
      C     0.750000    0.750000    0.250000
    &END COORD
    &KIND C
      BASIS_SET SZV-GTH-PADE
      POTENTIAL GTH-PADE-q4
    &END KIND
  &END SUBSYS
&END FORCE_EVAL
