&GLOBAL
  PROJECT si8-smearing-rtp-mo
  PRINT_LEVEL MEDIUM
  RUN_TYPE RT_PROPAGATION
&END GLOBAL
&FORCE_EVAL
  METHOD QS
  &PRINT
    &FORCES ON
    &END
  &END

  &DFT
    LSD
    BASIS_SET_FILE_NAME GTH_BASIS_SETS
    POTENTIAL_FILE_NAME GTH_POTENTIALS
    &REAL_TIME_PROPAGATION
       APPLY_DELTA_PULSE
       DELTA_PULSE_DIRECTION 1 0 0
       DELTA_PULSE_SCALE 0.1
       PERIODIC .TRUE.
       LEN_REP .FALSE.
       COM_NL .FALSE.
       MAX_ITER 50
       MAT_EXP TAYLOR
       DENSITY_PROPAGATION .TRUE.
       MCWEENY_MAX_ITER 0
       EXP_ACCURACY 1.0E-9
       EPS_ITER 1.0E-9
       PROPAGATOR ETRS
       INITIAL_WFN SCF_WFN
    &END
    &MGRID
      NGRIDS 4
      CUTOFF 100
    &END MGRID
    &QS
      METHOD GPW
      EXTRAPOLATION PS
      EXTRAPOLATION_ORDER 2
    &END QS
    &SCF
      SCF_GUESS ATOMIC
      MAX_SCF   100
      EPS_SCF 1.0e-6
      &SMEAR
        METHOD FERMI_DIRAC
        ELECTRONIC_TEMPERATURE   300.
      &END
      &MIXING
          METHOD BROYDEN_MIXING
          ALPHA   0.2
          BETA   1.5
          NBROYDEN 8
      &END
      ADDED_MOS   5 5
    &END SCF
    &XC
      &XC_FUNCTIONAL PBE
      &END XC_FUNCTIONAL
    &END XC
  &END DFT
  &SUBSYS
    &CELL
       A  5.42858871335   1.0   0.0
       B   0.0    5.42858871335  0.0
       C   0.00     0.00  5.42858871335
    &END CELL
    &KIND  Si
      BASIS_SET  DZVP-GTH
      POTENTIAL  GTH-PBE-q4
    &END
    &TOPOLOGY
      COORD_FILE_NAME SI_8.xyz
      COORDINATE XYZ
      CONNECTIVITY OFF
    &END TOPOLOGY
  &END SUBSYS
&END FORCE_EVAL
&MOTION
  &MD
    STEPS 4
    TIMESTEP [au_t] 0.05
  &END
&END MOTION

