&FORCE_EVAL
  METHOD Quickstep
  &DFT
    BASIS_SET_FILE_NAME GTH_BASIS_SETS
    &QS
      METHOD GPW
    &END QS
    &EFIELD
    &END
    &ENERGY_CORRECTION
      ENERGY_FUNCTIONAL HARRIS
      HARRIS_BASIS HARRIS 
      &XC
        &XC_FUNCTIONAL
           &PADE
           &END
        &END
      &END XC
      &PRINT
        &MOMENTS ON
           PERIODIC .FALSE.
           REFERENCE COM
        &END
      &END
    &END ENERGY_CORRECTION
    &SCF
      SCF_GUESS ATOMIC 
      &OT
         PRECONDITIONER FULL_SINGLE_INVERSE
         MINIMIZER DIIS
      &END
      &OUTER_SCF
         MAX_SCF  10
         EPS_SCF 1.0E-8
      &END
      MAX_SCF  10
      EPS_SCF 1.0E-8
    &END SCF
    &XC
      &XC_FUNCTIONAL PADE 
      &END XC_FUNCTIONAL
    &END XC
  &END DFT
  &SUBSYS
    &CELL
      ABC [angstrom] 6.0 6.0 6.0
      PERIODIC NONE
    &END
    &COORD
    O   0.000000    0.000000   -0.065587
    H   0.000000   -0.757136    0.520545
    H   0.000000    0.757136    0.520545
    &END COORD
    &TOPOLOGY
     &CENTER_COORDINATES
     &END
    &END
    &KIND H
      BASIS_SET DZVP-GTH
      BASIS_SET HARRIS TZVP-GTH
      POTENTIAL GTH-PADE-q1
    &END KIND
    &KIND O
      BASIS_SET DZVP-GTH
      BASIS_SET HARRIS TZV2P-GTH
      POTENTIAL GTH-PADE-q6
    &END KIND
  &END SUBSYS
&END FORCE_EVAL
&GLOBAL
  PRINT_LEVEL LOW
  PROJECT ec_dipole
  RUN_TYPE DEBUG
&END GLOBAL

&DEBUG
   DEBUG_FORCES .FALSE.
   DEBUG_STRESS_TENSOR .FALSE.
   DEBUG_DIPOLE .TRUE.
   DEBUG_POLARIZABILITY .FALSE.
   DE 0.0002
&END
 

