&FORCE_EVAL
  METHOD Quickstep
  &PROPERTIES
    &TDDFPT
       KERNEL sTDA
       &sTDA
          FRACTION 0.25
       &END sTDA
       NSTATES      4
       MAX_ITER    50
       CONVERGENCE [eV] 1.0e-7
    &END TDDFPT
  &END PROPERTIES
  &DFT
    LSD
    &QS
      METHOD GPW
    &END QS
    &EFIELD
    &END
    &MGRID
       CUTOFF 200
       REL_CUTOFF 40
    &END
    &EXCITED_STATES T
       STATE 2
    &END EXCITED_STATES
    &SCF
      SCF_GUESS ATOMIC 
      &OT
         PRECONDITIONER FULL_SINGLE_INVERSE
         MINIMIZER DIIS
      &END
      &OUTER_SCF
         MAX_SCF  10
         EPS_SCF 1.0E-8
      &END
      MAX_SCF  50
      EPS_SCF 1.0E-8
    &END SCF
    &XC
      &XC_FUNCTIONAL PADE
      &END XC_FUNCTIONAL
    &END XC
    &POISSON
       PERIODIC NONE
       POISSON_SOLVER ANALYTIC
    &END
    &PRINT
      &MOMENTS ON
         PERIODIC .FALSE.
         REFERENCE COM
      &END
    &END
  &END DFT
  &SUBSYS
    &CELL
      ABC [angstrom] 5.0 5.0 5.0
      PERIODIC NONE
    &END
    &COORD
    O   0.000000    0.000000   -0.065587
    H   0.000000   -0.757136    0.520545
    H   0.000000    0.757136    0.520545
    &END COORD
    &TOPOLOGY
     &CENTER_COORDINATES
     &END
    &END
    &KIND H
      BASIS_SET DZV-GTH-PADE
      POTENTIAL GTH-PADE-q1
    &END KIND
    &KIND O
      BASIS_SET DZVP-GTH-PADE
      POTENTIAL GTH-PADE-q6
    &END KIND
  &END SUBSYS
&END FORCE_EVAL
&GLOBAL
  PRINT_LEVEL LOW
  PROJECT dipole
  RUN_TYPE ENERGY_FORCE
##  RUN_TYPE DEBUG
&END GLOBAL
&DEBUG
   DEBUG_FORCES .FALSE.
   DEBUG_STRESS_TENSOR .FALSE.
   DEBUG_DIPOLE .TRUE.
   DEBUG_POLARIZABILITY .FALSE.
   STOP_ON_MISMATCH T
   DE 0.002
&END DEBUG

