&GLOBAL
  PROJECT c2h2_list-1
  PRINT_LEVEL LOW
  RUN_TYPE LINEAR_RESPONSE
&END GLOBAL
&FORCE_EVAL
  &DFT
    BASIS_SET_FILE_NAME ../../../data/EMSL_BASIS_SETS
    POTENTIAL_FILE_NAME ../../../data/POTENTIAL
    &MGRID
      CUTOFF 100
    &END MGRID
    &QS
      METHOD GAPW
    &END QS
    &SCF
      MAX_SCF 5
    &END SCF
    &XC
      &XC_FUNCTIONAL BLYP
      &END XC_FUNCTIONAL
    &END XC
  &END DFT
  &PROPERTIES
    &LINRES
       &LOCALIZE
         MAX_ITER 10
       &END
       PRECONDITIONER FULL_ALL
       MAX_ITER 5
       &CURRENT
          GAUGE R_AND_STEP_FUNCTION
       &END CURRENT
       &NMR
          &PRINT
            &SHIELDING_TENSOR
              ATOMS_LIST 1 4
            &END SHIELDING_TENSOR
          &END PRINT
       &END
    &END
  &END
  &SUBSYS
    &CELL
      ABC 6.0 6.0 6.0
    &END CELL
    &KIND H
      BASIS_SET 6-31G*
      POTENTIAL ALL
    &END KIND
    &KIND C
      BASIS_SET 6-31G*
      POTENTIAL ALL
    &END KIND
    &COORD
 C   0.000000    0.000000   -0.602850
 C   0.000000    0.000000    0.602865
 H   0.000000    0.000000    1.669814
 H   0.000000    0.000000   -1.669906
    &END COORD
  &END SUBSYS
&END FORCE_EVAL
