&GLOBAL
  PROJECT w2_3-selected-states-2
  PRINT_LEVEL LOW
  RUN_TYPE LINEAR_RESPONSE
&END GLOBAL
&FORCE_EVAL
  &DFT
    BASIS_SET_FILE_NAME EMSL_BASIS_SETS
    POTENTIAL_FILE_NAME POTENTIAL
    &MGRID
      CUTOFF 100
    &END MGRID
    &QS
      METHOD GAPW
    &END QS
    &SCF
      EPS_DIIS 0.6
      MAX_SCF 4
      SCF_GUESS ATOMIC
    &END SCF
    &XC
      &XC_FUNCTIONAL BLYP
      &END XC_FUNCTIONAL
    &END XC
  &END DFT
  &PROPERTIES
    &LINRES
       &LOCALIZE
         MAX_ITER 5
       &END
       MAX_ITER 10
       PRECONDITIONER FULL_S_INVERSE
       EPS 1E-4
       &CURRENT
          SELECTED_STATES_ON_ATOM_LIST 4 5 6
          SELECTED_STATES_ATOM_RADIUS 1.0
          GAUGE ATOM
          ORBITAL_CENTER COMMON
       &END CURRENT
       &NMR
       &END
    &END
  &END
  &SUBSYS
    &CELL
      ABC 5.0 5.0 5.0
    &END CELL
    &COORD
 O     0.000000     0.000000     0.000000
 H     0.000000     0.000000     0.950000
 H     0.895669     0.000000    -0.316667
 O    -1.885618     0.000000    -2.333333
 H    -2.084656    -0.895669    -2.579630
 H    -2.350039     0.597112    -2.908025
    &END COORD
    &KIND H
      BASIS_SET 3-21G*
      POTENTIAL ALL
    &END KIND
    &KIND O
      BASIS_SET 3-21G*
      POTENTIAL ALL
    &END KIND
  &END SUBSYS
&END FORCE_EVAL
