&FORCE_EVAL
  METHOD Quickstep
  &DFT
    BASIS_SET_FILE_NAME ../../../data/BASIS_MOLOPT
    GEMINAL_FILE_NAME   ../../../data/BASIS_GEMINAL
    POTENTIAL_FILE_NAME ../../../data/POTENTIAL
    &MGRID
      CUTOFF 280
    &END MGRID
    &QS
      EPS_DEFAULT 1.0E-12
    &END QS
    &SCF
      SCF_GUESS ATOMIC
      EPS_SCF 3.0E-7
      MAX_SCF 3
      &DIAGONALIZATION
         ALGORITHM STANDARD
      &END DIAGONALIZATION
    &END SCF
    &XC
      &XC_FUNCTIONAL PADE
      &END XC_FUNCTIONAL
    &END XC
  &END DFT
  &SUBSYS
    &CELL
      ABC 5.0 5.0 5.0
    &END CELL
    &COORD
    O   0.000000    0.000000   -0.065587
    H   0.000000   -0.757136    0.520545
    H   0.000000    0.757136    0.520545
    &END COORD
    &KIND H
      BASIS_SET DZVP-MOLOPT-GTH-q1
      POTENTIAL GTH-BLYP-q1
       &GEMINAL
         1
         0 0 0 1 1
         1.0 1.0 0.0  1.0000000
       &END GEMINAL
    &END KIND
    &KIND O
      BASIS_SET DZVP-MOLOPT-GTH-q6
      GEMINAL_BASIS_SET GT1
      POTENTIAL GTH-BLYP-q6
    &END KIND
  &END SUBSYS
&END FORCE_EVAL
&GLOBAL
  PROJECT H2O-geminal-1
  RUN_TYPE ENERGY_FORCE
  PRINT_LEVEL MEDIUM
&END GLOBAL
