&GLOBAL
  PRINT_LEVEL MEDIUM
  PROJECT H2O_pw
  RUN_TYPE ENERGY
  WALLTIME 84500
&END GLOBAL

&FORCE_EVAL
  METHOD Quickstep
  &DFT
    BASIS_SET_FILE_NAME GTH_BASIS_SETS
    POTENTIAL_FILE_NAME GTH_POTENTIALS
    &MGRID
      CUTOFF 200
    &END MGRID
    &QS
      EPS_DEFAULT 1.0E-10
      METHOD GPW
    &END QS
    &SCF
      EPS_SCF 1.0E-7
      IGNORE_CONVERGENCE_FAILURE
      MAX_SCF 3
      SCF_GUESS ATOMIC
      &OT
      &END OT
    &END SCF
    &XC
      &HF
        PW_HFX
        &INTERACTION_POTENTIAL
          CUTOFF_RADIUS 4.0
          POTENTIAL_TYPE TRUNCATED
          T_C_G_DATA t_c_g.dat
        &END INTERACTION_POTENTIAL
        &SCREENING
          EPS_SCHWARZ 1.0E-7
        &END SCREENING
      &END HF
      &XC_FUNCTIONAL NONE
      &END XC_FUNCTIONAL
    &END XC
  &END DFT
  &SUBSYS
    &CELL
      ABC 8 8 8
      PERIODIC NONE
    &END CELL
    &COORD
      O -3.4962883 2.233242 -3.0432692
      H -3.9611244 2.2596521 -3.9482603
      H -3.9524803 1.5951881 -2.4542542
    &END COORD
    &KIND H
      BASIS_SET SZV-GTH
      POTENTIAL GTH-PBE-q1
    &END KIND
    &KIND O
      BASIS_SET SZV-GTH
      POTENTIAL GTH-PBE-q6
    &END KIND
  &END SUBSYS
&END FORCE_EVAL
