&FORCE_EVAL
  METHOD Quickstep
  &DFT
    &PRINT
       &OPTIMIZE_GEMINALS
          &POWELL
            MAX_FUN 100
          &END
       &END
    &END PRINT
    POTENTIAL_FILE_NAME ../../../data/POTENTIAL
    &MGRID
      CUTOFF 280
      REL_CUTOFF 30
    &END MGRID
    &QS
      METHOD GAPW
    &END QS
    &POISSON
      PERIODIC NONE
      PSOLVER MT
    &END
    &SCF
      EPS_SCF 1.0E-6
      SCF_GUESS ATOMIC
      MAX_SCF 20
    &END SCF
    &XC
      &XC_FUNCTIONAL NONE
      &END XC_FUNCTIONAL
      &HF
        &SCREENING
          EPS_SCHWARZ 1.0E-7
        &END
      &END
    &END XC
  &END DFT
  &SUBSYS
    &CELL
      ABC 5.0 5.0 5.0
      PERIODIC NONE
    &END CELL
    &COORD
    He   0.000000    0.000000    0.000000
    &END COORD
    &KIND He
      &BASIS
        2
        1 0 0 1 1
             2.800000000000  1.0
        1 0 0 1 1
             0.800000000000  1.0
      &END 
      POTENTIAL ALL
      &GEMINAL
        3
        0 0 0 1 1
        2.000000 2.000000 0.0  1.0000000
        0 0 0 1 1
        1.000000 1.000000 0.0  1.0000000
        0 0 0 1 1
        2.000000 1.000000 1.0000000  1.0000000
      &END GEMINAL
    &END KIND
  &END SUBSYS
&END FORCE_EVAL
&GLOBAL
  PROJECT He-gemopt
  PRINT_LEVEL MEDIUM
&END GLOBAL
