&FORCE_EVAL
  METHOD Quickstep
  &DFT
    POTENTIAL_FILE_NAME ../../../data/POTENTIAL
    &MGRID
      CUTOFF 280
      REL_CUTOFF 30
    &END MGRID
    &QS
      METHOD GAPW
    &END QS
    &POISSON
      PERIODIC NONE
      PSOLVER MT
    &END
    &SCF
      EPS_SCF 1.0E-6
      SCF_GUESS ATOMIC
      MAX_SCF 3
    &END SCF
    &XC
      &XC_FUNCTIONAL NONE
      &END XC_FUNCTIONAL
      &HF
        &HFX_RI
        &END
        &SCREENING
          EPS_SCHWARZ 1.0E-7
        &END
      &END
    &END XC
  &END DFT
  &SUBSYS
    &CELL
      ABC 5.0 5.0 5.0
      PERIODIC NONE
    &END CELL
    &COORD
    He   0.000000    0.000000    0.000000
    &END COORD
    &KIND He
      &BASIS
  2
  1  0  0  2  1
         13.21000000          0.04350600
          1.94340000          0.21166000
  1  0  0  1  1
          0.35443000          1.00000000
      &END 
      POTENTIAL ALL
       &GEMINAL
         5
         0 0 0 1 1
         5.140000 5.140000 0.0  1.0000000
         0 0 0 1 1
         1.971500 1.971500 0.0  1.0000000
         0 0 0 1 1
         0.841938 0.841938 0.0  1.0000000
         0 0 0 1 1
         1.516575 1.089475 1.055  1.0000000
         0 0 0 1 1
         3.681000 1.150000 3.500  1.0000000
       &END GEMINAL
    &END KIND
  &END SUBSYS
&END FORCE_EVAL
&GLOBAL
  PROJECT He-ri
  PRINT_LEVEL LOW
&END GLOBAL
