&GLOBAL
  PROJECT PROJECT 7B_lri
  RUN_TYPE ENERGY
  PRINT_LEVEL MEDIUM
&END GLOBAL
&FORCE_EVAL
  METHOD Quickstep
  &DFT
    BASIS_SET_FILE_NAME BASIS_LRIGPW_AUXMOLOPT 
    BASIS_SET_FILE_NAME BASIS_MOLOPT 
    POTENTIAL_FILE_NAME GTH_POTENTIALS
    &MGRID
      CUTOFF       800
      REL_CUTOFF    50
    &END MGRID
    &QS
      METHOD LRIGPW
      &LRIGPW
         LRI_OVERLAP_MATRIX INVERSE
      &END
    &END QS
    &SCF
      SCF_GUESS ATOMIC
      EPS_SCF 1.0E-6
      MAX_SCF 20
      &OT
        MINIMIZER       CG
        PRECONDITIONER  FULL_SINGLE_INVERSE
      &END
      &OUTER_SCF
        EPS_SCF  1.0E-6
        MAX_SCF  20
      &END
      &PRINT
        &RESTART OFF
        &END
      &END
    &END SCF
    &XC
      &XC_FUNCTIONAL PBE
      &END XC_FUNCTIONAL
      &VDW_POTENTIAL
        DISPERSION_FUNCTIONAL PAIR_POTENTIAL
        &PAIR_POTENTIAL
         TYPE DFTD3
         CALCULATE_C9_TERM .TRUE.
         REFERENCE_C9_TERM
         PARAMETER_FILE_NAME dftd3.dat
         REFERENCE_FUNCTIONAL PBE
         R_CUTOFF [angstrom] 8.0
        &END PAIR_POTENTIAL
      &END VDW_POTENTIAL
    &END XC
  &END DFT
  &SUBSYS
     &CELL
       A     1.2100842003920583E+01    0.0000000000000000E+00    0.0000000000000000E+00
       B    -3.6564899847051844E-04    1.1089581313898730E+01    0.0000000000000000E+00
       C     2.5487061857926874E-02    1.5445831760722026E-03    1.1985776753629303E+01
       MULTIPLE_UNIT_CELL  1 1 1
       &CELL_REF
         A     1.3000000000000000E+01    0.0000000000000000E+00    0.0000000000000000E+00
         B     0.0000000000000000E+00    1.3000000000000000E+01    0.0000000000000000E+00
         C     0.0000000000000000E+00    0.0000000000000000E+00    1.3000000000000000E+01
         MULTIPLE_UNIT_CELL  1 1 1
       &END CELL_REF
     &END CELL
     &COORD
       UNIT angstrom
       SCALED  F
       H    4.3555740859509040E+00    2.7404802362814444E+00    3.1848645738295462E+00
       H   -1.0548609911028146E-02    5.4544547434460382E+00    4.9125896392787514E+00
       H    2.3415072638315433E+00    3.3328015208610289E+00    3.1969116332882690E+00
       H    6.0249341079379990E+00    5.4053502253021546E-01    8.7950396154684640E-01
       H    5.6986874809764352E+00    1.8875086154056235E+00    3.1770765975251560E+00
       H    4.5364699494586547E-02    4.6244515509546353E+00    2.7942985240658658E+00
       H    1.7494740102993913E+00    1.4313182337653287E+00    2.4271457974831891E+00
       H    4.7609439571649936E+00    3.7304045234055971E+00    9.4962491283294326E-01
       H    3.7679360988232040E+00    9.8634732076512899E-01    4.4378089690645535E+00
       H    7.4582559782700353E-01    4.1184888507291122E+00    4.9407826990279080E+00
       H    1.3235928463529660E+00    2.4014534432183723E+00    1.8864168287793059E-01
       H    3.0074312243130583E+00   -3.1254465516720281E-01    1.9169950117462293E+00
       H    5.3606581304666880E+00    1.8105845970175891E+00    1.9998438570876717E-01
       H    3.0053003211077867E+00    4.6031868906801554E+00    3.8762712863597653E+00
       H    2.6667498251494597E+00    3.2544913222555860E+00    1.8072372849149038E-01
       H    3.0771109226847444E+00    5.1692357554335022E-01    5.7913956430591460E+00
       H    4.7676730478357250E+00    3.7118698648548376E+00   -5.6951393714173404E-01
       H    1.7426057394107790E+00    1.4127769994230681E+00    3.9463245701072291E+00
       H    7.3577873830725926E-01    4.1553580685398233E+00    1.4404576367909043E+00
       H    3.7642926308741504E+00    1.0230646607734377E+00    1.9446295112386247E+00
       O    6.0988233425278411E+00    1.1701385229817569E+00    1.2838494284763635E-01
       O    1.6860940149101435E+00    3.3105153170584281E+00    1.7756710243270210E-01
       O    1.3375552039818441E+00    1.8891117972487455E+00    3.1893284480671267E+00
       O    1.7150895891469859E-02    4.5783509625481393E+00    4.4701859129448742E+00
       O   -2.9353764166298538E-02    4.6378916671018944E+00    1.8135058139440838E+00
       O    3.0794833322671971E+00    3.9734797147158742E+00    3.1253173277871915E+00
       O    4.7180607206337264E+00    1.8314314888617400E+00    3.1737301984506985E+00
       O    4.3559185980180031E+00    3.2539610212595935E+00    1.9268231486008286E-01
       O    3.0351166409124937E+00    5.6354022415067240E-01    1.4744884172854147E+00
       O    3.0027895073534294E+00    5.0367254270729422E-01    4.8105766248002340E+00
       H    1.0406100102004018E+01    2.7392407941062298E+00    3.1852680540597955E+00
       H    6.0390043668297908E+00    5.4558550307864344E+00    4.9128564080175474E+00
       H    8.3926406060986576E+00    3.3317001525063041E+00    3.1976437472521719E+00
       H    1.2074931777095196E+01    5.3875126738050960E-01    8.7939249347617410E-01
       H    1.1749521726957298E+01    1.8868243875595112E+00    3.1771450317265542E+00
       H    6.0956108336984896E+00    4.6262037637645212E+00    2.7946337075489907E+00
       H    7.8002985074048174E+00    1.4302123511735894E+00    2.4278803406002281E+00
       H    1.0811446308077752E+01    3.7288110700962696E+00    9.4923897650540623E-01
       H    9.8190961430490784E+00    9.8521888815778957E-01    4.4382824553102047E+00
       H    6.7957859246268590E+00    4.1201817383431765E+00    4.9408330074312294E+00
       H    7.3738811425816095E+00    2.4032255013517996E+00    1.8888082410744250E-01
       H    9.0590604283921170E+00   -3.1383597115927614E-01    1.9175614446567135E+00
       H    1.1410866090521967E+01    1.8089231212980201E+00    1.9988919958690074E-01
       H    9.0567196848176490E+00    4.6020781507355721E+00    3.8767718095649539E+00
       H    8.7173729910862257E+00    3.2554687790636492E+00    1.8064743260154362E-01
       H    9.1285909047075329E+00    5.1568983124787271E-01    5.7919671555437393E+00
       H    1.0818314755886274E+01    3.7101099494994672E+00   -5.6992099215010195E-01
       H    7.7931717172064685E+00    1.4118142797230804E+00    3.9469957163062435E+00
       H    6.7865063750320207E+00    4.1572365641913436E+00    1.4409837393237750E+00
       H    9.8153961904053393E+00    1.0220304747774451E+00    1.9454917609273215E+00
       O    1.2149029659992218E+01    1.1684553635275583E+00    1.2837896407112823E-01
       O    7.7367458486067662E+00    3.3121540815206107E+00    1.7786517779621419E-01
       O    7.3883053928121933E+00    1.8881436147082462E+00    3.1899324569392715E+00
       O    6.0666371020720300E+00    4.5796849326047839E+00    4.4706007068979288E+00
       O    6.0211737847653897E+00    4.6396187586473179E+00    1.8138220184861731E+00
       O    9.1306888818837812E+00    3.9722709163603453E+00    3.1258608392107399E+00
       O    1.0768875180186692E+01    1.8302930929154828E+00    3.1741941250170482E+00
       O    1.0406412446665355E+01    3.2523672069116638E+00    1.9229069955508846E-01
       O    9.0863890713710234E+00    5.6232025660912366E-01    1.4752164770009275E+00
       O    9.0541167215912406E+00    5.0235641875634129E-01    4.8111645778188272E+00
       H    4.3553445721428625E+00    8.2852581627290043E+00    3.1840494225482301E+00
       H   -1.0738612795857938E-02    1.0999086024132769E+01    4.9126480493994009E+00
       H    2.3415479056603874E+00    8.8777214641544209E+00    3.1959685226624095E+00
       H    6.0240454680737336E+00    6.0851759574713418E+00    8.7914586490071744E-01
       H    5.6985081192622768E+00    7.4324202670205075E+00    3.1762536024401693E+00
       H    4.5568830146618541E-02    1.0169277547876314E+01    2.7943243467879184E+00
       H    1.7494513267570726E+00    6.9759050135517313E+00    2.4266605890361146E+00
       H    4.7609220388425744E+00    9.2754878876098044E+00    9.4982943517928264E-01
       H    3.7678349427179403E+00    6.5315045424336073E+00    4.4374225657739759E+00
       H    7.4624935783197688E-01    9.6634530281378783E+00    4.9409278052304550E+00
       H    1.3235179001942159E+00    7.9459702228267020E+00    1.8832788065250225E-01
       H    3.0070202981396688E+00    5.2316442050904444E+00    1.9171601620168670E+00
       H    5.3602232834181747E+00    7.3554145728645253E+00    1.9964539290426755E-01
       H    3.0053825546943878E+00    1.0147802976070158E+01    3.8758090471421420E+00
       H    2.6666139162540383E+00    8.7991557880382736E+00    1.8071974845230979E-01
       H    3.0769805979051990E+00    6.0626291684746940E+00    5.7911961885015479E+00
       H    4.7677219957537558E+00    9.2572065497231399E+00   -5.6931884006230338E-01
       H    1.7424911467252415E+00    6.9580060177157321E+00    3.9458491153623347E+00
       H    7.3577579470590559E-01    9.7001376618794293E+00    1.4404114390840528E+00
       H    3.7639926333091047E+00    6.5672273047607392E+00    1.9442387463428568E+00
       O    6.0981064110639309E+00    6.7146529065038409E+00    1.2796759748303280E-01
       O    1.6859614365301405E+00    8.8550467931483698E+00    1.7748916779337717E-01
       O    1.3375131439665087E+00    7.4340544060807465E+00    3.1886318584217861E+00
       O    1.7404915403825456E-02    1.0122981683661976E+01    4.4702766864847980E+00
       O   -2.9191597522459652E-02    1.0182868192004682E+01    1.8135371943606977E+00
       O    3.0795509979172975E+00    9.5183953245347581E+00    3.1245947274224237E+00
       O    4.7178837281650488E+00    7.3762244217386526E+00    3.1729562028120872E+00
       O    4.3559330389603774E+00    8.7992047062612695E+00    1.9279262660631749E-01
       O    3.0347457982941357E+00    6.1075697733119805E+00    1.4743411746103630E+00
       O    3.0026171974823388E+00    6.0491042253869063E+00    4.8103899087438684E+00
       H    1.0406156085709398E+01    8.2835199228920349E+00    3.1844102906575587E+00
       H    6.0398750156172163E+00    1.1000784946938516E+01    4.9131481005083906E+00
       H    8.3929837718419442E+00    8.8765670793786189E+00    3.1966780772199730E+00
       H    1.2074486506646629E+01    6.0833147133928405E+00    8.7897578235045037E-01
       H    1.1749527382107784E+01    7.4311237487670487E+00    3.1762844837862767E+00
       H    6.0963203532378190E+00    1.0171264042700241E+01    2.7947651975753898E+00
       H    7.8000333442800605E+00    6.9750618458241309E+00    2.4271396394355498E+00
       H    1.0811406027295583E+01    9.2735632177816125E+00    9.4929926918989405E-01
       H    9.8188548313792943E+00    6.5302728082511976E+00    4.4376720329493571E+00
       H    6.7966462200321471E+00    9.6650588384574689E+00    4.9410721129841262E+00
       H    7.3737196703128216E+00    7.9475641110376873E+00    1.8872216900864383E-01
       H    9.0581832602188701E+00    5.2304217299184739E+00    1.9174857989203105E+00
       H    1.1410677765803568E+01    7.3535080554561247E+00    1.9938811199336004E-01
       H    9.0573276680426336E+00    1.0146417114634778E+01    3.8764512702021863E+00
       H    8.7173189208905448E+00    8.7997320228401055E+00    1.8070343065850836E-01
       H    9.1281316427587829E+00    6.0615066774921251E+00    5.7915557249167691E+00
       H    1.0818229383730083E+01    9.2552344310353387E+00   -5.6985509112141142E-01
       H    7.7929252041390304E+00    6.9572050909705743E+00    3.9462333945589427E+00
       H    6.7867590608950916E+00    9.7019491962338567E+00    1.4410266003639571E+00
       H    9.8150033783406023E+00    6.5660103836561436E+00    1.9447852729759676E+00
       O    1.2148659745848811E+01    6.7128413153673527E+00    1.2784306225918224E-01
       O    7.7366980395204843E+00    8.8564372571496204E+00    1.7794746055876504E-01
       O    7.3881088966207908E+00    7.4333439507890731E+00    3.1890196142935561E+00
       O    6.0676063631832715E+00    1.0124672325972444E+01    4.4707839901430386E+00
       O    6.0217015964537497E+00    1.0184687548226671E+01    1.8139667041534686E+00
       O    9.1312558582853161E+00    9.5169244017598853E+00    3.1252754072519751E+00
       O    1.0768874669863591E+01    7.3745456297944108E+00    3.1732561881791743E+00
       O    1.0406446021880470E+01    8.7972358894561697E+00    1.9225692750768489E-01
       O    9.0857838295456741E+00    6.1063864632218925E+00    1.4747695964750354E+00
       O    9.0536310250277019E+00    6.0479522221103403E+00    4.8107590399467801E+00
       H    4.3677915509683709E+00    2.7404040119833306E+00    9.1776563996917915E+00
       H    1.2178901067637909E-03    5.4555961858607658E+00    1.0905332116622674E+01
       H    2.3538562215699321E+00    3.3323922727083422E+00    9.1890840791644095E+00
       H    6.0379052639431450E+00    5.4018585885265658E-01    6.8723741181446165E+00
       H    5.7109917308892255E+00    1.8874779203209593E+00    9.1702815276943888E+00
       H    5.7838248953809873E-02    4.6245303617930436E+00    8.7871975688945092E+00
       H    1.7614574766426092E+00    1.4306998977554295E+00    8.4202113115791146E+00
       H    4.7736494728649355E+00    3.7297991951365468E+00    6.9422935941518098E+00
       H    3.7803459612660713E+00    9.8661292370237508E-01    1.0430626861906406E+01
       H    7.5806613013657032E-01    4.1200156464807165E+00    1.0933948541860293E+01
       H    1.3360411791083977E+00    2.4009403210490898E+00    6.1811491435162944E+00
       H    3.0199047150371938E+00   -3.1319992484047754E-01    7.9099905953448353E+00
       H    5.3735698988092997E+00    1.8102326867944567E+00    6.1928376767458433E+00
       H    3.0175549596819682E+00    4.6026369592169152E+00    9.8685760244730432E+00
       H    2.6793405170465632E+00    3.2537543199473040E+00    6.1733569324966791E+00
       H    3.0896735795540264E+00    5.1797994074893483E-01    1.1784531735544075E+01
       H    4.7803270303292535E+00    3.7115592276108855E+00    5.4231252435796149E+00
       H    1.7551128479993894E+00    1.4126280177587165E+00    9.9394352294864436E+00
       H    7.4846052971550436E-01    4.1549395141475705E+00    7.4336080177737935E+00
       H    3.7766619819077545E+00    1.0224968444401186E+00    7.9378484033371075E+00
       O    6.1117819944141321E+00    1.1698286020261313E+00    6.1213055065071655E+00
       O    1.6987031328064561E+00    3.3099379747000741E+00    6.1701959450477215E+00
       O    1.3498245405381024E+00    1.8887276065986998E+00    9.1823846945179532E+00
       O    2.9124775106317776E-02    4.5793454068828163E+00    1.0463255996551498E+01
       O   -1.6673428903323451E-02    4.6376421935878103E+00    7.8063870363280721E+00
       O    3.0916937599876868E+00    3.9732270502219666E+00    9.1173714760648323E+00
       O    4.7303628096179988E+00    1.8313741993632764E+00    9.1668173646591349E+00
       O    4.3686587525494982E+00    3.2534945071812422E+00    6.1852668274942966E+00
       O    3.0477019345050040E+00    5.6286806614693052E-01    7.4674981010886858E+00
       O    3.0152573491487620E+00    5.0405038961865001E-01    1.0803698519182682E+01
       H    1.0418409025112863E+01    2.7391881801344278E+00    9.1781292276656838E+00
       H    6.0515549615540163E+00    5.4571876732090043E+00    1.0905392686129241E+01
       H    8.4049884663131262E+00    3.3313885780892565E+00    9.1898996646479763E+00
       H    1.2087075466405862E+01    5.3849166761771572E-01    6.8719393643051392E+00
       H    1.1761829652769633E+01    1.8866721332549004E+00    9.1705016402982764E+00
       H    6.1087720299553245E+00    4.6259479522319866E+00    8.7872961166791637E+00
       H    7.8123630848669787E+00    1.4296769810000576E+00    8.4208779190386149E+00
       H    1.0824294653959550E+01    3.7288018587635436E+00    6.9416030530775519E+00
       H    9.8313238542742489E+00    9.8575609462453662E-01    1.0431183323227827E+01
       H    6.8085471707626963E+00    4.1217258545727686E+00    1.0934304072026329E+01
       H    7.3870322367134227E+00    2.4029496264273202E+00    6.1809580297736986E+00
       H    9.0714958858831682E+00   -3.1444903722978773E-01    7.9106652725570425E+00
       H    1.1423306326987305E+01    1.8087278928288764E+00    6.1921862965589050E+00
       H    9.0689849340252700E+00    4.6016125359782478E+00    9.8692120338075515E+00
       H    8.7303945839107779E+00    3.2553583369275514E+00    6.1724509528513325E+00
       H    9.1409308529460134E+00    5.1705223601958117E-01    1.1785206082664480E+01
       H    1.0831586330401306E+01    3.7103443460804457E+00    5.4224045945865313E+00
       H    7.8056244219720581E+00    1.4117920410138289E+00    9.9400305142449881E+00
       H    6.7995300605983715E+00    4.1566736886073388E+00    7.4336472105385329E+00
       H    9.8278041707413930E+00    1.0214097284826189E+00    7.9387805378638765E+00
       O    1.2161311213120431E+01    1.1680488810960619E+00    6.1208362561563670E+00
       O    7.7497599301555811E+00    3.3119193826019964E+00    6.1696793860694825E+00
       O    7.4005485989149156E+00    1.8878444445472320E+00    9.1828634545294623E+00
       O    6.0794825094098517E+00    4.5808297736411099E+00    1.0463566340088295E+01
       O    6.0341718581281709E+00    4.6389620450029270E+00    7.8065069926623858E+00
       O    9.1429472718996436E+00    3.9720588810265500E+00    9.1180862436486123E+00
       O    1.0781175675875993E+01    1.8302214301449826E+00    9.1673806167789653E+00
       O    1.0419450158810283E+01    3.2525386184434204E+00    6.1844478791246091E+00
       O    9.0990352922672528E+00    5.6163127564245641E-01    7.4682290479499773E+00
       O    9.0663662318950990E+00    5.0306779826997294E-01    1.0804381251748270E+01
       H    4.3673456947673337E+00    8.2852255398954533E+00    9.1784652632619874E+00
       H    1.3641179325752342E-03    1.1001015638459178E+01    1.0905848078306708E+01
       H    2.3536532531452972E+00    8.8774698451279264E+00    9.1903196885112841E+00
       H    6.0371500401891165E+00    6.0848512201263896E+00    6.8720733338070321E+00
       H    5.7106016771868360E+00    7.4324173484821676E+00    9.1707850901547587E+00
       H    5.7837418848610149E-02    1.0169945131562157E+01    8.7875123899265493E+00
       H    1.7611700320380927E+00    6.9761365872752501E+00    8.4204498008751756E+00
       H    4.7744271718380746E+00    9.2751134959272274E+00    6.9424959303620852E+00
       H    3.7798084704097294E+00    6.5307881403385597E+00    1.0430618465141023E+01
       H    7.5801315001742853E-01    9.6652836366260271E+00    1.0934162414285392E+01
       H    1.3368344292393859E+00    7.9461163407578965E+00    6.1815441412184171E+00
       H    3.0194653388198702E+00    5.2322485419840348E+00    7.9094369914063165E+00
       H    5.3734508185758907E+00    7.3552773671127580E+00    6.1927286168633433E+00
       H    3.0175845327426285E+00    1.0147866627432037E+01    9.8694554664920702E+00
       H    2.6798717613633691E+00    8.7992327816728526E+00    6.1736793184742789E+00
       H    3.0890497035185631E+00    6.0617489720343443E+00    1.1784294895989323E+01
       H    4.7810615382028105E+00    9.2568789282951691E+00    5.4233008800335032E+00
       H    1.7546204320398022E+00    6.9572751914655591E+00    9.9396230178494331E+00
       H    7.4869591418434189E-01    9.7003123608830819E+00    7.4340678132217350E+00
       H    3.7763287457107815E+00    6.5678504743252066E+00    7.9379560747225435E+00
       O    6.1113402511977570E+00    6.7145138861625773E+00    6.1210733336556729E+00
       O    1.6992276684428718E+00    8.8552083748076758E+00    6.1706076760921862E+00
       O    1.3494457915841342E+00    7.4338087454254582E+00    9.1827867225520485E+00
       O    2.9182745887773812E-02    1.0124856213268362E+01    1.0463560713543732E+01
       O   -1.6614215566640823E-02    1.0182843512865025E+01    7.8066856329042773E+00
       O    3.0916229559453057E+00    9.5181323356751406E+00    9.1184971769061516E+00
       O    4.7299781433275703E+00    7.3762175991315395E+00    9.1672951348828668E+00
       O    4.3692833462353775E+00    8.7989468119997962E+00    6.1854633483089803E+00
       O    3.0473346976917370E+00    6.1085148228399229E+00    7.4673672242061020E+00
       O    3.0146792053196063E+00    6.0481205773080662E+00    1.0803464755012239E+01
       H    1.0418016225315004E+01    8.2837332272231130E+00    9.1788823095069763E+00
       H    6.0521258540371763E+00    1.1002389902794155E+01    1.0905854732234870E+01
       H    8.4049363980218335E+00    8.8764749628680129E+00    9.1914458893877224E+00
       H    1.2087552466527777E+01    6.0831472811540683E+00    6.8718772669466590E+00
       H    1.1761460215494447E+01    7.4313361889416960E+00    9.1707588920343177E+00
       H    6.1094529624084792E+00    1.0171182224505518E+01    8.7876423510709412E+00
       H    7.8119167525369120E+00    6.9753618854389510E+00    8.4210244107445753E+00
       H    1.0824745267755194E+01    9.2734833391423201E+00    6.9418367752773413E+00
       H    9.8308143085057349E+00    6.5297263126232297E+00    1.0430918207660728E+01
       H    6.8087445680617478E+00    9.6666793564333684E+00    1.0934626822991918E+01
       H    7.3873010907731622E+00    7.9474231180554993E+00    6.1811613439478279E+00
       H    9.0706777389947053E+00    5.2310870707653168E+00    7.9098431483736640E+00
       H    1.1423931327471212E+01    7.3535004559683452E+00    6.1923733229565343E+00
       H    9.0692901488040700E+00    1.0146813071726834E+01    9.8703382986381385E+00
       H    8.7307628474751588E+00    8.7996713051840132E+00    6.1728146863897377E+00
       H    9.1402529173455846E+00    6.0607654167547684E+00    1.1784741605436293E+01
       H    1.0831984320393307E+01    9.2548947731779201E+00    5.4226203210003634E+00
       H    7.8051938612053888E+00    6.9564235125986125E+00    9.9401445852110797E+00
       H    6.8001822557799176E+00    9.7015616282884398E+00    7.4340753676645965E+00
       H    9.8272923541741903E+00    6.5667543937011335E+00    7.9384678111746441E+00
       O    1.2161972824023605E+01    6.7128758279947567E+00    6.1209485309017611E+00
       O    7.7501388859465878E+00    8.8563388454786445E+00    6.1700879497165193E+00
       O    7.4001630097023989E+00    7.4330632903713418E+00    9.1833170867018143E+00
       O    6.0798867720642420E+00    1.0126090367336886E+01    1.0463881297415824E+01
       O    6.0349502245738478E+00    1.0184120671107936E+01    7.8068365966334410E+00
       O    9.1431342459015603E+00    9.5168533438863623E+00    9.1195285432248276E+00
       O    1.0780811602462519E+01    7.3747772681102042E+00    9.1675759893656021E+00
       O    1.0419927681243509E+01    8.7971229113467277E+00    6.1847310259822033E+00
       O    9.0983554845944710E+00    6.1073570743787666E+00    7.4678088554525566E+00
       O    9.0657446644477471E+00    6.0470567279086485E+00    1.0803914630237983E+01
    &END COORD
    &TOPOLOGY
       NUMBER_OF_ATOMS  240
       MULTIPLE_UNIT_CELL  1 1 1
    &END TOPOLOGY
    &KIND H
      BASIS_SET DZVP-MOLOPT-GTH
      POTENTIAL GTH-PBE-q1
      LRI_BASIS_SET LRI-DZVP-MOLOPT-GTH-MEDIUM
    &END KIND
    &KIND O
      BASIS_SET DZVP-MOLOPT-GTH
      POTENTIAL GTH-PBE-q6
      LRI_BASIS_SET LRI-DZVP-MOLOPT-GTH-MEDIUM
    &END KIND
  &END SUBSYS
&END FORCE_EVAL
