&CP2K  
  PROGRAM   QMMM
  PROJECT   water3
  IOLEVEL   1
  FFTLIB    FFTSG
  RUN_TYPE  WFN_OPT
&END

&PRINT MEDIUM
&END

&TOPOLOGY
 FORCEFIELD ON
&END

&EWALD
 units angstrom
 ewald_type ewald
 ewald_param .44 21 6
&END

&FORCE_FIELD
 charges
   O -0.8476
   H  0.4238
 end
 bonds
  harmonic O H 0. 1.8
 end
 bends
  harmonic H O H 0. 1.8
 end
 nonbonded
  LENNARD-JONES O O 78.198 3.166 11.4
  LENNARD-JONES O H 0.0 3.6705 11.4
  LENNARD-JONES H H 0.0 3.30523 11.4
 end
&END

&CELL
 UNIT         ANGSTROM
 ABC          24.955 24.955 24.955
&END

&COORD
O     0.000000     0.000000     0.000000    H2O1
H     0.000000     0.000000     1.000000    H2O1
H     0.942809     0.000000    -0.333333    H2O1
O    -1.617979    -0.948062    -2.341650    H2O2
H    -2.529195    -1.296822    -2.122437    H2O2
H    -1.534288    -0.833088    -3.331486    H2O2
O    -1.447990     2.117783     1.555094    H2O3
H    -1.501128     2.645178     2.403050    H2O3
H    -2.090603     1.352766     1.597519    H2O3
&END

&IO
 BASIS_SET_FILE GTH_BASIS_SETS
 POTENTIAL_FILE POTENTIAL
&END

&DFT
 FUNCTIONAL  pade
&END

&QS
 CUTOFF     30
 COMMENSURATE
&END

&SCF
 GUESS        atomic
 MAX_SCF 2
&END

&KIND H
 BASIS_SET    SZV-GTH
 POTENTIAL    GTH-PADE-q1
&END

&KIND O
 BASIS_SET    SZV-GTH
 POTENTIAL    GTH-PADE-q6
&END

&FORCE_EVAL
        &DFT
           &MGRID
              &INTERPOLATOR
		EPS_R 1.0e-6
		EPS_X 1.0e-6
                MAXITER 100
              &END INTERPOLATOR
           &END MGRID
        &END DFT
        &QMMM
         ECOUPL GAUSS
         ABC_QM  13.0 13.0 13.0
         USE_GEEP_LIB 3
         NOCOMPATIBILITY
         #
         # QM_KINDS
         #
         &QM_KIND H
          mm_index 2 3
         &END QM_KIND
         &QM_KIND O
          mm_index 1
         &END QM_KIND
         #
         # MM_KINDS
         #
         &MM_KIND H
          radius 0.54
         &END MM_KIND
         &MM_KIND O
          radius 0.73
         &END MM_KIND
         #
         &PRINT
          &MM_POTENTIAL
            PRINT SILENT
          &END 
         &END PRINT
         #
        &END QMMM
&END FORCE_EVAL

