&CP2K  
  PROGRAM   QMMM
  PROJECT   water3
  IOLEVEL   1
  FFTLIB    FFTSG
  RUN_TYPE  md
&END

&PRINT MEDIUM
&END

&MD
  ensemble:     nve                    ensemble type (nve,nvt,npt_i,npt_f)
  steps:        2                     total number of steps
  timestep:     0.5 fs                 time step [fs]
  temperature:  298                    temperature [K]
  restart:      init                   start type (init,pos,posvel)
  print  files        100
  print  screen       1
&END


&TOPOLOGY
 FORCEFIELD ON
&END

&EWALD
 units angstrom
 ewald_type spme
 ewald_param .44 64 6
&END

&FORCE_FIELD
 charges
   O  -0.8080
   H   0.4040
 end
 bonds
  harmonic O H 0. 1.8
 end
 bends
  harmonic H O H 0. 1.8
 end
 nonbonded
  LENNARD-JONES O O 78.198 3.166 11.4
  LENNARD-JONES O H 0.0 3.6705 11.4
  LENNARD-JONES H H 0.0 3.30523 11.4
 end
&END

&CELL
 UNIT         ANGSTROM
 ABC          24.955 24.955 24.955
&END

&COORD
 O     0.000000     0.000000     0.000000   H2O1
 H     0.000000     0.000000     0.950000   H2O1
 H     0.895669     0.000000    -0.316667   H2O1
 O    -2.987344     0.000000    -0.275275   H2O2
 H    -3.160937     0.000000     0.658730   H2O2
 H    -3.810068     0.000000    -0.750275   H2O2
 O    -1.255276     0.000000    -2.724753   H2O3
 H    -1.977352     0.000000    -3.342092   H2O3
 H    -0.432552     0.000000    -3.199753   H2O3
&END

&IO
 BASIS_SET_FILE GTH_BASIS_SETS
 POTENTIAL_FILE POTENTIAL
&END

&DFT
 FUNCTIONAL  pade
&END

&QS
 CUTOFF       50
 COMMENSURATE
&END

&SCF
 GUESS        atomic
&END

&KIND H
 BASIS_SET    SZV-GTH
 POTENTIAL    GTH-PADE-q1
&END

&KIND O
 BASIS_SET    SZV-GTH
 POTENTIAL    GTH-PADE-q6
&END

&FORCE_EVAL
        &QMMM
         NOCOMPATIBILITY
         &INTERPOLATOR
	   EPS_R 1.0e-14
	   EPS_X 1.0e-14
           MAXITER 100
	 &END INTERPOLATOR
         ECOUPL GAUSS
         ABC_QM  6.0 6.0 6.0
         #
         # QM_KINDS
         #
         &QM_KIND H
          mm_index 2 3
         &END QM_KIND
         &QM_KIND O
          mm_index 1
         &END QM_KIND
         #
         # MM_KINDS
         #
         &MM_KIND H
          radius 0.44
         &END MM_KIND
         &MM_KIND O
          radius 0.78
         &END MM_KIND
         #
        &END QMMM
&END FORCE_EVAL
