&GLOBAL
  PROJECT ch2o
  RUN_TYPE energy
  PRINT_LEVEL low
&END GLOBAL

&FORCE_EVAL
  METHOD Quickstep

  &DFT
    BASIS_SET_FILE_NAME GTH_BASIS_SETS

    &MGRID
      CUTOFF 100
    &END MGRID

    &QS
      METHOD GAPW
    &END QS

    &SCF
      MAX_SCF   1
      EPS_SCF   1e-7
      SCF_GUESS atomic
    &END SCF

    &XC
      &XC_FUNCTIONAL PADE
      &END XC_FUNCTIONAL
    &END XC
  &END DFT

  &SUBSYS
    &CELL
      ABC 8.0 8.0 8.0
    &END CELL

    &COORD
  O         0.9588431900        1.1234806613        1.8643358699
  C         1.0045827842        1.0372747429        0.6713062328
  H         1.0304990091        1.9328340670        0.0202209074
  H         1.0234151411        0.0574091066        0.1554705073
    &END COORD

    &KIND O
      BASIS_SET aug-TZV2P-GTH
      POTENTIAL_FILE_NAME GTH_POTENTIALS
      POTENTIAL GTH-PBE-q6
    &END KIND
    &KIND C
      BASIS_SET aug-TZV2P-GTH
      POTENTIAL_FILE_NAME POTENTIAL
      POTENTIAL GTH-PBE-q4
    &END KIND
    &KIND H
      BASIS_SET aug-TZV2P-GTH
      POTENTIAL_TYPE GTH
      &POTENTIAL
        1
     0.20000000    2    -4.17890044     0.72446331
    0
      &END POTENTIAL
    &END KIND
  &END SUBSYS
&END FORCE_EVAL
