&GLOBAL
  PRINT_LEVEL LOW
  PROJECT ethylene_l1_loc
  RUN_TYPE ENERGY
&END GLOBAL

&FORCE_EVAL
  METHOD Quickstep
  &DFT
    BASIS_SET_FILE_NAME GTH_BASIS_SETS
    POTENTIAL_FILE_NAME GTH_POTENTIALS
    &LOCALIZE
      EPS_LOCALIZATION 1.0E-10
      METHOD L1SD
      &PRINT
        &WANNIER_CENTERS
        &END WANNIER_CENTERS
      &END PRINT
    &END LOCALIZE
    &MGRID
      CUTOFF 200
    &END MGRID
    &PRINT
    &END PRINT
    &QS
    &END QS
    &SCF
      IGNORE_CONVERGENCE_FAILURE
      MAX_SCF 3
      SCF_GUESS ATOMIC
    &END SCF
    &XC
      &XC_FUNCTIONAL BLYP
      &END XC_FUNCTIONAL
    &END XC
  &END DFT
  &SUBSYS
    &CELL
      ABC 8.00 8.00 8.00
    &END CELL
    &COORD
      C     0.000000    0.000000    0.665040
      C     0.000000    0.000000   -0.665040
      H     0.000000    0.923262    1.237825
      H     0.000000    0.923262   -1.237825
      H     0.000000   -0.923262   -1.237825
      H     0.000000   -0.923262    1.237825
    &END COORD
    &KIND H
      BASIS_SET DZVP-GTH
      POTENTIAL GTH-PADE-q1
    &END KIND
    &KIND C
      BASIS_SET DZVP-GTH
      POTENTIAL GTH-PADE-q4
    &END KIND
  &END SUBSYS
&END FORCE_EVAL
