&FORCE_EVAL
  METHOD Quickstep
  &DFT
    BASIS_SET_FILE_NAME ../../../data/GTH_BASIS_SETS
    POTENTIAL_FILE_NAME ../../../data/GTH_POTENTIALS
    &MGRID
      CUTOFF 200
    &END MGRID
    &QS
    &END QS
    &SCF
      SCF_GUESS ATOMIC
      MAX_SCF 3
    &END SCF
    &XC
      &XC_FUNCTIONAL BLYP
      &END XC_FUNCTIONAL
    &END XC
    &LOCALIZE
      METHOD L1SD
      EPS_LOCALIZATION 1.0E-10
      &PRINT
        &WANNIER_CENTERS
        &END
      &END
    &END
    &PRINT
    &END PRINT
  &END DFT
  &SUBSYS
    &CELL
      ABC 8.00 8.00 8.00
    &END CELL
    &COORD
 C     0.000000    0.000000    0.665040
 C     0.000000    0.000000   -0.665040
 H     0.000000    0.923262    1.237825
 H     0.000000    0.923262   -1.237825
 H     0.000000   -0.923262   -1.237825
 H     0.000000   -0.923262    1.237825
    &END COORD
    &KIND H
      BASIS_SET DZVP-GTH
      POTENTIAL GTH-PADE-q1
    &END KIND
    &KIND C
      BASIS_SET DZVP-GTH
      POTENTIAL GTH-PADE-q4
    &END KIND
  &END SUBSYS
&END FORCE_EVAL
&GLOBAL
  PROJECT ethylene_l1_loc
  RUN_TYPE ENERGY
  PRINT_LEVEL LOW
&END GLOBAL
