&GLOBAL
  PRINT_LEVEL LOW
  PROJECT_NAME H2_NATIVE_SKALA_GAPW_AE_KP_INV_STRESS
  RUN_TYPE ENERGY_FORCE
&END GLOBAL

&FORCE_EVAL
  METHOD Quickstep
  STRESS_TENSOR ANALYTICAL
  &DFT
    BASIS_SET_FILE_NAME BASIS_SET
    MULTIPLICITY 1
    POTENTIAL_FILE_NAME POTENTIAL
    UKS FALSE
    &KPOINTS
      EPS_SYMMETRY 1.0E-8
      FULL_GRID OFF
      INVERSION_SYMMETRY_ONLY T
      SCHEME MONKHORST-PACK 2 2 2
      SYMMETRY ON
    &END KPOINTS
    &MGRID
      CUTOFF 80
      REL_CUTOFF 20
    &END MGRID
    &POISSON
      PERIODIC XYZ
    &END POISSON
    &QS
      EPS_DEFAULT 1.0E-8
      EXTRAPOLATION USE_PREV_WF
      METHOD GAPW
    &END QS
    &SCF
      ADDED_MOS 4
      EPS_SCF 1.0E-5
      IGNORE_CONVERGENCE_FAILURE T
      MAX_SCF 1
      SCF_GUESS ATOMIC
      &DIAGONALIZATION
      &END DIAGONALIZATION
    &END SCF
    &XC
      &XC_FUNCTIONAL
        &GAUXC
          MODEL SKALA
          NATIVE_GRID T
          NATIVE_GRID_DIAGNOSTICS F
          NATIVE_GRID_USE_CUDA T
        &END GAUXC
      &END XC_FUNCTIONAL
    &END XC
  &END DFT
  &PRINT
    &FORCES ON
    &END FORCES
    &STRESS_TENSOR
      COMPONENTS
    &END STRESS_TENSOR
  &END PRINT
  &SUBSYS
    &CELL
      ABC 10.0 10.0 10.0
      PERIODIC XYZ
    &END CELL
    &COORD
      H 5.0 5.0 4.6
      H 5.0 5.0 5.4
    &END COORD
    &KIND H
      BASIS_SET DZV-ALL-PADE
      POTENTIAL ALL
    &END KIND
  &END SUBSYS
&END FORCE_EVAL
