&GLOBAL
  PRINT_LEVEL MEDIUM
  PROJECT CH3_GPW
  RUN_TYPE ENERGY
  &TIMINGS
    THRESHOLD 0.01
  &END TIMINGS
&END GLOBAL

&FORCE_EVAL
  METHOD Quickstep
  &DFT
    BASIS_SET_FILE_NAME HFX_BASIS
    MULTIPLICITY 2
    POTENTIAL_FILE_NAME POTENTIAL
    UKS
    &MGRID
      CUTOFF 200
      REL_CUTOFF 25
    &END MGRID
    &POISSON
      PERIODIC NONE
      POISSON_SOLVER WAVELET
    &END POISSON
    &QS
      EPS_DEFAULT 1.0E-10
      EPS_PGF_ORB 1.0E-20
      METHOD GPW
    &END QS
    &SCF
      EPS_SCF 1.0E-6
      MAX_SCF 100
      SCF_GUESS RESTART
    &END SCF
    &XC
      &HF
        FRACTION 1.0000000
        &SCREENING
          EPS_SCHWARZ 1.0E-6
        &END SCREENING
      &END HF
      &WF_CORRELATION
        MEMORY 1000.
        NUMBER_PROC 1
        &INTEGRALS
          &WFC_GPW
            CUTOFF 100
            REL_CUTOFF 20
          &END WFC_GPW
        &END INTEGRALS
        &MP2
          METHOD MP2_GPW
        &END MP2
      &END WF_CORRELATION
      &XC_FUNCTIONAL NONE
      &END XC_FUNCTIONAL
    &END XC
  &END DFT
  &SUBSYS
    &CELL
      ABC [angstrom] 7.0000 7.0000 7.0000
      PERIODIC NONE
    &END CELL
    &KIND H
      BASIS_SET DZVP-GTH
      POTENTIAL GTH-HF-q1
    &END KIND
    &KIND C
      BASIS_SET DZVP-GTH
      POTENTIAL GTH-HF-q4
    &END KIND
    &TOPOLOGY
      COORD_FILE_FORMAT xyz
      COORD_FILE_NAME CH3.xyz
      &CENTER_COORDINATES
      &END CENTER_COORDINATES
    &END TOPOLOGY
  &END SUBSYS
&END FORCE_EVAL
