&GLOBAL
  PRINT_LEVEL LOW
  PROJECT CH2O_kp
  RUN_TYPE DEBUG
&END GLOBAL

&DEBUG
  DEBUG_FORCES F
  DEBUG_STRESS_TENSOR T
  DX 0.0001
  EPS_NO_ERROR_CHECK 0.000001
  STOP_ON_MISMATCH T
&END DEBUG

&FORCE_EVAL
  STRESS_TENSOR ANALYTICAL
  &DFT
    CHARGE 0
    LSD
    MULTIPLICITY 3
    &KPOINTS
      FULL_GRID ON
      PARALLEL_GROUP_SIZE 0
      SCHEME MONKHORST-PACK 2 2 2
      SYMMETRY ON
    &END KPOINTS
    &QS
      METHOD xTB
      &XTB
        CHECK_ATOMIC_CHARGES F
        SPIN_POLARISATION T
      &END XTB
    &END QS
    &SCF
      EPS_SCF 1.e-6
      MAX_SCF 100
      SCF_GUESS MOPAC
      &MIXING
        ALPHA 0.40
      &END MIXING
    &END SCF
  &END DFT
  &SUBSYS
    &CELL
      ABC 4.0 4.0 4.0
    &END CELL
    &COORD
      O     0.051368    0.000000    0.000000
      C     1.278612    0.000000    0.000000
      H     1.870460    0.939607    0.000000
      H     1.870460   -0.939607    0.000000
    &END COORD
  &END SUBSYS
&END FORCE_EVAL
