&GLOBAL
  PRINT_LEVEL LOW
  PROJECT CH2O
  RUN_TYPE DEBUG
&END GLOBAL

&DEBUG
  DEBUG_FORCES T
  DEBUG_STRESS_TENSOR F
  CHECK_ATOM_FORCE 1 XY
  DX 0.0001
  EPS_NO_ERROR_CHECK 0.000001
  STOP_ON_MISMATCH T
&END DEBUG

&FORCE_EVAL
  &PRINT
     &FORCES
     &END FORCES
  &END 
  &DFT
    LSD
    CHARGE 0
    MULTIPLICITY 3
    &QS
      METHOD xTB
      &XTB
        SPIN_POLARISATION T
        CHECK_ATOMIC_CHARGES F
      &END XTB
    &END QS
    &SCF
      EPS_SCF 1.e-6
      MAX_SCF 100
      SCF_GUESS MOPAC
    &END SCF
  &END DFT
  &SUBSYS
    &CELL
      ABC 5.0 5.0 5.0
    &END CELL
    &COORD
      O     0.051368    0.000000    0.000000
      C     1.278612    0.000000    0.000000
      H     1.870460    0.939607    0.000000
      H     1.870460   -0.939607    0.000000
    &END COORD
  &END SUBSYS
&END FORCE_EVAL
