#High-throughput screening of spin states for transition metal
#complexes with spin-polarized extended tight-binding methods
#Hagen Neugebauer, Benedikt Baedorf, Sebastian Ehlert, Andreas Hansen, Stefan Grimme
#J Comput Chem. 44:2120-2129 (2023)
#
# Quintet energy for Fecp2 at B97-3c geometry
# Parameter set from supplemental material (sign change!)
#
#                 Mult.     Total energy            diff                paper
#gfn1-xTB(CP2K)    1        -29.479086484463970
#gfn1-xTB(CP2K)    5        -29.375432443451395     0.10365404101       0.1041
#SPgfn1-xTB(CP2K)  5        -29.458057420324380     0.02102906413       0.0215
#
&GLOBAL
  PRINT_LEVEL LOW
  PROJECT fcp
  RUN_TYPE ENERGY
&END GLOBAL

&FORCE_EVAL
  &DFT
    LSD
    MULTIPLICITY 5
    &QS
      METHOD xTB
      &XTB
        CHECK_ATOMIC_CHARGES F
        GFN_TYPE 1
        SPIN_POLARISATION T
        &PARAMETER
          ## SPIN_POL_PARAM atomtype Wss Wsp Wpp Wsd Wpd Wdd
          SPIN_POL_PARAM Fe -0.015400 -0.011925 -0.017850 -0.003300 -0.001162 -0.017125
          SPIN_POL_PARAM C -0.030200 -0.025025 -0.022725 -0.000000 -0.000000 -0.000000
          SPIN_POL_PARAM H -0.071550 -0.000000 -0.000000 -0.000000 -0.000000 -0.000000
        &END PARAMETER
      &END XTB
    &END QS
    &SCF
      ADDED_MOS -1 -1
      EPS_SCF 1.e-7
      MAX_SCF 500
      SCF_GUESS MOPAC
      &MIXING
        ALPHA 0.10
      &END MIXING
      &SMEAR ON
        ELECTRONIC_TEMPERATURE 300
        FIXED_MAGNETIC_MOMENT -1
        METHOD Fermi_Dirac
      &END SMEAR
    &END SCF
  &END DFT
  &SUBSYS
    &CELL
      ABC 50.0 50.0 50.0
      PERIODIC NONE
    &END CELL
    &COORD
      Fe 0.00046667507209 0.00007145221698 0.00020650908794
      C -0.29638297378219 1.13792952402792 1.91281475677087
      C -1.1353711727193 -0.01307211356389 1.85694327787714
      C -0.29624869915853 -1.15966026966281 1.94842805058997
      C 1.04087385079726 -0.71562387526317 2.07580896633105
      C 1.04244423611723 0.6947942723046 2.05171179195287
      H -0.62650212350503 2.16327072796029 1.88603396689195
      H -2.2117227394285 -0.01415674206402 1.80863041734873
      H -0.62579911475609 -2.18554059534209 1.93720363428829
      H 1.91216002120559 -1.34806313942887 2.1283304806085
      H 1.91409262335761 1.32757762270685 2.09081210664184
      C -1.03941112021214 0.71741195345069 -2.07528737626978
      C 0.29799620713813 1.16052094578281 -1.94784180534153
      C -1.0419290803645 -0.69301008093721 -2.05138407383301
      H -1.91027753858542 1.35044071196014 -2.12766496611585
      C 1.13635987921557 0.01338364594266 -1.85654165280359
      H 0.62822033535291 2.18618156712011 -1.93633378033781
      C 0.29662013454123 -1.13707637009906 -1.9126008359967
      H -1.91399740141563 -1.32520603287501 -2.09062682589173
      H 2.21271190076452 0.01375882553937 -1.80822349672861
      H 0.62606980036518 -2.16264062977632 -1.88611834507055
    &END COORD
  &END SUBSYS
&END FORCE_EVAL
