&FORCE_EVAL
  METHOD FIST
  STRESS_TENSOR ANALYTICAL
  &MM
    &FORCEFIELD
      &CHARGE
        ATOM Ar
        CHARGE 0.0
      &END
      &NONBONDED
        &LENNARD-JONES
          atoms Ar Ar
          EPSILON 119.8
          SIGMA [angstrom] 3.4
          RCUT [angstrom] 12.0
        &END LENNARD-JONES
      &END NONBONDED
    &END FORCEFIELD
    &POISSON
      &EWALD
        EWALD_TYPE none
      &END EWALD
    &END POISSON
  &END MM
  &SUBSYS
     &CELL
       A     9.6310875301855674E+00    0.0000000000000000E+00    0.0000000000000000E+00
       B     0.0000000000000000E+00    9.6310875301855674E+00    0.0000000000000000E+00
       C     0.0000000000000000E+00    0.0000000000000000E+00    9.6310875301855674E+00
     &END CELL
     &COORD
Ar   -2.9801516326320010E-01   -1.3601907871663195E+00    5.5171130487752702E+00
Ar    3.4149510515239569E+00    1.0652576364029100E+00    5.5460851143546490E+00
Ar   -4.8038262016805466E-01    4.9219660245739698E+00    5.4531759530226092E+00
Ar    4.3899163615664634E+00    6.3696825498493626E+00    4.7705625410379264E+00
Ar   -5.2621394328845272E-01    1.1638196685656448E+00   -5.1719754234841919E-01
Ar    3.9341474087017749E+00   -1.1516822001738987E+00   -3.0662688763800350E-01
Ar    1.4455908175038696E+00    4.1262301758627968E+00   -4.7434313907940118E-01
Ar    7.3821811477948271E+00    4.1270919924567533E+00   -7.2659402775337623E-01
     &END COORD
    &TOPOLOGY
    &END TOPOLOGY
  &END SUBSYS
&END FORCE_EVAL
&GLOBAL
  PROJECT  REF
  RUN_TYPE MD
  IOLEVEL SILENT
&END GLOBAL
&MOTION
  &MD
     ENSEMBLE NPT_I
     TIMESTEP 2.0
     TEMPERATURE 300
     STEPS 100
     &BAROSTAT
     &END
     &THERMOSTAT
      &NOSE
        LENGTH 3
        YOSHIDA 3
        TIMECON 100
        MTS 2
      &END NOSE
     &END
  &END
  &PRINT
    &CELL
      &EACH
        MD 2
      &END
    &END
    &FORCES
      &EACH
        MD 2
      &END
    &END
    &TRAJECTORY
      &EACH
        MD 2
      &END
    &END
  &END
&END MOTION
