&GLOBAL
  PRINT_LEVEL LOW
  PROJECT ice_ix_gfn2_kp_k290_nonsymmorphic
  RUN_TYPE ENERGY
&END GLOBAL

&FORCE_EVAL
  METHOD Quickstep
  &DFT
    &KPOINTS
      FULL_GRID F
      SCHEME MACDONALD 3 3 3 0.0 0.0 0.0
      SYMMETRY T
      SYMMETRY_BACKEND K290
      SYMMETRY_REDUCTION_METHOD K290
      VERBOSE T
    &END KPOINTS
    &QS
      EPS_DEFAULT 1.0E-12
      METHOD xTB
      &XTB
        GFN_TYPE TBLITE
        &TBLITE
          ACCURACY 0.1
          METHOD GFN2
        &END TBLITE
      &END XTB
    &END QS
    &SCF
      EPS_SCF 1.0E-9
      MAX_SCF 300
      SCF_GUESS MOPAC
      &MIXING
        ALPHA 0.2
        METHOD DIRECT_P_MIXING
      &END MIXING
      &PRINT
        &RESTART OFF
        &END RESTART
      &END PRINT
    &END SCF
  &END DFT
  &SUBSYS
    &CELL
      A 6.784903000000 0.000000000000 0.000000000000
      B 0.000000000000 6.784903000000 0.000000000000
      C 0.000000000000 0.000000000000 6.807916000000
      PERIODIC XYZ
    &END CELL
    &COORD
      SCALED
      H  -0.006830000000  0.340009000000  0.190161000000
      H   0.113981000000  0.164412000000  0.283330000000
      H   0.309270000000  0.370346000000  0.106284000000
      H   0.159991000000  0.493170000000  0.440161000000
      H   0.335588000000  0.613981000000  0.533330000000
      H   0.129654000000  0.809270000000  0.356284000000
      H   0.840009000000  0.506830000000 -0.059839000000
      H   0.664412000000  0.386019000000  0.033330000000
      H   0.870346000000  0.190730000000  0.856284000000
      H   0.506830000000  0.840009000000  1.059839000000
      H   0.386019000000  0.664412000000  0.966670000000
      H   0.190730000000  0.870346000000  0.143716000000
      H   0.493170000000  0.159991000000  0.559839000000
      H   0.613981000000  0.335588000000  0.466670000000
      H   0.809270000000  0.129654000000  0.643716000000
      H   0.370346000000  0.309270000000 -0.106284000000
      H   0.659991000000  1.006830000000  0.309839000000
      H   0.835588000000  0.886019000000  0.216670000000
      H   0.629654000000  0.690730000000  0.393716000000
      H   1.006830000000  0.659991000000  0.690161000000
      H   0.886019000000  0.835588000000  0.783330000000
      H   0.690730000000  0.629654000000  0.606284000000
      H   0.340009000000 -0.006830000000  0.809839000000
      H   0.164412000000  0.113981000000  0.716670000000
      O   0.114088000000  0.310030000000  0.267366000000
      O   0.189970000000  0.614088000000  0.517366000000
      O   0.810030000000  0.385912000000  0.017365000000
      O   0.385912000000  0.810030000000  0.982634000000
      O   0.614088000000  0.189970000000  0.482634000000
      O   0.689970000000  0.885912000000  0.232634000000
      O   0.885912000000  0.689970000000  0.767366000000
      O   0.310030000000  0.114088000000  0.732634000000
      O   0.404256000000  0.404256000000  0.000000000000
      O   0.095744000000  0.904256000000  0.250000000000
      O   0.904256000000  0.095744000000  0.750000000000
      O   0.595744000000  0.595744000000  0.500000000000
    &END COORD
  &END SUBSYS
&END FORCE_EVAL
