&GLOBAL
  PRINT_LEVEL LOW
  PROJECT ice_viii_gfn2_kp_spglib_nonsymmorphic
  RUN_TYPE ENERGY
&END GLOBAL

&FORCE_EVAL
  METHOD Quickstep
  &DFT
    &KPOINTS
      FULL_GRID F
      SCHEME MACDONALD 3 3 3 0.0 0.0 0.0
      SYMMETRY T
      SYMMETRY_BACKEND SPGLIB
      SYMMETRY_REDUCTION_METHOD SPGLIB
      VERBOSE T
    &END KPOINTS
    &QS
      EPS_DEFAULT 1.0E-12
      METHOD xTB
      &XTB
        GFN_TYPE TBLITE
        &TBLITE
          ACCURACY 0.1
          METHOD GFN2
        &END TBLITE
      &END XTB
    &END QS
    &SCF
      EPS_SCF 1.0E-9
      MAX_SCF 300
      SCF_GUESS MOPAC
      &MIXING
        ALPHA 0.2
        METHOD DIRECT_P_MIXING
      &END MIXING
      &PRINT
        &RESTART OFF
        &END RESTART
      &END PRINT
    &END SCF
  &END DFT
  &SUBSYS
    &CELL
      A 4.849465370000 0.000000000000 0.000000000000
      B 0.000000000000 4.849465370000 0.000000000000
      C 0.000000000000 0.000000000000 7.056513790000
      PERIODIC XYZ
    &END CELL
    &COORD
      H   6.781516750000  7.563033500000  6.966619500000
      H   9.206249250000  9.987766000000  10.494876500000
      H   6.000000000000  9.206249250000  8.730748000000
      H   9.987766000000  6.781516750000  12.259005000000
      H   9.206249250000  7.563033500000  7.764128500000
      H   9.206249250000  6.000000000000  7.764128500000
      H   9.987766000000  9.206249250000  6.000000000000
      H   6.000000000000  6.781516750000  9.528257000000
      H   8.424732500000  9.206249250000  6.000000000000
      H   8.424732500000  6.781516750000  12.259005000000
      H   6.781516750000  6.000000000000  6.966619500000
      H   7.563033500000  9.206249250000  8.730748000000
      H   7.563033500000  6.781516750000  9.528257000000
      H   9.206249250000  8.424732500000  10.494876500000
      H   6.781516750000  9.987766000000  11.292385500000
      H   6.781516750000  8.424732500000  11.292385500000
      O   6.781516750000  6.781516750000  6.368001500000
      O   6.781516750000  9.206249250000  8.132130000000
      O   9.206249250000  6.781516750000  11.660387000000
      O   9.206249250000  6.781516750000  8.362746500000
      O   9.206249250000  9.206249250000  6.598618000000
      O   6.781516750000  6.781516750000  10.126875000000
      O   9.206249250000  9.206249250000  9.896258500000
      O   6.781516750000  9.206249250000  11.891003500000
    &END COORD
  &END SUBSYS
&END FORCE_EVAL
