&GLOBAL
  PRINT_LEVEL LOW
  PROJECT_NAME "urea_gfn1_kp_spglib_boundary"
  RUN_TYPE ENERGY
&END GLOBAL

&FORCE_EVAL
  METHOD QS
  STRESS_TENSOR ANALYTICAL
  &DFT
    &KPOINTS
      EPS_SYMMETRY 1.0E-8
      FULL_GRID F
      SCHEME MACDONALD 2 2 2 0.25 0.25 0.25
      SYMMETRY T
      SYMMETRY_BACKEND SPGLIB
      SYMMETRY_REDUCTION_METHOD SPGLIB
      VERBOSE T
    &END KPOINTS
    &QS
      EPS_DEFAULT 9.9999999999999998E-013
      METHOD XTB
      &XTB
        GFN_TYPE TBLITE
        &TBLITE T
          ACCURACY 1.0000000000000001E-001
          METHOD GFN1
        &END TBLITE
      &END XTB
    &END QS
    &SCF
      EPS_SCF 1.0000000000000001E-009
      MAX_SCF 300
      SCF_GUESS MOPAC
      &MIXING T
        ALPHA 2.0000000000000001E-001
        METHOD DIRECT_P_MIXING
      &END MIXING
      &PRINT
        &RESTART OFF
        &END RESTART
      &END PRINT
    &END SCF
  &END DFT
  &SUBSYS
    &CELL
      A 5.2159966903739186E+000 0.0000000000000000E+000 0.0000000000000000E+000
      B 0.0000000000000000E+000 5.2159966903737809E+000 0.0000000000000000E+000
      C 0.0000000000000000E+000 0.0000000000000000E+000 4.9491754758942879E+000
      CANONICALIZE TRUE
      MULTIPLE_UNIT_CELL 1 1 1
      PERIODIC XYZ
    &END CELL
    &COORD
      C  9.9999999999999878E-001  4.9999999999999933E-001  3.2101388247716989E-001
      C  5.0000000000000022E-001 -1.0340691003044431E-015  6.7898611723238622E-001
      O  9.9999999999999900E-001  4.9999999999999956E-001  5.7123643787624401E-001
      O  5.0000000000000033E-001  7.9227636698446263E-016  4.2876356225551016E-001
      N  1.5582226440252989E-001  6.5582226440257119E-001  1.7818364409247928E-001
      N  6.5582226442015923E-001  8.4417773557979969E-001  8.2181635603715397E-001
      N  3.4417773557983750E-001  1.5582226442019881E-001  8.2181635603715109E-001
      N  8.4417773559747156E-001  3.4417773559743020E-001  1.7818364409247456E-001
      H  2.7312356664824483E-001  7.7312356664827964E-001  2.8290207445821941E-001
      H  7.7312356665118154E-001  7.2687643334878826E-001  7.1709792553130869E-001
      H  2.2687643334882171E-001  2.7312356665121323E-001  7.1709792553131035E-001
      H  7.2687643335175167E-001  2.2687643335171906E-001  2.8290207445822330E-001
      H  1.5659886877892482E-001  6.5659886877895290E-001  9.7604046944000633E-001
      H  6.5659886878433193E-001  8.4340113121563576E-001  2.3959530520177012E-002
      H  3.4340113121566673E-001  1.5659886878436219E-001  2.3959530520177613E-002
      H  8.4340113122107319E-001  3.4340113122104521E-001  9.7604046944000944E-001
      SCALED T
    &END COORD
    &TOPOLOGY
      MULTIPLE_UNIT_CELL 1 1 1
      NUMBER_OF_ATOMS 16
    &END TOPOLOGY
  &END SUBSYS
&END FORCE_EVAL
