@SET NREP 1
&FORCE_EVAL
  STRESS_TENSOR ANALYTICAL
  &DFT
    &KPOINTS
      EPS_GEO 1.e-8
      FULL_GRID ON
      SCHEME MONKHORST-PACK 2 2 2
      SYMMETRY ON
      VERBOSE F
    &END KPOINTS
    &POISSON
      PERIODIC XYZ
      POISSON_SOLVER PERIODIC
      &EWALD
        ALPHA 0.35
        EWALD_TYPE SPME
        GMAX 25
      &END EWALD
    &END POISSON
    &QS
      EXTRAPOLATION USE_GUESS
      METHOD DFTB
      &DFTB
        DIAGONAL_DFTB3 F
        DISPERSION T
        HB_SR_GAMMA F
        SCC_MIXER CP2K
        SELF_CONSISTENT T
        &PARAMETER
          PARAM_FILE_PATH ./DFTB/scc
          SK_FILE C C cc.spl
          UFF_FORCE_FIELD ../uff_table
        &END PARAMETER
      &END DFTB
    &END QS
    &SCF
      EPS_SCF 1.0e-10
      MAX_SCF 500
      SCF_GUESS ATOMIC
      &MIXING
        ALPHA 0.50
        METHOD BROYDEN_MIXING
        NBUFFER 8
      &END MIXING
      &PRINT
        &RESTART OFF
        &END RESTART
      &END PRINT
    &END SCF
  &END DFT
  &SUBSYS
    &CELL
      ABC 3.56683 3.56683 3.56683
      MULTIPLE_UNIT_CELL ${NREP} ${NREP} ${NREP}
    &END CELL
    &COORD
      SCALED
      C     0.000000    0.000000    0.000000
      C     0.502000    0.502000    0.002000
      C     0.500000    0.000000    0.500000
      C     0.000000    0.500000    0.500000
      C     0.250000    0.250000    0.250000
      C     0.250000    0.750000    0.750000
      C     0.750000    0.250000    0.750000
      C     0.750000    0.750000    0.250000
    &END COORD
    &TOPOLOGY
      MULTIPLE_UNIT_CELL ${NREP} ${NREP} ${NREP}
    &END TOPOLOGY
  &END SUBSYS
&END FORCE_EVAL

&GLOBAL
  PRINT_LEVEL LOW
  PROJECT C
  RUN_TYPE DEBUG
&END GLOBAL

&DEBUG
  DEBUG_FORCES F
  DEBUG_STRESS_TENSOR T
  DX 1.0e-4
  STOP_ON_MISMATCH F
&END DEBUG
