
#CPQA INCLUDE ../../../data/scc/scc_parameter
#CPQA INCLUDE ../uff_table
#CPQA INCLUDE ../../../data/scc/oo.spl
#CPQA INCLUDE ../../../data/scc/oc.spl
#CPQA INCLUDE ../../../data/scc/oh.spl
#CPQA INCLUDE ../../../data/scc/co.spl
#CPQA INCLUDE ../../../data/scc/cc.spl
#CPQA INCLUDE ../../../data/scc/ch.spl
#CPQA INCLUDE ../../../data/scc/ho.spl
#CPQA INCLUDE ../../../data/scc/hc.spl
#CPQA INCLUDE ../../../data/scc/hh.spl
&FORCE_EVAL
  &DFT
    &QS
      METHOD DFTB
      &DFTB
        SELF_CONSISTENT    T
        DISPERSION         T
        ORTHOGONAL_BASIS   F   
        DO_EWALD           F
        &PARAMETER
          PARAM_FILE_PATH  ../../../data/scc
          PARAM_FILE_NAME  scc_parameter
          UFF_FORCE_FIELD  ../uff_table
        &END PARAMETER
      &END DFTB
    &END QS
    &SCF
      SCF_GUESS ATOMIC
      MAX_SCF  20
      &OT ON
        PRECONDITIONER NONE
      &END OT
    &END SCF
  &END DFT
  &SUBSYS
    &CELL
      ABC 20.0 20.0 20.0
      PERIODIC NONE
    &END CELL
    &COORD
     O     0.051368    0.000000    0.000000     
     C     1.278612    0.000000    0.000000    
     H     1.870460    0.939607    0.000000   
     H     1.870460   -0.939607    0.000000  
    &END COORD
  &END SUBSYS
&END FORCE_EVAL
&GLOBAL
  PROJECT CH2O-5
  RUN_TYPE GEO_OPT
  PRINT_LEVEL LOW
&END GLOBAL
