&GLOBAL
  PRINT_LEVEL LOW
  PROJECT CH2O_dftb_uks_force
  RUN_TYPE DEBUG
&END GLOBAL

&DEBUG
  DEBUG_FORCES T
  DEBUG_STRESS_TENSOR F
  DX 1.0e-4
  EPS_NO_ERROR_CHECK 1.0e-5
  STOP_ON_MISMATCH F
&END DEBUG

#CPQA INCLUDE DFTB/scc/scc_parameter
#CPQA INCLUDE ../uff_table
#CPQA INCLUDE DFTB/scc/oo.spl
#CPQA INCLUDE DFTB/scc/oc.spl
#CPQA INCLUDE DFTB/scc/oh.spl
#CPQA INCLUDE DFTB/scc/co.spl
#CPQA INCLUDE DFTB/scc/cc.spl
#CPQA INCLUDE DFTB/scc/ch.spl
#CPQA INCLUDE DFTB/scc/ho.spl
#CPQA INCLUDE DFTB/scc/hc.spl
#CPQA INCLUDE DFTB/scc/hh.spl
&FORCE_EVAL
  &DFT
    CHARGE 1
    LSD
    MULTIPLICITY 2
    &QS
      METHOD DFTB
      &DFTB
        DISPERSION T
        DO_EWALD F
        ORTHOGONAL_BASIS F
        SELF_CONSISTENT T
        &PARAMETER
          PARAM_FILE_NAME scc_parameter
          PARAM_FILE_PATH DFTB/scc
          UFF_FORCE_FIELD ../uff_table
        &END PARAMETER
      &END DFTB
    &END QS
    &SCF
      EPS_SCF 1.0e-9
      MAX_SCF 1000
      SCF_GUESS ATOMIC
      &MIXING
        ALPHA 0.05
        METHOD DIRECT_P_MIXING
      &END MIXING
      &PRINT
        &RESTART OFF
        &END RESTART
      &END PRINT
    &END SCF
  &END DFT
  &SUBSYS
    &CELL
      ABC 20.0 20.0 20.0
      PERIODIC NONE
    &END CELL
    &COORD
      O     0.051368    0.000000    0.000000
      C     1.278612    0.000000    0.000000
      H     1.870460    0.939607    0.000000
      H     1.870460   -0.939607    0.000000
    &END COORD
  &END SUBSYS
&END FORCE_EVAL
