#CPQA DEPENDS ch2o.inp
#CPQA INCLUDE DFTB/scc/scc_parameter
#CPQA INCLUDE ../uff_table
#CPQA INCLUDE DFTB/scc/oo.spl
#CPQA INCLUDE DFTB/scc/oc.spl
#CPQA INCLUDE DFTB/scc/oh.spl
#CPQA INCLUDE DFTB/scc/co.spl
#CPQA INCLUDE DFTB/scc/cc.spl
#CPQA INCLUDE DFTB/scc/ch.spl
#CPQA INCLUDE DFTB/scc/ho.spl
#CPQA INCLUDE DFTB/scc/hc.spl
#CPQA INCLUDE DFTB/scc/hh.spl

&FORCE_EVAL
  &DFT
    RESTART_FILE_NAME CH2O-5-RESTART.wfn
    &QS
      METHOD DFTB
      &DFTB
        SELF_CONSISTENT    T
        DISPERSION         T
        ORTHOGONAL_BASIS   F   
        DO_EWALD           F
        &PARAMETER
          PARAM_FILE_PATH  DFTB/scc
          PARAM_FILE_NAME  scc_parameter
          UFF_FORCE_FIELD  ../uff_table
        &END PARAMETER
      &END DFTB
    &END QS
    &SCF
      SCF_GUESS RESTART
      MAX_SCF  20
    &END SCF
  &END DFT
  &SUBSYS
    &CELL
      ABC 20.0 20.0 20.0
      PERIODIC NONE
    &END CELL
    &COORD
     O     0.051368    0.000000    0.000000     
     C     1.278612    0.000000    0.000000    
     H     1.870460    0.939607    0.000000   
     H     1.870460   -0.939607    0.000000  
    &END COORD
  &END SUBSYS
&END FORCE_EVAL
&GLOBAL
  PROJECT CH2O
  RUN_TYPE ENERGY
  PRINT_LEVEL LOW

&END GLOBAL
