#CPQA INCLUDE ../scc/scc_parameter
#CPQA INCLUDE ../uff_table
#CPQA INCLUDE ../scc/oo.spl
#CPQA INCLUDE ../scc/oc.spl
#CPQA INCLUDE ../scc/oh.spl
#CPQA INCLUDE ../scc/co.spl
#CPQA INCLUDE ../scc/cc.spl
#CPQA INCLUDE ../scc/ch.spl
#CPQA INCLUDE ../scc/ho.spl
#CPQA INCLUDE ../scc/hc.spl
#CPQA INCLUDE ../scc/hh.spl
&FORCE_EVAL
  &DFT
    &QS
      METHOD DFTB
      &DFTB
        SELF_CONSISTENT    T
        &PARAMETER
          PARAM_FILE_PATH  ../scc
          PARAM_FILE_NAME  scc_parameter
          UFF_FORCE_FIELD  ../uff_table
        &END PARAMETER
      &END DFTB
    &END QS
    &SCF
      SCF_GUESS ATOMIC
      MAX_SCF  5
      &OT ON
        MINIMIZER DIIS 
        PRECONDITIONER SPARSE_DIAG
      &END OT
    &END SCF
  &END DFT
  &SUBSYS
    &CELL
      ABC 20.0 20.0 20.0
      PERIODIC NONE
    &END CELL
    &COORD
     O     0.051368    0.000000    0.000000     
     C     1.278612    0.000000    0.000000    
     H     1.870460    0.939607    0.000000   
     H     1.870460   -0.939607    0.000000  
    &END COORD
  &END SUBSYS
&END FORCE_EVAL
&GLOBAL
  PROJECT ch2o-ot5
  RUN_TYPE ENERGY
  PRINT_LEVEL LOW
&END GLOBAL
