&GLOBAL
  PRINT_LEVEL HIGH
  PROJECT co
  RUN_TYPE ENERGY_FORCE
&END GLOBAL

#CPQA INCLUDE DFTB/scc/scc_parameter
#CPQA INCLUDE ../uff_table
#CPQA INCLUDE DFTB/scc/oo.spl
#CPQA INCLUDE DFTB/scc/oc.spl
#CPQA INCLUDE DFTB/scc/co.spl
#CPQA INCLUDE DFTB/scc/cc.spl
&FORCE_EVAL
  &DFT
    &QS
      METHOD DFTB
      &DFTB
        DO_EWALD F
        ORTHOGONAL_BASIS F
        SELF_CONSISTENT T
        &PARAMETER
          PARAM_FILE_PATH DFTB/scc
          SK_FILE C C cc.spl
          SK_FILE C O co.spl
          SK_FILE O C oc.spl
          SK_FILE O O oo.spl
        &END PARAMETER
      &END DFTB
    &END QS
    &SCF
      SCF_GUESS CORE
      &MIXING
        ALPHA 1.
        METHOD DIRECT_P_MIXING
      &END MIXING
    &END SCF
  &END DFT
  &SUBSYS
    &CELL
      ABC 20.0 20.0 20.0
      PERIODIC NONE
    &END CELL
    &COORD
      C     0.000000    0.000000    0.000000
      O     1.100000    0.000000    0.000000
    &END COORD
  &END SUBSYS
&END FORCE_EVAL
