&FORCE_EVAL
  &PROPERTIES
     &ATOMIC
        ENERGY
     &END ATOMIC
  &END PROPERTIES
  &DFT
    &QS
      METHOD DFTB
      &DFTB
        SELF_CONSISTENT    T
        DISPERSION         T
        ORTHOGONAL_BASIS   F   
        DO_EWALD           F
        &PARAMETER
          PARAM_FILE_PATH  ../../../data/DFTB/scc
          PARAM_FILE_NAME  scc_parameter
          UFF_FORCE_FIELD  ../uff_table
        &END PARAMETER
      &END DFTB
    &END QS
    &SCF
      SCF_GUESS CORE
      MAX_SCF  20
    &END SCF
  &END DFT
  &SUBSYS
    &CELL
      ABC 20.0 20.0 20.0
      PERIODIC NONE
    &END CELL
    &COORD
     O     0.051368    0.000000    0.000000     
     C     1.278612    0.000000    0.000000    
     H     1.870460    0.939607    0.000000   
     H     1.870460   -0.939607    0.000000  
    &END COORD
  &END SUBSYS
&END FORCE_EVAL
&GLOBAL
  PROJECT ch2o-1
  RUN_TYPE GEO_OPT
  PRINT_LEVEL LOW
&END GLOBAL
