&FORCE_EVAL
  &DFT
    LSD
    &QS
      METHOD DFTB
      &DFTB
        SELF_CONSISTENT    T
        &PARAMETER
          PARAM_FILE_PATH  ../../../data/scc
          PARAM_FILE_NAME  scc_parameter
          UFF_FORCE_FIELD  ../uff_table
        &END PARAMETER
      &END DFTB
    &END QS
    &SCF
      SCF_GUESS ATOMIC
      MAX_SCF  50
      &OT ON
        PRECONDITIONER NONE
      &END OT
    &END SCF
  &END DFT
  &SUBSYS
    &CELL
      ABC 20.0 20.0 20.0
      PERIODIC NONE
    &END CELL
    &COORD
     O     0.051368    0.000000    0.000000     
     C     1.278612    0.000000    0.000000    
     H     1.870460    0.939607    0.000000   
     H     1.870460   -0.939607    0.000000  
    &END COORD
  &END SUBSYS
&END FORCE_EVAL
&GLOBAL
  PROJECT test-lsd
  RUN_TYPE ENERGY
&END GLOBAL
