&FORCE_EVAL
  METHOD Quickstep
  &DFT
    BASIS_SET_FILE_NAME ../../../data/GTH_BASIS_SETS
    POTENTIAL_FILE_NAME ../../../data/GTH_POTENTIALS
    LSD
    &MGRID
      CUTOFF 200
      REL_CUTOFF 50
    &END MGRID
    &QS
      METHOD GPW
    &END QS
    &SCF
      SCF_GUESS ATOMIC
      &OT on
      &END
      MAX_SCF 15
    &END SCF
    &XC
       &XC_FUNCTIONAL 
         &BECKE_ROUSSEL
           CUTOFF_RADIUS 1.0
         &END
       &END XC_FUNCTIONAL
    &END XC
  &END DFT
  &SUBSYS
    &CELL
       ABC 5.0 5.0 5.0
    &END CELL
    &COORD
     C   0.000000    0.000000    0.1581 
     H   0.000000    0.000000    -0.9487
    &END COORD
    &KIND H
      BASIS_SET SZV-GTH
      POTENTIAL GTH-PADE-q1
    &END KIND
    &KIND C
      BASIS_SET SZV-GTH
      POTENTIAL GTH-PADE-q4
    &END KIND
  &END SUBSYS
&END FORCE_EVAL
&GLOBAL
  PROJECT CH_BeckeRoussel_R_1.0
  RUN_TYPE ENERGY 
  PRINT_LEVEL MEDIUM 
&END GLOBAL
