&GLOBAL
  PRINT_LEVEL MEDIUM
  PROJECT CH_PBE_HOLE_T_C_LR_1.0
  RUN_TYPE ENERGY
&END GLOBAL

&FORCE_EVAL
  METHOD Quickstep
  &DFT
    BASIS_SET_FILE_NAME GTH_BASIS_SETS
    LSD
    POTENTIAL_FILE_NAME GTH_POTENTIALS
    &MGRID
      CUTOFF 200
      REL_CUTOFF 50
    &END MGRID
    &QS
      METHOD GPW
    &END QS
    &SCF
      IGNORE_CONVERGENCE_FAILURE
      MAX_SCF 15
      SCF_GUESS ATOMIC
      &OT on
      &END OT
    &END SCF
    &XC
      &XC_FUNCTIONAL
        &PBE_HOLE_T_C_LR
          CUTOFF_RADIUS 1.0
        &END PBE_HOLE_T_C_LR
      &END XC_FUNCTIONAL
    &END XC
  &END DFT
  &SUBSYS
    &CELL
      ABC 5.0 5.0 5.0
    &END CELL
    &COORD
      C   0.000000    0.000000    0.1581
      H   0.000000    0.000000    -0.9487
    &END COORD
    &KIND H
      BASIS_SET SZV-GTH
      POTENTIAL GTH-PADE-q1
    &END KIND
    &KIND C
      BASIS_SET SZV-GTH
      POTENTIAL GTH-PADE-q4
    &END KIND
  &END SUBSYS
&END FORCE_EVAL
