&GLOBAL                                                                                           
  PROJECT  RI_MP2_CH3
  PRINT_LEVEL MEDIUM
  RUN_TYPE ENERGY
  &TIMINGS
     THRESHOLD 0.01
  &END
&END GLOBAL
&FORCE_EVAL
  METHOD Quickstep
  &DFT
    BASIS_SET_FILE_NAME  ../../../data/HFX_BASIS
    POTENTIAL_FILE_NAME  ../../../data/GTH_POTENTIALS
    &MGRID
      CUTOFF  100
      REL_CUTOFF  20
    &END MGRID
    &POISSON
      PERIODIC NONE
      POISSON_SOLVER WAVELET
    &END POISSON
    &QS
      METHOD GPW
      EPS_DEFAULT 1.0E-15
      EPS_PGF_ORB 1.0E-30
    &END QS
    &SCF
      SCF_GUESS ATOMIC
      EPS_SCF 1.0E-5
      MAX_SCF 100
    &END SCF
    &XC
      &XC_FUNCTIONAL NONE
      &END XC_FUNCTIONAL
      &HF
        FRACTION 1.0000000
        &SCREENING
          EPS_SCHWARZ 1.0E-8
          SCREEN_ON_INITIAL_P FALSE 
        &END SCREENING
      &END HF
      &WF_CORRELATION
        METHOD  RI_MP2_GPW
        &WFC_GPW
          CUTOFF  100
          REL_CUTOFF 20
        &END
        MEMORY  500.0
        NUMBER_PROC  1
        CALC_COND_NUM
      &END
    &END XC
    UKS
    MULTIPLICITY  2
  &END DFT
  &SUBSYS
    &CELL
      ABC [angstrom]  8.000   8.000   8.000
      PERIODIC NONE
    &END CELL
    &KIND H
      BASIS_SET  DZVP-GTH
      RI_AUX_BASIS_SET  RI_DZVP-GTH
      POTENTIAL  GTH-HF-q1
    &END KIND
    &KIND C
      BASIS_SET  DZVP-GTH
      RI_AUX_BASIS_SET  RI_DZVP-GTH
      POTENTIAL  GTH-HF-q4
    &END KIND
    &TOPOLOGY
      COORD_FILE_NAME  CH3.xyz
      COORD_FILE_FORMAT xyz
      &CENTER_COORDINATES
      &END
    &END TOPOLOGY
  &END SUBSYS
&END FORCE_EVAL
