&GLOBAL
  PRINT_LEVEL MEDIUM
  PROJECT RI_MP2_H2O
  RUN_TYPE ENERGY
  &TIMINGS
    THRESHOLD 0.01
  &END TIMINGS
&END GLOBAL

&FORCE_EVAL
  METHOD Quickstep
  &DFT
    BASIS_SET_FILE_NAME HFX_BASIS
    POTENTIAL_FILE_NAME POTENTIAL
    &MGRID
      CUTOFF 100
      REL_CUTOFF 20
    &END MGRID
    &QS
      EPS_DEFAULT 1.0E-15
      EPS_PGF_ORB 1.0E-30
      METHOD GPW
    &END QS
    &SCF
      EPS_SCF 1.0E-7
      MAX_SCF 100
      SCF_GUESS RESTART
      ! ADDED_MOS 15000 15000
    &END SCF
    &XC
      &HF
        FRACTION 1.0000000
        &SCREENING
          EPS_SCHWARZ 1.0E-8
          SCREEN_ON_INITIAL_P FALSE
        &END SCREENING
      &END HF
      &WF_CORRELATION
        GROUP_SIZE 1
        MEMORY 200.
        &INTEGRALS
          ERI_METHOD MME
          &WFC_GPW
            CUTOFF 300
            PRINT_LEVEL MEDIUM
            REL_CUTOFF 50
          &END WFC_GPW
        &END INTEGRALS
        &RI_MP2
        &END RI_MP2
      &END WF_CORRELATION
      &XC_FUNCTIONAL NONE
      &END XC_FUNCTIONAL
    &END XC
  &END DFT
  &SUBSYS
    &CELL
      A 8.0 -0.1 0.2
      B -0.2 8.0 0.1
      C 0.2 -0.2 8.0
    &END CELL
    &KIND H
      BASIS_SET DZVP-GTH
      BASIS_SET RI_AUX RI_DZVP-GTH
      POTENTIAL GTH-HF-q1
    &END KIND
    &KIND O
      BASIS_SET DZVP-GTH
      BASIS_SET RI_AUX RI_DZVP-GTH
      POTENTIAL GTH-HF-q6
    &END KIND
    &TOPOLOGY
      COORD_FILE_FORMAT xyz
      COORD_FILE_NAME H2O_gas.xyz
      &CENTER_COORDINATES
      &END CENTER_COORDINATES
    &END TOPOLOGY
  &END SUBSYS
&END FORCE_EVAL
