&FORCE_EVAL
  &DFT
    CHARGE ${CHARGE}
@IF ( ${LSD} == 1 )
    LSD
@ENDIF
    BASIS_SET_FILE_NAME ../BASIS_SET
    POTENTIAL_FILE_NAME ../POTENTIAL
    &MGRID
      CUTOFF 200
    &END MGRID
    &QS
    &END QS
    &SCF
      SCF_GUESS ATOMIC
      EPS_SCF 1.0E-5
      MAX_SCF 20
      &OT
        PRECONDITIONER FULL_SINGLE_INVERSE
        MINIMIZER CG
      &END
      &OUTER_SCF
        EPS_SCF 1.0E-5
        MAX_SCF 5
      &END OUTER_SCF 
      &PRINT
         &RESTART OFF
         &END
      &END
    &END SCF
    &XC
      &XC_FUNCTIONAL Pade
      &END XC_FUNCTIONAL
    &END XC
  &END DFT
&END FORCE_EVAL
