&FORCE_EVAL
  METHOD Quickstep
  &DFT
    &QS
      METHOD PM6
      &SE
      &END
    &END QS
    &SCF
      MAX_SCF 0
    &END SCF
  &END DFT
  &SUBSYS
    &CELL
#Ni_3 S_2 & R32 & D_3^7 & #155 & hP5
      A  2.86550000 -1.65439720  2.37300000
      B  0.00000000  3.30879439  2.37300000
      C -2.86550000 -1.65439720  2.37300000
    &END CELL
    &COORD
 SCALED
S   0.25210000  0.25210000  0.25210000     0.00000000  0.00000000  1.79469990
S  -0.25210000 -0.25210000 -0.25210000     0.00000000  0.00000000 -1.79469990
Ni  0.24490000 -0.24490000  0.50000000    -0.73098905 -2.04268422  1.18650000
Ni  0.50000000  0.24490000 -0.24490000     2.13451095  0.38828702  1.18650000
Ni -0.24490000  0.50000000  0.24490000    -1.40352190  1.65439720  1.18650000
    &END COORD
    &PRINT
      &SYMMETRY
       CHECK_SYMMETRY 32
      &END
    &END
    &TOPOLOGY
      CONNECTIVITY OFF
    &END
  &END SUBSYS
&END FORCE_EVAL
&GLOBAL
  PROJECT c_8_Ni3S2
  RUN_TYPE ENERGY
&END GLOBAL
