&FORCE_EVAL
  METHOD Quickstep
  &DFT
    &QS
      METHOD PM6
      &SE
      &END
    &END QS
    &SCF
      MAX_SCF 0
    &END SCF
  &END DFT
  &SUBSYS
    &CELL
#NiS & B13 & hR6 & R3m - C_{3v}^5 #160
     A   4.80350000 -2.77330202  1.04766667
     B   0.00000000  5.54660404  1.04766667
     C  -4.80350000 -2.77330202  1.04766667
    &END CELL
    &COORD
 SCALED
Ni  0.38771000  0.65096000 -0.61229000     4.80350000  4.23344553  0.44670411
Ni  0.38771000  0.38771000 -0.34904000     3.53897862  2.04323026  0.44670411
Ni  0.65096000  0.38771000 -0.61229000     6.06802137  2.04323026  0.44670411
S   0.11224000 -0.22448000  0.11224000     0.00000000 -1.86765251  0.00000000
S   0.11224000  0.11224000 -0.22448000     1.61743452  0.93382626  0.00000000
S  -0.22448000  0.11224000  0.11224000    -1.61743452  0.93382626  0.00000000
    &END COORD
    &PRINT
      &SYMMETRY
       CHECK_SYMMETRY 3m
      &END
    &END
    &TOPOLOGY
      CONNECTIVITY OFF
    &END
  &END SUBSYS
&END FORCE_EVAL
&GLOBAL
  PROJECT c_9_NiS
  RUN_TYPE ENERGY
&END GLOBAL
