&FORCE_EVAL
  METHOD Quickstep
  &DFT
    &QS
      METHOD PM6
      &SE
      &END
    &END QS
    &SCF
      MAX_SCF 0
    &END SCF
  &END DFT
  &SUBSYS
    &CELL
#CSi  (Moissanite-9R) R3m (C^5_{3v}, #160) & hR18
     A   1.50895620  0.87119627  7.39234548
     B  -1.50895620  0.87119627  7.39234548
     C   0.00000000 -1.74239254  7.39234548
    &END CELL
    &COORD
 SCALED
C   0.22222222  0.22222222  0.22222222     0.00000000  0.00000000  4.92823032
C   0.00000000  0.00000000  0.00000000     0.00000000  0.00000000  0.00000000
C  -0.22222222 -0.22222222 -0.22222222     0.00000000  0.00000000 -4.92823032
Si  0.30555556  0.30555556  0.30555556     0.00000000  0.00000000  6.77631670
Si  0.08333333  0.08333333  0.08333333     0.00000000  0.00000000  1.84808636
Si -0.13888889 -0.13888889 -0.13888889     0.00000000  0.00000000 -3.08014395
    &END COORD
    &PRINT
      &SYMMETRY
       CHECK_SYMMETRY 3m
      &END
    &END
    &TOPOLOGY
      CONNECTIVITY OFF
    &END
  &END SUBSYS
&END FORCE_EVAL
&GLOBAL
  PROJECT c_9_moissanite
  RUN_TYPE ENERGY
&END GLOBAL
