&FORCE_EVAL
  METHOD Quickstep
  &DFT
    &QS
      METHOD PM6
      &SE
      &END
    &END QS
    &SCF
      MAX_SCF 0
    &END SCF
  &END DFT
  &SUBSYS
    &CELL
#Cr Cl_3 & P3_112 & D_3^3 & #51 & D0_4 & hP24 & Struk II 24 => findsym
      A  3.00000000 -5.19615242  0.00000000
      B  3.00000000  5.19615242  0.00000000
      C  0.00000000  0.00000000 17.30000000
    &END CELL
    &COORD
 SCALED
Cr -0.22222222  0.22222222  0.33333333     0.00000000  2.30940105  5.76666661
Cr -0.22222222 -0.44444444  0.66666667    -1.99999998 -1.15470053 11.53333339
Cr  0.44444444  0.22222222  0.00000000     1.99999998 -1.15470053  0.00000000
Cr  0.44444444 -0.44444444  0.33333333     0.00000000 -4.61880210  5.76666661
Cr  0.44444444  0.88888889  0.66666667     3.99999999  2.30940110 11.53333339
Cr -0.88888889 -0.44444444  0.00000000    -3.99999999  2.30940110  0.00000000
Cl  0.44444444  0.22222222 -0.26000000     1.99999998 -1.15470053 -4.49800000
Cl -0.22222222  0.22222222  0.07333333     0.00000000  2.30940105  1.26866661
Cl -0.22222222 -0.44444444  0.40666667    -1.99999998 -1.15470053  7.03533339
Cl -0.22222222 -0.44444444  0.92666667    -1.99999998 -1.15470053 16.03133339
Cl -0.22222222  0.22222222  0.59333333     0.00000000  2.30940105 10.26466661
Cl  0.44444444  0.22222222  0.26000000     1.99999998 -1.15470053  4.49800000
Cl  0.11111111 -0.44444444 -0.26000000    -0.99999999 -2.88675132 -4.49800000
Cl  0.44444444  0.55555556  0.07333333     3.00000000  0.57735032  1.26866661
Cl -0.55555556 -0.11111111  0.40666667    -2.00000001  2.30940110  7.03533339
Cl  0.44444444 -0.11111111  0.92666667     0.99999999 -2.88675132 16.03133339
Cl -0.55555556 -0.44444444  0.59333333    -3.00000000  0.57735032 10.26466661
Cl  0.11111111  0.55555556  0.26000000     2.00000001  2.30940110  4.49800000
Cl -0.22222222 -0.11111111 -0.26000000    -0.99999999  0.57735026 -4.49800000
Cl  0.11111111 -0.11111111  0.07333333     0.00000000 -1.15470053  1.26866661
Cl  0.11111111  0.22222222  0.40666667     0.99999999  0.57735026  7.03533339
Cl  0.11111111  0.22222222  0.92666667     0.99999999  0.57735026 16.03133339
Cl  0.11111111 -0.11111111  0.59333333     0.00000000 -1.15470053 10.26466661
Cl -0.22222222 -0.11111111  0.26000000    -0.99999999  0.57735026  4.49800000
    &END COORD
    &PRINT
      &SYMMETRY
       CHECK_SYMMETRY NONE
      &END
    &END
    &TOPOLOGY
      CONNECTIVITY OFF
    &END
  &END SUBSYS
&END FORCE_EVAL
&GLOBAL
  PROJECT c_s24_CrCl3
  RUN_TYPE ENERGY
&END GLOBAL
