&GLOBAL
  PROJECT G_C4h
  RUN_TYPE ENERGY
&END GLOBAL

&FORCE_EVAL
  METHOD Quickstep
  &DFT
    &QS
      METHOD PM6
      &SE
      &END SE
    &END QS
    &SCF
      MAX_SCF 0
    &END SCF
  &END DFT
  &SUBSYS
    &CELL
      ABC 20.0 20.0 20.0
      PERIODIC NONE
    &END CELL
    &COORD
      C   1.00000000000    1.00000000000    0.00000000000
      C   1.00000000000   -1.00000000000    0.00000000000
      C  -1.00000000000    1.00000000000    0.00000000000
      C  -1.00000000000   -1.00000000000    0.00000000000
      C   1.00000000000    1.10000000000    0.00000000000
      C   1.10000000000   -1.00000000000    0.00000000000
      C  -1.10000000000    1.00000000000    0.00000000000
      C  -1.00000000000   -1.10000000000    0.00000000000
    &END COORD
    &PRINT
      &SYMMETRY
        ALL
        CHECK_SYMMETRY C4h
        MOLECULE
      &END SYMMETRY
    &END PRINT
  &END SUBSYS
&END FORCE_EVAL
