&GLOBAL
  PROJECT G_C4v
  RUN_TYPE ENERGY
&END GLOBAL

&FORCE_EVAL
  METHOD Quickstep
  &DFT
    &QS
      METHOD PM6
      &SE
      &END SE
    &END QS
    &SCF
      MAX_SCF 0
    &END SCF
  &END DFT
  &SUBSYS
    &CELL
      ABC 20.0 20.0 20.0
      PERIODIC NONE
    &END CELL
    &COORD
      C  0    0    0
      H  1    0    1
      H -1    0    1
      H  0    1    1
      H  0   -1    1
    &END COORD
    &PRINT
      &SYMMETRY
        ALL
        CHECK_SYMMETRY C4v
        MOLECULE
      &END SYMMETRY
    &END PRINT
  &END SUBSYS
&END FORCE_EVAL
