&GLOBAL
  PROJECT G_C5v
  RUN_TYPE ENERGY
&END GLOBAL

&FORCE_EVAL
  METHOD Quickstep
  &DFT
    &QS
      METHOD PM6
      &SE
      &END SE
    &END QS
    &SCF
      MAX_SCF 0
    &END SCF
  &END DFT
  &SUBSYS
    &CELL
      ABC 20.0 20.0 20.0
      PERIODIC NONE
    &END CELL
    &COORD
      N  0.00000000000000000   0.0000000000000000     0.00000000000000000
      H  1.00000000000000000   0.0000000000000000     1.00000000000000000
      H  0.30901699437494745   0.9510565162951535     1.00000000000000000
      H -0.8090169943749473    0.5877852522924732     1.0000000000000000000
      H -0.8090169943749473   -0.5877852522924732     1.0000000000000000000
      H  0.30901699437494745  -0.9510565162951535     1.00000000000000000
    &END COORD
    &PRINT
      &SYMMETRY
        ALL
        CHECK_SYMMETRY C5v
        MOLECULE
      &END SYMMETRY
    &END PRINT
  &END SUBSYS
&END FORCE_EVAL
