&GLOBAL
  PROJECT G_Ci
  RUN_TYPE ENERGY
&END GLOBAL

&FORCE_EVAL
  METHOD Quickstep
  &DFT
    &QS
      METHOD PM6
      &SE
      &END SE
    &END QS
    &SCF
      MAX_SCF 0
    &END SCF
  &END DFT
  &SUBSYS
    &CELL
      ABC 20.0 20.0 20.0
      PERIODIC NONE
    &END CELL
    &COORD
      C  1   0  0
      C -1   0  0
      N  .5  1  .2
      N -.5 -1 -.2
      O  0   0  1
      O  0   0 -1
    &END COORD
    &PRINT
      &SYMMETRY
        ALL
        CHECK_SYMMETRY Ci
        MOLECULE
      &END SYMMETRY
    &END PRINT
  &END SUBSYS
&END FORCE_EVAL
