&GLOBAL
  PROJECT G_D2
  RUN_TYPE ENERGY
&END GLOBAL

&FORCE_EVAL
  METHOD Quickstep
  &DFT
    &QS
      METHOD PM6
      &SE
      &END SE
    &END QS
    &SCF
      MAX_SCF 0
    &END SCF
  &END DFT
  &SUBSYS
    &CELL
      ABC 20.0 20.0 20.0
      PERIODIC NONE
    &END CELL
    &COORD
      H  1    0.1  0.2
      H  1   -0.1 -0.2
      H -1    0.1 -0.2
      H -1   -0.1  0.2
    &END COORD
    &PRINT
      &SYMMETRY
        ALL
        CHECK_SYMMETRY D2
        MOLECULE
      &END SYMMETRY
    &END PRINT
  &END SUBSYS
&END FORCE_EVAL
