&GLOBAL
  PROJECT G_D3
  RUN_TYPE ENERGY
&END GLOBAL

&FORCE_EVAL
  METHOD Quickstep
  &DFT
    &QS
      METHOD PM6
      &SE
      &END SE
    &END QS
    &SCF
      MAX_SCF 0
    &END SCF
  &END DFT
  &SUBSYS
    &CELL
      ABC 20.0 20.0 20.0
      PERIODIC NONE
    &END CELL
    &COORD
      He  0.09950  0.99504 1.1
      He -0.09950  0.99504 0.9
      He  0.81198 -0.58369 1.1
      He  0.91148 -0.41135 0.9
      He -0.91148 -0.41135 1.1
      He -0.81198 -0.58369 0.9
    &END COORD
    &PRINT
      &SYMMETRY
        ALL
        CHECK_SYMMETRY D3
        MOLECULE
      &END SYMMETRY
    &END PRINT
  &END SUBSYS
&END FORCE_EVAL
