&GLOBAL
  PROJECT G_D5d
  RUN_TYPE ENERGY
&END GLOBAL

&FORCE_EVAL
  METHOD Quickstep
  &DFT
    &QS
      METHOD PM6
      &SE
      &END SE
    &END QS
    &SCF
      MAX_SCF 0
    &END SCF
  &END DFT
  &SUBSYS
    &CELL
      ABC 20.0 20.0 20.0
      PERIODIC NONE
    &END CELL
    &COORD
      He  0.00000  1.00000 1.0
      He  0.58779  0.80902 1.1
      He  0.95106  0.30902 1.0
      He  0.95106 -0.30902 1.1
      He  0.58779 -0.80902 1.0
      He  0.00000 -1.00000 1.1
      He -0.58779 -0.80902 1.0
      He -0.95106 -0.30902 1.1
      He -0.95106  0.30902 1.0
      He -0.58779  0.80902 1.1
    &END COORD
    &PRINT
      &SYMMETRY
        ALL
        CHECK_SYMMETRY D5d
        MOLECULE
      &END SYMMETRY
    &END PRINT
  &END SUBSYS
&END FORCE_EVAL
