&GLOBAL
  PROJECT G_D6h
  RUN_TYPE ENERGY
&END GLOBAL

&FORCE_EVAL
  METHOD Quickstep
  &DFT
    &QS
      METHOD PM6
      &SE
      &END SE
    &END QS
    &SCF
      MAX_SCF 0
    &END SCF
  &END DFT
  &SUBSYS
    &CELL
      ABC 20.0 20.0 20.0
      PERIODIC NONE
    &END CELL
    &COORD
      H  0.0000  1.0000 1
      H  0.8660  0.5000 1
      H  0.8660 -0.5000 1
      H  0.0000 -1.0000 1
      H -0.8660 -0.5000 1
      H -0.8660  0.5000 1
    &END COORD
    &PRINT
      &SYMMETRY
        ALL
        CHECK_SYMMETRY D6h
        MOLECULE
      &END SYMMETRY
    &END PRINT
  &END SUBSYS
&END FORCE_EVAL
