&GLOBAL
  PROJECT G_D7d
  RUN_TYPE ENERGY
&END GLOBAL

&FORCE_EVAL
  METHOD Quickstep
  &DFT
    &QS
      METHOD PM6
      &SE
      &END SE
    &END QS
    &SCF
      MAX_SCF 0
    &END SCF
  &END DFT
  &SUBSYS
    &CELL
      ABC 20.0 20.0 20.0
      PERIODIC NONE
    &END CELL
    &COORD
      He  0.00000  1.00000 1.0
      He  0.43388  0.90097 1.1
      He  0.78183  0.62349 1.0
      He  0.97493  0.22252 1.1
      He  0.97493 -0.22252 1.0
      He  0.78183 -0.62349 1.1
      He  0.43388 -0.90097 1.0
      He  0.00000 -1.00000 1.1
      He -0.43388 -0.90097 1.0
      He -0.78183 -0.62349 1.1
      He -0.97493 -0.22252 1.0
      He -0.97493  0.22252 1.1
      He -0.78183  0.62349 1.0
      He -0.43388  0.90097 1.1
    &END COORD
    &PRINT
      &SYMMETRY
        ALL
        CHECK_SYMMETRY D7d
        MOLECULE
      &END SYMMETRY
    &END PRINT
  &END SUBSYS
&END FORCE_EVAL
