&GLOBAL
  PROJECT G_D7
  RUN_TYPE ENERGY
&END GLOBAL

&FORCE_EVAL
  METHOD Quickstep
  &DFT
    &QS
      METHOD PM6
      &SE
      &END SE
    &END QS
    &SCF
      MAX_SCF 0
    &END SCF
  &END DFT
  &SUBSYS
    &CELL
      ABC 20.0 20.0 20.0
      PERIODIC NONE
    &END CELL
    &COORD
      He  0.09950  0.99504 1.1
      He -0.09950  0.99504 0.9
      He  0.83999  0.54260 1.1
      He  0.71591  0.69819 0.9
      He  0.94795 -0.31843 1.1
      He  0.99223 -0.12441 0.9
      He  0.34208 -0.93967 1.1
      He  0.52138 -0.85332 0.9
      He -0.52138 -0.85332 1.1
      He -0.34208 -0.93967 0.9
      He -0.99223 -0.12441 1.1
      He -0.94795 -0.31843 0.9
      He -0.71591  0.69819 1.1
      He -0.83999  0.54260 0.9
    &END COORD
    &PRINT
      &SYMMETRY
        ALL
        CHECK_SYMMETRY D7
        MOLECULE
      &END SYMMETRY
    &END PRINT
  &END SUBSYS
&END FORCE_EVAL
