&GLOBAL
  PROJECT G_D8h
  RUN_TYPE ENERGY
&END GLOBAL

&FORCE_EVAL
  METHOD Quickstep
  &DFT
    &QS
      METHOD PM6
      &SE
      &END SE
    &END QS
    &SCF
      MAX_SCF 0
    &END SCF
  &END DFT
  &SUBSYS
    &CELL
      ABC 20.0 20.0 20.0
      PERIODIC NONE
    &END CELL
    &COORD
      C  0        0       0
      H  0.00000  1.00000 1
      H  0.70711  0.70711 1
      H  1.00000  0.00000 1
      H  0.70711 -0.70711 1
      H  0.00000 -1.00000 1
      H -0.70711 -0.70711 1
      H -1.00000  0.00000 1
      H -0.70711  0.70711 1
      C  0        0       2
    &END COORD
    &PRINT
      &SYMMETRY
        ALL
        CHECK_SYMMETRY D8h
        MOLECULE
      &END SYMMETRY
    &END PRINT
  &END SUBSYS
&END FORCE_EVAL
