&GLOBAL
  PROJECT G_Th
  RUN_TYPE ENERGY
&END GLOBAL

&FORCE_EVAL
  METHOD Quickstep
  &DFT
    &QS
      METHOD PM6
      &SE
      &END SE
    &END QS
    &SCF
      MAX_SCF 0
    &END SCF
  &END DFT
  &SUBSYS
    &CELL
      ABC 20.0 20.0 20.0
      PERIODIC NONE
    &END CELL
    &COORD
      C   1.0000      2.0000      3.0000
      C  -1.0000     -2.0000      3.0000
      C   3.0000      1.0000      2.0000
      C   3.0000     -1.0000     -2.0000
      C  -3.0000     -1.0000      2.0000
      C  -3.0000      1.0000     -2.0000
      C   2.0000      3.0000      1.0000
      C  -2.0000      3.0000     -1.0000
      C  -2.0000     -3.0000      1.0000
      C   2.0000     -3.0000     -1.0000
      C   1.0000     -2.0000     -3.0000
      C  -1.0000      2.0000     -3.0000
      C   1.0000      2.0000     -3.0000
      C  -1.0000     -2.0000     -3.0000
      C   3.0000      1.0000     -2.0000
      C   3.0000     -1.0000      2.0000
      C  -3.0000     -1.0000     -2.0000
      C  -3.0000      1.0000      2.0000
      C   2.0000      3.0000     -1.0000
      C  -2.0000      3.0000      1.0000
      C  -2.0000     -3.0000     -1.0000
      C   2.0000     -3.0000      1.0000
      C   1.0000     -2.0000      3.0000
      C  -1.0000      2.0000      3.0000
    &END COORD
    &PRINT
      &SYMMETRY
        ALL
        CHECK_SYMMETRY Th
        MOLECULE
      &END SYMMETRY
    &END PRINT
  &END SUBSYS
&END FORCE_EVAL
