&FORCE_EVAL
  METHOD Quickstep
  &DFT
    &QS
      METHOD PM6
      &SE
      &END
    &END QS
    &SCF
      MAX_SCF 0
    &END SCF
  &END DFT
  &SUBSYS
    &CELL
      ABC 20.0 20.0 20.0
      PERIODIC NONE
    &END CELL
    &COORD
C   1.0000      2.0000      3.0000
C  -1.0000     -2.0000      3.0000
C   3.0000      1.0000      2.0000
C   3.0000     -1.0000     -2.0000
C  -3.0000     -1.0000      2.0000
C  -3.0000      1.0000     -2.0000
C   2.0000      3.0000      1.0000
C  -2.0000      3.0000     -1.0000
C  -2.0000     -3.0000      1.0000
C   2.0000     -3.0000     -1.0000
C   1.0000     -2.0000     -3.0000
C  -1.0000      2.0000     -3.0000
C   1.0000      2.0000     -3.0000
C  -1.0000     -2.0000     -3.0000
C   3.0000      1.0000     -2.0000
C   3.0000     -1.0000      2.0000
C  -3.0000     -1.0000     -2.0000
C  -3.0000      1.0000      2.0000
C   2.0000      3.0000     -1.0000
C  -2.0000      3.0000      1.0000
C  -2.0000     -3.0000     -1.0000
C   2.0000     -3.0000      1.0000
C   1.0000     -2.0000      3.0000
C  -1.0000      2.0000      3.0000
    &END COORD
    &PRINT
      &SYMMETRY
        MOLECULE
        CHECK_SYMMETRY Th
        ALL
      &END
    &END
  &END SUBSYS
&END FORCE_EVAL
&GLOBAL
  PROJECT G_Th
  RUN_TYPE ENERGY
&END GLOBAL
