&GLOBAL
  PRINT_LEVEL LOW
  PROJECT C_K290_SPACE_GROUP_OPS
  RUN_TYPE ENERGY
&END GLOBAL

&FORCE_EVAL
  METHOD Quickstep
  &DFT
    BASIS_SET_FILE_NAME GTH_BASIS_SETS
    POTENTIAL_FILE_NAME POTENTIAL
    &KPOINTS
      EPS_SYMMETRY 1.e-8
      FULL_GRID OFF
      PARALLEL_GROUP_SIZE -1
      SCHEME MONKHORST-PACK 6 6 6
      SYMMETRY ON
      SYMMETRY_BACKEND K290
      VERBOSE T
      WAVEFUNCTIONS COMPLEX
    &END KPOINTS
    &MGRID
      CUTOFF 120
      REL_CUTOFF 30
    &END MGRID
    &QS
      EPS_DEFAULT 1.0E-8
      EXTRAPOLATION USE_GUESS
      METHOD GPW
    &END QS
    &SCF
      EPS_SCF 1.0E-5
      IGNORE_CONVERGENCE_FAILURE
      MAX_SCF 6
      SCF_GUESS ATOMIC
      &MIXING
        ALPHA 0.70
        METHOD DIRECT_P_MIXING
      &END MIXING
      &PRINT
        &RESTART OFF
        &END RESTART
      &END PRINT
    &END SCF
    &XC
      &XC_FUNCTIONAL PADE
      &END XC_FUNCTIONAL
    &END XC
  &END DFT
  &SUBSYS
    &CELL
      ABC 3.56683 3.56683 3.56683
    &END CELL
    &COORD
      SCALED
      C     0.000000    0.000000    0.000000
      C     0.500000    0.500000    0.000000
      C     0.500000    0.000000    0.500000
      C     0.000000    0.500000    0.500000
      C     0.250000    0.250000    0.250000
      C     0.250000    0.750000    0.750000
      C     0.750000    0.250000    0.750000
      C     0.750000    0.750000    0.250000
    &END COORD
    &KIND C
      BASIS_SET DZVP-GTH
      POTENTIAL GTH-PADE-q4
    &END KIND
  &END SUBSYS
&END FORCE_EVAL
