&FORCE_EVAL
  METHOD QMMM
  &DFT
    &QS
      METHOD AM1
      &SE
      &END SE
      EPS_DEFAULT 1.0E-8
      EXTRAPOLATION ASPC
      EXTRAPOLATION_ORDER 2
    &END QS
    &SCF
      SCF_GUESS ATOMIC
      MAX_SCF 40
      &OT
         MINIMIZER CG
         PRECONDITIONER NONE
      &END
    &END SCF
  &END DFT
  &MM
    &FORCEFIELD
      &NONBONDED
       &TERSOFF
         ATOMS Si Si
       &END TERSOFF
      &END NONBONDED
    &END FORCEFIELD
    &POISSON
      &EWALD
        EWALD_TYPE none
      &END
    &END
  &END MM
  &QMMM
     &CELL
       A 16.0     0.0     0.0
       B  0.0    16.0     0.0
       C  0.0     0.0    16.0
     &END CELL
    ECOUPL NONE
    USE_GEEP_LIB 9
    &MM_KIND SI
      RADIUS 1.20
    &END MM_KIND
    &PRINT
      &QMMM_CHARGES
      &END QMMM_CHARGES
    &END PRINT
    &QM_KIND Si
      MM_INDEX  180 181 175 176
      MM_INDEX  182 178 177 179
      MM_INDEX  148 150 184 188
      MM_INDEX  183 211 172 143
      MM_INDEX  170 173 209  54
      MM_INDEX   52  48 171 337
      MM_INDEX  306 208 212 213
      MM_INDEX  203 174 309 305
      MM_INDEX  308 298 303
    &END QM_KIND
    # Link
    &LINK
      LINK_TYPE IMOMM
      QM_INDEX 54
      MM_INDEX 83
      ALPHA_IMOMM   1.5684077
    &END LINK
    &LINK
      LINK_TYPE IMOMM
      QM_INDEX  52
      MM_INDEX  53
      ALPHA_IMOMM   1.5684077
    &END LINK
    &LINK
      LINK_TYPE IMOMM
      QM_INDEX 52
      MM_INDEX 47
      ALPHA_IMOMM   1.5684077
    &END LINK
    &LINK
      LINK_TYPE IMOMM
      QM_INDEX  48
      MM_INDEX  43
      ALPHA_IMOMM   1.5684077
    &END LINK
    &LINK
      LINK_TYPE IMOMM
      QM_INDEX 212
      MM_INDEX 214
      ALPHA_IMOMM   1.5684077
    &END LINK
    &LINK
      LINK_TYPE IMOMM
      QM_INDEX  212
      MM_INDEX  207
      ALPHA_IMOMM   1.5684077
    &END LINK
    &LINK
      LINK_TYPE IMOMM
      QM_INDEX 172
      MM_INDEX 167
      ALPHA_IMOMM   1.5684077
    &END LINK
    &LINK
      LINK_TYPE IMOMM
      QM_INDEX  172
      MM_INDEX  168
      ALPHA_IMOMM   1.5684077
    &END LINK
    &LINK
      LINK_TYPE IMOMM
      QM_INDEX 174
      MM_INDEX 329
      ALPHA_IMOMM   1.5684077
    &END LINK
    &LINK
      LINK_TYPE IMOMM
      QM_INDEX  173
      MM_INDEX  169
      ALPHA_IMOMM   1.5684077
    &END LINK
    &LINK
      LINK_TYPE IMOMM
      QM_INDEX 143
      MM_INDEX 138
      ALPHA_IMOMM   1.5684077
    &END LINK
    &LINK
      LINK_TYPE IMOMM
      QM_INDEX  170
      MM_INDEX  46
      ALPHA_IMOMM   1.5684077
    &END LINK
    &LINK
      LINK_TYPE IMOMM
      QM_INDEX 203
      MM_INDEX 205
      ALPHA_IMOMM   1.5684077
    &END LINK
    &LINK
      LINK_TYPE IMOMM
      QM_INDEX  183
      MM_INDEX  217
      ALPHA_IMOMM   1.5684077
    &END LINK
    &LINK
      LINK_TYPE IMOMM
      QM_INDEX 213
      MM_INDEX 210
      ALPHA_IMOMM   1.5684077
    &END LINK
    &LINK
      LINK_TYPE IMOMM
      QM_INDEX  209
      MM_INDEX  80
      ALPHA_IMOMM   1.5684077
    &END LINK
    &LINK
      LINK_TYPE IMOMM
      QM_INDEX 208
      MM_INDEX 330
      ALPHA_IMOMM   1.5684077
    &END LINK
    &LINK
      LINK_TYPE IMOMM
      QM_INDEX  337
      MM_INDEX  341
      ALPHA_IMOMM   1.5684077
    &END LINK
    &LINK
      LINK_TYPE IMOMM
      QM_INDEX 211
      MM_INDEX 216
      ALPHA_IMOMM   1.5684077
    &END LINK
    &LINK
      LINK_TYPE IMOMM
      QM_INDEX  188
      MM_INDEX  190
      ALPHA_IMOMM   1.5684077
    &END LINK
    &LINK
      LINK_TYPE IMOMM
      QM_INDEX 188
      MM_INDEX 189
      ALPHA_IMOMM   1.5684077
    &END LINK
    &LINK
      LINK_TYPE IMOMM
      QM_INDEX  148
      MM_INDEX  144
      ALPHA_IMOMM   1.5684077
    &END LINK
    &LINK
      LINK_TYPE IMOMM
      QM_INDEX  148
      MM_INDEX  149
      ALPHA_IMOMM   1.5684077
    &END LINK
    &LINK
      LINK_TYPE IMOMM
      QM_INDEX 298
      MM_INDEX 301
      ALPHA_IMOMM   1.5684077
    &END LINK
    &LINK
      LINK_TYPE IMOMM
      QM_INDEX  303
      MM_INDEX  331
      ALPHA_IMOMM   1.5684077
    &END LINK
    &LINK
      LINK_TYPE IMOMM
      QM_INDEX 184
      MM_INDEX 313
      ALPHA_IMOMM   1.5684077
    &END LINK
    &LINK
      LINK_TYPE IMOMM
      QM_INDEX  178
      MM_INDEX  56
      ALPHA_IMOMM   1.5684077
    &END LINK
    &LINK
      LINK_TYPE IMOMM
      QM_INDEX 308
      MM_INDEX 310
      ALPHA_IMOMM   1.5684077
    &END LINK
    &LINK
      LINK_TYPE IMOMM
      QM_INDEX  150
      MM_INDEX  274
      ALPHA_IMOMM   1.5684077
    &END LINK
    &LINK
      LINK_TYPE IMOMM
      QM_INDEX 309
      MM_INDEX 307
      ALPHA_IMOMM   1.5684077
    &END LINK
    &LINK
      LINK_TYPE IMOMM
      QM_INDEX  308
      MM_INDEX  304
      ALPHA_IMOMM   1.5684077
    &END LINK
    &LINK
      LINK_TYPE IMOMM
      QM_INDEX 306
      MM_INDEX 311
      ALPHA_IMOMM   1.5684077
    &END LINK
    &LINK
      LINK_TYPE IMOMM
      QM_INDEX  305
      MM_INDEX  271
      ALPHA_IMOMM   1.5684077
    &END LINK
    &LINK
      LINK_TYPE IMOMM
      QM_INDEX  171
      MM_INDEX  142
      ALPHA_IMOMM   1.5684077
    &END LINK
    &LINK
      LINK_TYPE IMOMM
      QM_INDEX  179
      MM_INDEX  151
      ALPHA_IMOMM   1.5684077
    &END LINK
    &LINK
      LINK_TYPE IMOMM
      QM_INDEX  177
      MM_INDEX  22
      ALPHA_IMOMM   1.5684077
    &END LINK
     # Fine Link
  &END QMMM
  &SUBSYS
    &CELL
      A  21.7236  0.       0.
      B   0.     21.7236   0.
      C   0.      0.      21.7236
    &END CELL
    &COORD
Si     0.000000    0.000000    0.000000
Si     0.000000    2.715450    2.715450
Si     2.715450    0.000000    2.715450
Si     2.715450    2.715450    0.000000
Si     1.357725    1.357725    1.357725
Si     4.073175    4.073175    1.357725
Si     1.357725    4.073175    4.073175
Si     4.073175    1.357725    4.073175
Si     0.000000    0.000000    5.430900
Si     0.000000    2.715450    8.146350
Si     2.715450    0.000000    8.146350
Si     2.715450    2.715450    5.430900
Si     1.357725    1.357725    6.788625
Si     4.073175    4.073175    6.788625
Si     1.357725    4.073175    9.504075
Si     4.073175    1.357725    9.504075
Si     0.000000    0.000000   10.861800
Si     0.000000    2.715450   13.577250
Si     2.715450    0.000000   13.577250
Si     2.715450    2.715450   10.861800
Si     1.357725    1.357725   12.219525
Si     4.073175    4.073175   12.219525
Si     1.357725    4.073175   14.934975
Si     4.073175    1.357725   14.934975
Si     0.000000    0.000000   16.292700
Si     0.000000    2.715450   19.008150
Si     2.715450    0.000000   19.008150
Si     2.715450    2.715450   16.292700
Si     1.357725    1.357725   17.650425
Si     4.073175    4.073175   17.650425
Si     1.357725    4.073175   20.365875
Si     4.073175    1.357725   20.365875
Si     0.000000    5.430900    0.000000
Si     0.000000    8.146350    2.715450
Si     2.715450    5.430900    2.715450
Si     2.715450    8.146350    0.000000
Si     1.357725    6.788625    1.357725
Si     4.073175    9.504075    1.357725
Si     1.357725    9.504075    4.073175
Si     4.073175    6.788625    4.073175
Si     0.000000    5.430900    5.430900
Si     0.000000    8.146350    8.146350
Si     2.715450    5.430900    8.146350
Si     2.715450    8.146350    5.430900
Si     1.357725    6.788625    6.788625
Si     4.073175    9.504075    6.788625
Si     1.357725    9.504075    9.504075
Si     4.073175    6.788625    9.504075
Si     0.000000    5.430900   10.861800
Si     0.000000    8.146350   13.577250
Si     2.715450    5.430900   13.577250
Si     2.715450    8.146350   10.861800
Si     1.357725    6.788625   12.219525
Si     4.073175    9.504075   12.219525
Si     1.357725    9.504075   14.934975
Si     4.073175    6.788625   14.934975
Si     0.000000    5.430900   16.292700
Si     0.000000    8.146350   19.008150
Si     2.715450    5.430900   19.008150
Si     2.715450    8.146350   16.292700
Si     1.357725    6.788625   17.650425
Si     4.073175    9.504075   17.650425
Si     1.357725    9.504075   20.365875
Si     4.073175    6.788625   20.365875
Si     0.000000   10.861800    0.000000
Si     0.000000   13.577250    2.715450
Si     2.715450   10.861800    2.715450
Si     2.715450   13.577250    0.000000
Si     1.357725   12.219525    1.357725
Si     4.073175   14.934975    1.357725
Si     1.357725   14.934975    4.073175
Si     4.073175   12.219525    4.073175
Si     0.000000   10.861800    5.430900
Si     0.000000   13.577250    8.146350
Si     2.715450   10.861800    8.146350
Si     2.715450   13.577250    5.430900
Si     1.357725   12.219525    6.788625
Si     4.073175   14.934975    6.788625
Si     1.357725   14.934975    9.504075
Si     4.073175   12.219525    9.504075
Si     0.000000   10.861800   10.861800
Si     0.000000   13.577250   13.577250
Si     2.715450   10.861800   13.577250
Si     2.715450   13.577250   10.861800
Si     1.357725   12.219525   12.219525
Si     4.073175   14.934975   12.219525
Si     1.357725   14.934975   14.934975
Si     4.073175   12.219525   14.934975
Si     0.000000   10.861800   16.292700
Si     0.000000   13.577250   19.008150
Si     2.715450   10.861800   19.008150
Si     2.715450   13.577250   16.292700
Si     1.357725   12.219525   17.650425
Si     4.073175   14.934975   17.650425
Si     1.357725   14.934975   20.365875
Si     4.073175   12.219525   20.365875
Si     0.000000   16.292700    0.000000
Si     0.000000   19.008150    2.715450
Si     2.715450   16.292700    2.715450
Si     2.715450   19.008150    0.000000
Si     1.357725   17.650425    1.357725
Si     4.073175   20.365875    1.357725
Si     1.357725   20.365875    4.073175
Si     4.073175   17.650425    4.073175
Si     0.000000   16.292700    5.430900
Si     0.000000   19.008150    8.146350
Si     2.715450   16.292700    8.146350
Si     2.715450   19.008150    5.430900
Si     1.357725   17.650425    6.788625
Si     4.073175   20.365875    6.788625
Si     1.357725   20.365875    9.504075
Si     4.073175   17.650425    9.504075
Si     0.000000   16.292700   10.861800
Si     0.000000   19.008150   13.577250
Si     2.715450   16.292700   13.577250
Si     2.715450   19.008150   10.861800
Si     1.357725   17.650425   12.219525
Si     4.073175   20.365875   12.219525
Si     1.357725   20.365875   14.934975
Si     4.073175   17.650425   14.934975
Si     0.000000   16.292700   16.292700
Si     0.000000   19.008150   19.008150
Si     2.715450   16.292700   19.008150
Si     2.715450   19.008150   16.292700
Si     1.357725   17.650425   17.650425
Si     4.073175   20.365875   17.650425
Si     1.357725   20.365875   20.365875
Si     4.073175   17.650425   20.365875
Si     5.430900    0.000000    0.000000
Si     5.430900    2.715450    2.715450
Si     8.146350    0.000000    2.715450
Si     8.146350    2.715450    0.000000
Si     6.788625    1.357725    1.357725
Si     9.504075    4.073175    1.357725
Si     6.788625    4.073175    4.073175
Si     9.504075    1.357725    4.073175
Si     5.430900    0.000000    5.430900
Si     5.430900    2.715450    8.146350
Si     8.146350    0.000000    8.146350
Si     8.146350    2.715450    5.430900
Si     6.788625    1.357725    6.788625
Si     9.504075    4.073175    6.788625
Si     6.788625    4.073175    9.504075
Si     9.504075    1.357725    9.504075
Si     5.430900    0.000000   10.861800
Si     5.430900    2.715450   13.577250
Si     8.146350    0.000000   13.577250
Si     8.146350    2.715450   10.861800
Si     6.788625    1.357725   12.219525
Si     9.504075    4.073175   12.219525
Si     6.788625    4.073175   14.934975
Si     9.504075    1.357725   14.934975
Si     5.430900    0.000000   16.292700
Si     5.430900    2.715450   19.008150
Si     8.146350    0.000000   19.008150
Si     8.146350    2.715450   16.292700
Si     6.788625    1.357725   17.650425
Si     9.504075    4.073175   17.650425
Si     6.788625    4.073175   20.365875
Si     9.504075    1.357725   20.365875
Si     5.430900    5.430900    0.000000
Si     5.430900    8.146350    2.715450
Si     8.146350    5.430900    2.715450
Si     8.146350    8.146350    0.000000
Si     6.788625    6.788625    1.357725
Si     9.504075    9.504075    1.357725
Si     6.788625    9.504075    4.073175
Si     9.504075    6.788625    4.073175
Si     5.430900    5.430900    5.430900
Si     5.430900    8.146350    8.146350
Si     8.146350    5.430900    8.146350
Si     8.146350    8.146350    5.430900
Si     6.788625    6.788625    6.788625
Si     9.504075    9.504075    6.788625
Si     6.788625    9.504075    9.504075
Si     9.504075    6.788625    9.504075
Si     5.430900    5.430900   10.861800
Si     5.430900    8.146350   13.577250
Si     8.146350    5.430900   13.577250
Si     8.146350    8.146350   10.861800
Si     6.788625    6.788625   12.219525
Si     9.504075    9.504075   12.219525
Si     6.788625    9.504075   14.934975
Si     9.504075    6.788625   14.934975
Si     5.430900    5.430900   16.292700
Si     5.430900    8.146350   19.008150
Si     8.146350    5.430900   19.008150
Si     8.146350    8.146350   16.292700
Si     6.788625    6.788625   17.650425
Si     9.504075    9.504075   17.650425
Si     6.788625    9.504075   20.365875
Si     9.504075    6.788625   20.365875
Si     5.430900   10.861800    0.000000
Si     5.430900   13.577250    2.715450
Si     8.146350   10.861800    2.715450
Si     8.146350   13.577250    0.000000
Si     6.788625   12.219525    1.357725
Si     9.504075   14.934975    1.357725
Si     6.788625   14.934975    4.073175
Si     9.504075   12.219525    4.073175
Si     5.430900   10.861800    5.430900
Si     5.430900   13.577250    8.146350
Si     8.146350   10.861800    8.146350
Si     8.146350   13.577250    5.430900
Si     6.788625   12.219525    6.788625
Si     9.504075   14.934975    6.788625
Si     6.788625   14.934975    9.504075
Si     9.504075   12.219525    9.504075
Si     5.430900   10.861800   10.861800
Si     5.430900   13.577250   13.577250
Si     8.146350   10.861800   13.577250
Si     8.146350   13.577250   10.861800
Si     6.788625   12.219525   12.219525
Si     9.504075   14.934975   12.219525
Si     6.788625   14.934975   14.934975
Si     9.504075   12.219525   14.934975
Si     5.430900   10.861800   16.292700
Si     5.430900   13.577250   19.008150
Si     8.146350   10.861800   19.008150
Si     8.146350   13.577250   16.292700
Si     6.788625   12.219525   17.650425
Si     9.504075   14.934975   17.650425
Si     6.788625   14.934975   20.365875
Si     9.504075   12.219525   20.365875
Si     5.430900   16.292700    0.000000
Si     5.430900   19.008150    2.715450
Si     8.146350   16.292700    2.715450
Si     8.146350   19.008150    0.000000
Si     6.788625   17.650425    1.357725
Si     9.504075   20.365875    1.357725
Si     6.788625   20.365875    4.073175
Si     9.504075   17.650425    4.073175
Si     5.430900   16.292700    5.430900
Si     5.430900   19.008150    8.146350
Si     8.146350   16.292700    8.146350
Si     8.146350   19.008150    5.430900
Si     6.788625   17.650425    6.788625
Si     9.504075   20.365875    6.788625
Si     6.788625   20.365875    9.504075
Si     9.504075   17.650425    9.504075
Si     5.430900   16.292700   10.861800
Si     5.430900   19.008150   13.577250
Si     8.146350   16.292700   13.577250
Si     8.146350   19.008150   10.861800
Si     6.788625   17.650425   12.219525
Si     9.504075   20.365875   12.219525
Si     6.788625   20.365875   14.934975
Si     9.504075   17.650425   14.934975
Si     5.430900   16.292700   16.292700
Si     5.430900   19.008150   19.008150
Si     8.146350   16.292700   19.008150
Si     8.146350   19.008150   16.292700
Si     6.788625   17.650425   17.650425
Si     9.504075   20.365875   17.650425
Si     6.788625   20.365875   20.365875
Si     9.504075   17.650425   20.365875
Si    10.861800    0.000000    0.000000
Si    10.861800    2.715450    2.715450
Si    13.577250    0.000000    2.715450
Si    13.577250    2.715450    0.000000
Si    12.219525    1.357725    1.357725
Si    14.934975    4.073175    1.357725
Si    12.219525    4.073175    4.073175
Si    14.934975    1.357725    4.073175
Si    10.861800    0.000000    5.430900
Si    10.861800    2.715450    8.146350
Si    13.577250    0.000000    8.146350
Si    13.577250    2.715450    5.430900
Si    12.219525    1.357725    6.788625
Si    14.934975    4.073175    6.788625
Si    12.219525    4.073175    9.504075
Si    14.934975    1.357725    9.504075
Si    10.861800    0.000000   10.861800
Si    10.861800    2.715450   13.577250
Si    13.577250    0.000000   13.577250
Si    13.577250    2.715450   10.861800
Si    12.219525    1.357725   12.219525
Si    14.934975    4.073175   12.219525
Si    12.219525    4.073175   14.934975
Si    14.934975    1.357725   14.934975
Si    10.861800    0.000000   16.292700
Si    10.861800    2.715450   19.008150
Si    13.577250    0.000000   19.008150
Si    13.577250    2.715450   16.292700
Si    12.219525    1.357725   17.650425
Si    14.934975    4.073175   17.650425
Si    12.219525    4.073175   20.365875
Si    14.934975    1.357725   20.365875
Si    10.861800    5.430900    0.000000
Si    10.861800    8.146350    2.715450
Si    13.577250    5.430900    2.715450
Si    13.577250    8.146350    0.000000
Si    12.219525    6.788625    1.357725
Si    14.934975    9.504075    1.357725
Si    12.219525    9.504075    4.073175
Si    14.934975    6.788625    4.073175
Si    10.861800    5.430900    5.430900
Si    10.861800    8.146350    8.146350
Si    13.577250    5.430900    8.146350
Si    13.577250    8.146350    5.430900
Si    12.219525    6.788625    6.788625
Si    14.934975    9.504075    6.788625
Si    12.219525    9.504075    9.504075
Si    14.934975    6.788625    9.504075
Si    10.861800    5.430900   10.861800
Si    10.861800    8.146350   13.577250
Si    13.577250    5.430900   13.577250
Si    13.577250    8.146350   10.861800
Si    12.219525    6.788625   12.219525
Si    14.934975    9.504075   12.219525
Si    12.219525    9.504075   14.934975
Si    14.934975    6.788625   14.934975
Si    10.861800    5.430900   16.292700
Si    10.861800    8.146350   19.008150
Si    13.577250    5.430900   19.008150
Si    13.577250    8.146350   16.292700
Si    12.219525    6.788625   17.650425
Si    14.934975    9.504075   17.650425
Si    12.219525    9.504075   20.365875
Si    14.934975    6.788625   20.365875
Si    10.861800   10.861800    0.000000
Si    10.861800   13.577250    2.715450
Si    13.577250   10.861800    2.715450
Si    13.577250   13.577250    0.000000
Si    12.219525   12.219525    1.357725
Si    14.934975   14.934975    1.357725
Si    12.219525   14.934975    4.073175
Si    14.934975   12.219525    4.073175
Si    10.861800   10.861800    5.430900
Si    10.861800   13.577250    8.146350
Si    13.577250   10.861800    8.146350
Si    13.577250   13.577250    5.430900
Si    12.219525   12.219525    6.788625
Si    14.934975   14.934975    6.788625
Si    12.219525   14.934975    9.504075
Si    14.934975   12.219525    9.504075
Si    10.861800   10.861800   10.861800
Si    10.861800   13.577250   13.577250
Si    13.577250   10.861800   13.577250
Si    13.577250   13.577250   10.861800
Si    12.219525   12.219525   12.219525
Si    14.934975   14.934975   12.219525
Si    12.219525   14.934975   14.934975
Si    14.934975   12.219525   14.934975
Si    10.861800   10.861800   16.292700
Si    10.861800   13.577250   19.008150
Si    13.577250   10.861800   19.008150
Si    13.577250   13.577250   16.292700
Si    12.219525   12.219525   17.650425
Si    14.934975   14.934975   17.650425
Si    12.219525   14.934975   20.365875
Si    14.934975   12.219525   20.365875
Si    10.861800   16.292700    0.000000
Si    10.861800   19.008150    2.715450
Si    13.577250   16.292700    2.715450
Si    13.577250   19.008150    0.000000
Si    12.219525   17.650425    1.357725
Si    14.934975   20.365875    1.357725
Si    12.219525   20.365875    4.073175
Si    14.934975   17.650425    4.073175
Si    10.861800   16.292700    5.430900
Si    10.861800   19.008150    8.146350
Si    13.577250   16.292700    8.146350
Si    13.577250   19.008150    5.430900
Si    12.219525   17.650425    6.788625
Si    14.934975   20.365875    6.788625
Si    12.219525   20.365875    9.504075
Si    14.934975   17.650425    9.504075
Si    10.861800   16.292700   10.861800
Si    10.861800   19.008150   13.577250
Si    13.577250   16.292700   13.577250
Si    13.577250   19.008150   10.861800
Si    12.219525   17.650425   12.219525
Si    14.934975   20.365875   12.219525
Si    12.219525   20.365875   14.934975
Si    14.934975   17.650425   14.934975
Si    10.861800   16.292700   16.292700
Si    10.861800   19.008150   19.008150
Si    13.577250   16.292700   19.008150
Si    13.577250   19.008150   16.292700
Si    12.219525   17.650425   17.650425
Si    14.934975   20.365875   17.650425
Si    12.219525   20.365875   20.365875
Si    14.934975   17.650425   20.365875
Si    16.292700    0.000000    0.000000
Si    16.292700    2.715450    2.715450
Si    19.008150    0.000000    2.715450
Si    19.008150    2.715450    0.000000
Si    17.650425    1.357725    1.357725
Si    20.365875    4.073175    1.357725
Si    17.650425    4.073175    4.073175
Si    20.365875    1.357725    4.073175
Si    16.292700    0.000000    5.430900
Si    16.292700    2.715450    8.146350
Si    19.008150    0.000000    8.146350
Si    19.008150    2.715450    5.430900
Si    17.650425    1.357725    6.788625
Si    20.365875    4.073175    6.788625
Si    17.650425    4.073175    9.504075
Si    20.365875    1.357725    9.504075
Si    16.292700    0.000000   10.861800
Si    16.292700    2.715450   13.577250
Si    19.008150    0.000000   13.577250
Si    19.008150    2.715450   10.861800
Si    17.650425    1.357725   12.219525
Si    20.365875    4.073175   12.219525
Si    17.650425    4.073175   14.934975
Si    20.365875    1.357725   14.934975
Si    16.292700    0.000000   16.292700
Si    16.292700    2.715450   19.008150
Si    19.008150    0.000000   19.008150
Si    19.008150    2.715450   16.292700
Si    17.650425    1.357725   17.650425
Si    20.365875    4.073175   17.650425
Si    17.650425    4.073175   20.365875
Si    20.365875    1.357725   20.365875
Si    16.292700    5.430900    0.000000
Si    16.292700    8.146350    2.715450
Si    19.008150    5.430900    2.715450
Si    19.008150    8.146350    0.000000
Si    17.650425    6.788625    1.357725
Si    20.365875    9.504075    1.357725
Si    17.650425    9.504075    4.073175
Si    20.365875    6.788625    4.073175
Si    16.292700    5.430900    5.430900
Si    16.292700    8.146350    8.146350
Si    19.008150    5.430900    8.146350
Si    19.008150    8.146350    5.430900
Si    17.650425    6.788625    6.788625
Si    20.365875    9.504075    6.788625
Si    17.650425    9.504075    9.504075
Si    20.365875    6.788625    9.504075
Si    16.292700    5.430900   10.861800
Si    16.292700    8.146350   13.577250
Si    19.008150    5.430900   13.577250
Si    19.008150    8.146350   10.861800
Si    17.650425    6.788625   12.219525
Si    20.365875    9.504075   12.219525
Si    17.650425    9.504075   14.934975
Si    20.365875    6.788625   14.934975
Si    16.292700    5.430900   16.292700
Si    16.292700    8.146350   19.008150
Si    19.008150    5.430900   19.008150
Si    19.008150    8.146350   16.292700
Si    17.650425    6.788625   17.650425
Si    20.365875    9.504075   17.650425
Si    17.650425    9.504075   20.365875
Si    20.365875    6.788625   20.365875
Si    16.292700   10.861800    0.000000
Si    16.292700   13.577250    2.715450
Si    19.008150   10.861800    2.715450
Si    19.008150   13.577250    0.000000
Si    17.650425   12.219525    1.357725
Si    20.365875   14.934975    1.357725
Si    17.650425   14.934975    4.073175
Si    20.365875   12.219525    4.073175
Si    16.292700   10.861800    5.430900
Si    16.292700   13.577250    8.146350
Si    19.008150   10.861800    8.146350
Si    19.008150   13.577250    5.430900
Si    17.650425   12.219525    6.788625
Si    20.365875   14.934975    6.788625
Si    17.650425   14.934975    9.504075
Si    20.365875   12.219525    9.504075
Si    16.292700   10.861800   10.861800
Si    16.292700   13.577250   13.577250
Si    19.008150   10.861800   13.577250
Si    19.008150   13.577250   10.861800
Si    17.650425   12.219525   12.219525
Si    20.365875   14.934975   12.219525
Si    17.650425   14.934975   14.934975
Si    20.365875   12.219525   14.934975
Si    16.292700   10.861800   16.292700
Si    16.292700   13.577250   19.008150
Si    19.008150   10.861800   19.008150
Si    19.008150   13.577250   16.292700
Si    17.650425   12.219525   17.650425
Si    20.365875   14.934975   17.650425
Si    17.650425   14.934975   20.365875
Si    20.365875   12.219525   20.365875
Si    16.292700   16.292700    0.000000
Si    16.292700   19.008150    2.715450
Si    19.008150   16.292700    2.715450
Si    19.008150   19.008150    0.000000
Si    17.650425   17.650425    1.357725
Si    20.365875   20.365875    1.357725
Si    17.650425   20.365875    4.073175
Si    20.365875   17.650425    4.073175
Si    16.292700   16.292700    5.430900
Si    16.292700   19.008150    8.146350
Si    19.008150   16.292700    8.146350
Si    19.008150   19.008150    5.430900
Si    17.650425   17.650425    6.788625
Si    20.365875   20.365875    6.788625
Si    17.650425   20.365875    9.504075
Si    20.365875   17.650425    9.504075
Si    16.292700   16.292700   10.861800
Si    16.292700   19.008150   13.577250
Si    19.008150   16.292700   13.577250
Si    19.008150   19.008150   10.861800
Si    17.650425   17.650425   12.219525
Si    20.365875   20.365875   12.219525
Si    17.650425   20.365875   14.934975
Si    20.365875   17.650425   14.934975
Si    16.292700   16.292700   16.292700
Si    16.292700   19.008150   19.008150
Si    19.008150   16.292700   19.008150
Si    19.008150   19.008150   16.292700
Si    17.650425   17.650425   17.650425
Si    20.365875   20.365875   17.650425
Si    17.650425   20.365875   20.365875
Si    20.365875   17.650425   20.365875
    &END COORD
    &PRINT
      &ATOMIC_COORDINATES
      &END
      &INTERATOMIC_DISTANCES OFF
      &END
    &END
  &END SUBSYS
&END FORCE_EVAL
&GLOBAL
  PROJECT Si_tersoff_qmmm
  RUN_TYPE MD
  PRINT_LEVEL LOW
&END GLOBAL
&MOTION
  &PRINT
    &FORCES OFF
    &END FORCES
    &VELOCITIES OFF
    &END
    &RESTART OFF
    &END
    &RESTART_HISTORY OFF
    &END
  &END
  &MD
    ENSEMBLE NVE
    STEPS 3
    TIMESTEP 1.0
    TEMPERATURE 300.0
  &END MD
&END MOTION
