&GLOBAL
  PRINT_LEVEL LOW
  PROJECT_NAME AR4_NATIVE_SKALA_GPW_WRAPPED
  RUN_TYPE ENERGY
&END GLOBAL

&FORCE_EVAL
  METHOD Quickstep
  &DFT
    BASIS_SET_FILE_NAME GTH_BASIS_SETS
    MULTIPLICITY 1
    POTENTIAL_FILE_NAME GTH_POTENTIALS
    UKS FALSE
    &MGRID
      CUTOFF 150
      REL_CUTOFF 30
    &END MGRID
    &POISSON
      PERIODIC XYZ
    &END POISSON
    &QS
      EPS_DEFAULT 1.0E-8
      EXTRAPOLATION USE_PREV_WF
      METHOD GPW
    &END QS
    &SCF
      EPS_SCF 1.0E-5
      IGNORE_CONVERGENCE_FAILURE T
      MAX_SCF 1
      SCF_GUESS ATOMIC
      &DIAGONALIZATION
      &END DIAGONALIZATION
    &END SCF
    &XC
      &XC_FUNCTIONAL
        &GAUXC
          FUNCTIONAL PBE
          MODEL SKALA
          NATIVE_GRID T
          NATIVE_GRID_DIAGNOSTICS T
        &END GAUXC
      &END XC_FUNCTIONAL
    &END XC
  &END DFT
  &SUBSYS
    &CELL
      ABC 5.30 5.30 5.30
      PERIODIC XYZ
    &END CELL
    &COORD
      Ar 2.750000 2.750000 2.750000
      Ar 2.750000 0.100000 0.100000
      Ar 0.100000 2.750000 0.100000
      Ar 0.100000 0.100000 2.750000
    &END COORD
    &KIND Ar
      BASIS_SET DZVP-GTH
      POTENTIAL GTH-PBE-q8
    &END KIND
  &END SUBSYS
&END FORCE_EVAL
