&GLOBAL
  PRINT_LEVEL LOW
  PROJECT_NAME H2_GAPW_SKALA_GTH_ENERGY
  RUN_TYPE ENERGY
&END GLOBAL

&FORCE_EVAL
  METHOD Quickstep
  &DFT
    BASIS_SET_FILE_NAME GTH_BASIS_SETS
    MULTIPLICITY 1
    POTENTIAL_FILE_NAME GTH_POTENTIALS
    UKS FALSE
    &MGRID
      CUTOFF 150
      REL_CUTOFF 30
    &END MGRID
    &POISSON
      PERIODIC NONE
      PSOLVER MT
    &END POISSON
    &QS
      EPS_DEFAULT 1.0E-8
      METHOD GAPW
    &END QS
    &SCF
      EPS_SCF 1.0E-5
      IGNORE_CONVERGENCE_FAILURE T
      MAX_SCF 1
      SCF_GUESS ATOMIC
      &DIAGONALIZATION
      &END DIAGONALIZATION
    &END SCF
    &XC
      &XC_FUNCTIONAL
        &GAUXC
          GRID FINE
          MODEL SKALA
          PRUNING_SCHEME ROBUST
        &END GAUXC
      &END XC_FUNCTIONAL
    &END XC
  &END DFT
  &SUBSYS
    &CELL
      ABC 6.0 6.0 6.0
      PERIODIC NONE
    &END CELL
    &COORD
      H 0.0 0.0 -0.4
      H 0.0 0.0  0.4
    &END COORD
    &KIND H
      BASIS_SET DZVP-GTH
      POTENTIAL GTH-PBE-q1
    &END KIND
  &END SUBSYS
&END FORCE_EVAL
