&GLOBAL
  PRINT_LEVEL LOW
  PROJECT_NAME H2_NATIVE_SKALA_GAPW_ECP_STRESS_DEBUG
  RUN_TYPE DEBUG
&END GLOBAL

&DEBUG
  DEBUG_FORCES F
  DEBUG_STRESS_TENSOR T
  DX 1.0E-3
  EPS_NO_ERROR_CHECK 1.0E-2
  MAX_RELATIVE_ERROR 100.0
  STOP_ON_MISMATCH F
&END DEBUG

&FORCE_EVAL
  METHOD Quickstep
  STRESS_TENSOR DIAGONAL_ANALYTICAL
  &DFT
    MULTIPLICITY 1
    POTENTIAL_FILE_NAME ../regtest-ecp/ECP_BASIS_POT
    UKS FALSE
    &MGRID
      CUTOFF 40
      NGRIDS 4
      REL_CUTOFF 10
    &END MGRID
    &POISSON
      PERIODIC XYZ
    &END POISSON
    &QS
      EPS_DEFAULT 1.0E-8
      EXTRAPOLATION USE_PREV_WF
      METHOD GAPW
    &END QS
    &SCF
      EPS_SCF 1.0E-5
      IGNORE_CONVERGENCE_FAILURE T
      MAX_SCF 1
      SCF_GUESS ATOMIC
      &DIAGONALIZATION
      &END DIAGONALIZATION
    &END SCF
    &XC
      &XC_FUNCTIONAL
        &GAUXC
          MODEL SKALA
          NATIVE_GRID T
          NATIVE_GRID_ATOM_PARTITION SMOOTH
          NATIVE_GRID_DIAGNOSTICS F
        &END GAUXC
      &END XC_FUNCTIONAL
    &END XC
  &END DFT
  &SUBSYS
    &CELL
      ABC 4.0 4.0 4.0
      PERIODIC XYZ
    &END CELL
    &COORD
      H 2.0 2.0 1.6
      H 2.0 2.0 2.4
    &END COORD
    &KIND H
      BASIS_SET DZV-GTH-PADE
      LEBEDEV_GRID 14
      POTENTIAL ECP ccECP
      RADIAL_GRID 20
    &END KIND
  &END SUBSYS
&END FORCE_EVAL
