&GLOBAL
  PRINT_LEVEL LOW
  PROJECT_NAME H2_NATIVE_SKALA_GPW_FORCE
  RUN_TYPE ENERGY_FORCE
&END GLOBAL

&FORCE_EVAL
  METHOD Quickstep
  &DFT
    BASIS_SET_FILE_NAME GTH_BASIS_SETS
    MULTIPLICITY 1
    POTENTIAL_FILE_NAME GTH_POTENTIALS
    UKS FALSE
    &MGRID
      CUTOFF 80
      REL_CUTOFF 20
    &END MGRID
    &POISSON
      PERIODIC XYZ
    &END POISSON
    &QS
      EPS_DEFAULT 1.0E-8
      EXTRAPOLATION USE_PREV_WF
      METHOD GPW
    &END QS
    &SCF
      EPS_SCF 1.0E-5
      IGNORE_CONVERGENCE_FAILURE T
      MAX_SCF 1
      SCF_GUESS ATOMIC
      &DIAGONALIZATION
      &END DIAGONALIZATION
    &END SCF
    &XC
      &XC_FUNCTIONAL
        &GAUXC
          FUNCTIONAL PBE
          MODEL SKALA
          NATIVE_GRID T
          NATIVE_GRID_DIAGNOSTICS F
        &END GAUXC
      &END XC_FUNCTIONAL
    &END XC
  &END DFT
  &PRINT
    &FORCES ON
    &END FORCES
  &END PRINT
  &SUBSYS
    &CELL
      ABC 4.0 4.0 4.0
      PERIODIC XYZ
    &END CELL
    &COORD
      H 2.0 2.0 1.6
      H 2.0 2.0 2.4
    &END COORD
    &KIND H
      BASIS_SET DZVP-GTH
      POTENTIAL GTH-PBE-q1
    &END KIND
  &END SUBSYS
&END FORCE_EVAL
