&GLOBAL
  PRINT_LEVEL LOW
  PROJECT_NAME H2_NATIVE_SKALA_GAPW_GTH_FORCE_DEBUG
  RUN_TYPE DEBUG
&END GLOBAL

&DEBUG
  CHECK_ATOM_FORCE 2 z
  DEBUG_FORCES T
  DEBUG_STRESS_TENSOR F
  DX 1.0E-4
  EPS_NO_ERROR_CHECK 2.0E-4
  STOP_ON_MISMATCH F
&END DEBUG

&FORCE_EVAL
  METHOD Quickstep
  &DFT
    BASIS_SET_FILE_NAME GTH_BASIS_SETS
    MULTIPLICITY 1
    POTENTIAL_FILE_NAME GTH_POTENTIALS
    UKS FALSE
    &MGRID
      CUTOFF 30
      REL_CUTOFF 8
    &END MGRID
    &POISSON
      PERIODIC NONE
      PSOLVER MT
    &END POISSON
    &QS
      ALPHA0_HARD 10
      EPSFIT 1.0E-4
      EPSISO 1.0E-12
      EPSRHO0 1.0E-8
      EPSSVD 0.0
      EPS_DEFAULT 1.0E-7
      EPS_GVG 1.0E-5
      EPS_PGF_ORB 1.0E-6
      EXTRAPOLATION USE_PREV_WF
      LMAXN0 2
      LMAXN1 4
      METHOD GAPW
      QUADRATURE GC_LOG
    &END QS
    &SCF
      EPS_SCF 1.0E-5
      IGNORE_CONVERGENCE_FAILURE T
      MAX_SCF 1
      SCF_GUESS ATOMIC
      &DIAGONALIZATION
      &END DIAGONALIZATION
    &END SCF
    &XC
      &XC_FUNCTIONAL
        &GAUXC
          MODEL SKALA
          NATIVE_GRID T
          NATIVE_GRID_ATOM_PARTITION SMOOTH
          NATIVE_GRID_DIAGNOSTICS F
        &END GAUXC
      &END XC_FUNCTIONAL
    &END XC
  &END DFT
  &SUBSYS
    &CELL
      ABC 4.0 4.0 4.0
      PERIODIC NONE
    &END CELL
    &COORD
      H 2.0 2.0 1.6
      H 2.0 2.0 2.4
    &END COORD
    &KIND H
      BASIS_SET SZV-GTH
      HARD_EXP_RADIUS 1.5117809071370015011
      LEBEDEV_GRID 6
      POTENTIAL GTH-PBE-q1
      RADIAL_GRID 12
    &END KIND
  &END SUBSYS
&END FORCE_EVAL
