&GLOBAL
  PRINT_LEVEL LOW
  PROJECT_NAME HCl_NATIVE_SKALA_GAPW_GPWTYPE_ECP_STRESS
  RUN_TYPE ENERGY_FORCE
&END GLOBAL

&FORCE_EVAL
  METHOD Quickstep
  STRESS_TENSOR ANALYTICAL
  &DFT
    MULTIPLICITY 1
    POTENTIAL_FILE_NAME ../regtest-ecp/ECP_BASIS_POT
    UKS FALSE
    &MGRID
      CUTOFF 60
      NGRIDS 4
      REL_CUTOFF 10
    &END MGRID
    &POISSON
      PERIODIC XYZ
    &END POISSON
    &QS
      EPS_DEFAULT 1.0E-8
      EXTRAPOLATION USE_PREV_WF
      METHOD GAPW
    &END QS
    &SCF
      EPS_SCF 1.0E-5
      IGNORE_CONVERGENCE_FAILURE T
      MAX_SCF 1
      SCF_GUESS ATOMIC
      &DIAGONALIZATION
      &END DIAGONALIZATION
    &END SCF
    &XC
      &XC_FUNCTIONAL
        &GAUXC
          MODEL SKALA
          NATIVE_GRID T
          NATIVE_GRID_ATOM_PARTITION SMOOTH
          NATIVE_GRID_DIAGNOSTICS F
        &END GAUXC
      &END XC_FUNCTIONAL
    &END XC
  &END DFT
  &PRINT
    &FORCES ON
    &END FORCES
    &STRESS_TENSOR
      COMPONENTS
    &END STRESS_TENSOR
  &END PRINT
  &SUBSYS
    &CELL
      ABC 4.0 4.0 4.0
      PERIODIC XYZ
    &END CELL
    &COORD
      Cl 2.00000 2.00000 1.35000
      H  2.00000 2.00000 2.65000
    &END COORD
    &KIND Cl
      BASIS_SET DZVP-GTH-PADE
      GPW_TYPE
      POTENTIAL ECP ccECP
    &END KIND
    &KIND H
      BASIS_SET DZV-GTH-PADE
      GPW_TYPE
      POTENTIAL ECP ccECP
    &END KIND
  &END SUBSYS
&END FORCE_EVAL
