&GLOBAL
  PRINT_LEVEL LOW
  PROJECT_NAME NH3_GAPW_ONEDFT_PBE_FORCE_DEBUG
  RUN_TYPE DEBUG
&END GLOBAL

&DEBUG
  CHECK_ATOM_FORCE 2 z
  DEBUG_FORCES T
  DEBUG_STRESS_TENSOR F
  DX 1.0E-4
  EPS_NO_ERROR_CHECK 5.0E-5
  STOP_ON_MISMATCH T
&END DEBUG

&FORCE_EVAL
  METHOD Quickstep
  &DFT
    BASIS_SET_FILE_NAME BASIS_SET
    MULTIPLICITY 1
    POTENTIAL_FILE_NAME POTENTIAL
    UKS FALSE
    &MGRID
      CUTOFF 800
      REL_CUTOFF 60
    &END MGRID
    &POISSON
      PERIODIC NONE
      POISSON_SOLVER ANALYTIC
    &END POISSON
    &QS
      EPS_DEFAULT 1.0E-10
      METHOD GAPW
    &END QS
    &SCF
      EPS_SCF 1.0E-8
      MAX_SCF 80
      SCF_GUESS ATOMIC
      &DIAGONALIZATION
      &END DIAGONALIZATION
    &END SCF
    &XC
      &XC_FUNCTIONAL
        &GAUXC
          FUNCTIONAL PBE
          GRID SUPERFINE
          MODEL PBE
          PRUNING_SCHEME UNPRUNED
        &END GAUXC
      &END XC_FUNCTIONAL
    &END XC
  &END DFT
  &SUBSYS
    &CELL
      ABC 12.0 12.0 12.0
      PERIODIC NONE
    &END CELL
    &COORD
      N 0.000000 0.000000 0.000000
      H 0.000000 0.937700 -0.382000
      H -0.812100 -0.468850 -0.382000
      H 0.812100 -0.468850 -0.382000
    &END COORD
    &KIND H
      BASIS_SET 6-31G*
      POTENTIAL ALL
    &END KIND
    &KIND N
      BASIS_SET 6-31G*
      POTENTIAL ALL
    &END KIND
  &END SUBSYS
&END FORCE_EVAL
