@SET RESTART_WFN          TRUE
@SET WFN_FILE             water-noconstraint-1_0.wfn
@SET PROJECT_NAME         water-cdft-6
@SET WRITE_WFN            0
@SET BECKE_ACTIVE         TRUE
@SET BECKE_TARGET         8.0
@SET BECKE_STR            0.0
@SET BECKE_GLOBAL_CUTOFF  FALSE
@SET BECKE_CUTOFF_ELEMENT TRUE
@SET BECKE_ADJUST_SIZE    TRUE
@SET BECKE_USE_BOHR       FALSE
@SET BECKE_ATOMIC_CHARGES TRUE
@SET BECKE_CAVITY_CONFINE TRUE
@SET BECKE_CAVITY_SHAPE   SINGLE
@SET BECKE_CAVITY_PRINT   FALSE
@SET BECKE_SHOULD_SKIP    TRUE
@SET BECKE_IN_MEMORY      FALSE
&GLOBAL
  PRINT_LEVEL MEDIUM
  PROJECT ${PROJECT_NAME}
  RUN_TYPE ENERGY
&END GLOBAL

&FORCE_EVAL
  METHOD QS
  @INCLUDE dft-common-params.inc
  @INCLUDE subsys.inc
&END FORCE_EVAL
