@SET RESTART_WFN          TRUE
@SET WFN_FILE             water-noconstraint-1_0.wfn
@SET PROJECT_NAME         water-cdft-3
@SET WRITE_WFN            0

@SET BECKE_ACTIVE         TRUE
@SET BECKE_TARGET         8.0
@SET BECKE_STR            0.0

@SET BECKE_GLOBAL_CUTOFF  FALSE
@SET BECKE_CUTOFF_ELEMENT TRUE

@SET BECKE_ADJUST_SIZE    FALSE

@SET BECKE_ATOMIC_CHARGES TRUE

@SET BECKE_CAVITY_CONFINE TRUE
@SET BECKE_CAVITY_SHAPE   VDW
@SET BECKE_CAVITY_PRINT   FALSE

@SET BECKE_SHOULD_SKIP    FALSE

@SET BECKE_IN_MEMORY      FALSE

&GLOBAL
  PROJECT ${PROJECT_NAME}
  RUN_TYPE ENERGY
  PRINT_LEVEL MEDIUM
&END GLOBAL

&FORCE_EVAL
  METHOD QS
  @include dft-common-params.inc
  @include subsys.inc
&END FORCE_EVAL
