@SET RESTART_WFN          FALSE
@SET PROJECT_NAME         water-noconstraint
@SET WRITE_WFN            1

@SET BECKE_ACTIVE         FALSE
@SET BECKE_TARGET         8.0
@SET BECKE_STR            0.0

@SET BECKE_GLOBAL_CUTOFF  TRUE
@SET BECKE_CUTOFF_ELEMENT FALSE

@SET BECKE_ADJUST_SIZE    FALSE

@SET BECKE_ATOMIC_CHARGES TRUE

@SET BECKE_CAVITY_CONFINE FALSE
@SET BECKE_CAVITY_SHAPE   VDW
@SET BECKE_CAVITY_PRINT   FALSE

@SET BECKE_SHOULD_SKIP    FALSE

@SET BECKE_IN_MEMORY      FALSE

&GLOBAL
  PROJECT ${PROJECT_NAME}
  RUN_TYPE ENERGY
  PRINT_LEVEL MEDIUM
&END GLOBAL

&FORCE_EVAL
  METHOD QS
  @include dft-common-params.inc
  @include subsys.inc
&END FORCE_EVAL
