&GLOBAL
  PROJECT C
  PROGRAM_NAME ATOM
&END GLOBAL
&ATOM
  ELEMENT C
  ELECTRON_CONFIGURATION CORE 2s2 2p2
  CORE [He]
  &METHOD
     METHOD_TYPE  KOHN-SHAM
     &XC
       &XC_FUNCTIONAL PBE 
       &END XC_FUNCTIONAL
     &END XC
  &END METHOD
  &PRINT
    &ANALYZE_BASIS
         OVERLAP_CONDITION_NUMBER T
         COMPLETENESS T
    &END ANALYZE_BASIS
  &END
  &PP_BASIS
     BASIS_TYPE GEOMETRICAL_GTO
  &END PP_BASIS
  &POTENTIAL
    PSEUDO_TYPE GTH
    &GTH_POTENTIAL
    2    4    0    0
    0.241474531885       2  -16.691805741058    2.494605958440
       1
    0.220838245905       1   18.355844903927
    &END
  &END POTENTIAL

&END ATOM
