&GLOBAL
  PROJECT C
  PROGRAM_NAME ATOM
&END GLOBAL
&ATOM
  ELEMENT C
  ELECTRON_CONFIGURATION  1s2 2s2 2p2
  &METHOD
     METHOD_TYPE  KOHN-SHAM
     &XC
       &XC_FUNCTIONAL PBE
       &END XC_FUNCTIONAL
     &END XC
  &END METHOD
  &PRINT
    &ANALYZE_BASIS
      OVERLAP_CONDITION_NUMBER T
      COMPLETENESS T
    &END ANALYZE_BASIS
  &END
  &AE_BASIS
    BASIS_TYPE GEOMETRICAL_GTO
  &END AE_BASIS
&END ATOM
