&GLOBAL
  PROJECT O
  PROGRAM_NAME ATOM
&END GLOBAL
&ATOM
  ELEMENT O
  ELECTRON_CONFIGURATION  CORE 2s2 2p4
  CORE [He]
  MAX_ANGULAR_MOMENTUM 2
  &METHOD
    METHOD_TYPE  KOHN-SHAM
    &XC
      &XC_FUNCTIONAL PBE
      &END XC_FUNCTIONAL
    &END XC
  &END METHOD
  &POTENTIAL
    PSEUDO_TYPE GTH
    &GTH_POTENTIAL
      2    4
      0.24455430    2   -16.66721480     2.48731132
      2
      0.22095592    1    18.33745811
      0.21133247    0
    &END
    CONFINEMENT   1.0  2.87  4.0
  &END POTENTIAL
  &PP_BASIS
    BASIS_TYPE GEOMETRICAL_GTO
  &END PP_BASIS
  &POWELL
    MAX_FUN   10000
  &END
  &PRINT
    &FIT_KGPOT
      NUM_GAUSSIAN  3
      NUM_POLYNOM   2
    &END
  &END PRINT
&END ATOM
