&GLOBAL
  PRINT_LEVEL LOW
  PROJECT CH3_br89_mp2_numer
  RUN_TYPE ENERGY_FORCE
  &TIMINGS
    THRESHOLD 0.01
  &END TIMINGS
&END GLOBAL

&FORCE_EVAL
  METHOD Quickstep
  STRESS_TENSOR ANALYTICAL
  &DFT
    BASIS_SET_FILE_NAME GTH_BASIS_SETS
    BASIS_SET_FILE_NAME HFX_BASIS
    MULTIPLICITY 2
    POTENTIAL_FILE_NAME POTENTIAL
    UKS
    &MGRID
      CUTOFF 50
      REL_CUTOFF 20
    &END MGRID
    &QS
      EPS_DEFAULT 1.0E-10
      METHOD GPW
    &END QS
    &SCF
      EPS_SCF 1.0E-5
      MAX_SCF 100
      SCF_GUESS ATOMIC
    &END SCF
    &XC
      2ND_DERIV_ANALYTICAL .FALSE.
      STEP_SIZE 1.0E-2
      NSTEPS 1
      # Not a very useful functional, just for testing
      &XC_FUNCTIONAL
        &MGGA_X_BR89
        &END MGGA_X_BR89
      &END XC_FUNCTIONAL
      &WF_CORRELATION
        MEMORY 500.0
        NUMBER_PROC 1
        &CANONICAL_GRADIENTS
          EPS_CANONICAL 0.1
          FREE_HFX_BUFFER .TRUE.
        &END CANONICAL_GRADIENTS
        &INTEGRALS
          &WFC_GPW
            CUTOFF 20
            REL_CUTOFF 6
          &END WFC_GPW
        &END INTEGRALS
        &RI_MP2
          BLOCK_SIZE -1
        &END RI_MP2
      &END WF_CORRELATION
    &END XC
  &END DFT
  &PRINT
    &FORCES
    &END FORCES
    &STRESS_TENSOR
      COMPONENTS
    &END STRESS_TENSOR
  &END PRINT
  &SUBSYS
    &CELL
      ABC [angstrom] 5.0 5.0 5.0
    &END CELL
    &COORD
      C     0.000     0.000     0.300
      H     0.000     1.173     0.000
      H     0.929    -0.536     0.000
      H    -0.929    -0.536     0.000
    &END COORD
    &KIND H
      BASIS_SET SZV-GTH
      BASIS_SET RI_AUX RI_DZVP-GTH
      POTENTIAL GTH-HF-q1
    &END KIND
    &KIND C
      BASIS_SET SZV-GTH
      BASIS_SET RI_AUX RI_DZVP-GTH
      POTENTIAL GTH-HF-q4
    &END KIND
    &TOPOLOGY
      &CENTER_COORDINATES
      &END CENTER_COORDINATES
    &END TOPOLOGY
  &END SUBSYS
&END FORCE_EVAL
