&FORCE_EVAL
  METHOD Quickstep
  &DFT
    LSD
    BASIS_SET_FILE_NAME ../../../data/EMSL_BASIS_SETS
    POTENTIAL_FILE_NAME ../../../data/POTENTIAL
    &MGRID
      CUTOFF 250
      REL_CUTOFF 50
    &END MGRID
    &QS
      METHOD GAPW
    &END QS
    &POISSON
      PERIODIC NONE
      PSOLVER MT
    &END
    &SCF
      EPS_SCF 1.0E-6
      SCF_GUESS ATOMIC
      &OT off
       PRECONDITIONER FULL_ALL
      &END OT
      MAX_SCF 2 
    &END SCF
    &XC
      &XC_FUNCTIONAL
      &XWPBE
        SCALE_X -0.25
        SCALE_X0 1.0 
        OMEGA 0.11
      &END
      &PBE
        SCALE_X 0.0
        SCALE_C 1.0
      &END PBE
      &END XC_FUNCTIONAL
      &HF
        &SCREENING
          EPS_SCHWARZ 1.0E-10
          EPS_SCHWARZ_FORCES 1.0E-5
        &END
        &INTERACTION_POTENTIAL
          POTENTIAL_TYPE SHORTRANGE
          OMEGA 0.11
        &END
        &MEMORY
          MAX_MEMORY  100
        &END
        FRACTION 0.25
      &END
    &END XC
  &END DFT
  &SUBSYS
    &CELL
      ABC 6.0 6.0 6.0
      PERIODIC NONE
    &END CELL
    &COORD
    C   0.000000    0.000000   -0.065587
    H   0.000000   -0.757136    0.520545
    H   0.000000    0.757136    0.520545
    H   0.757136    0.520545    0.000000
    &END COORD
    &KIND H
      BASIS_SET 6-31Gxx
      POTENTIAL ALL
    &END KIND
    &KIND C
      BASIS_SET 6-31Gxx
      POTENTIAL ALL
    &END KIND
  &END SUBSYS
&END FORCE_EVAL
&GLOBAL
  PROJECT CH3-hybrid-HSE06-lsd
#  TRACE
  PRINT_LEVEL MEDIUM 
&END GLOBAL
