# References GAPW
#            1  11.71610 eV
#            2  13.74523 eV
#            3  13.81581 eV
#
&GLOBAL
  PROJECT H2O_GAPW_XC
  RUN_TYPE ENERGY
  PRINT_LEVEL LOW
&END GLOBAL
&FORCE_EVAL
  METHOD Quickstep
  &PROPERTIES
    &TDDFPT
       NSTATES      3
       MAX_ITER    10
       MAX_KV      10
       CONVERGENCE 1.0e-5
       &XC
         &XC_FUNCTIONAL PBE
         &END XC_FUNCTIONAL
       &END XC
    &END TDDFPT
  &END PROPERTIES

  &DFT
    BASIS_SET_FILE_NAME BASIS_SET
    POTENTIAL_FILE_NAME POTENTIAL
    &MGRID
      CUTOFF 320
    &END MGRID
    &QS
       METHOD GAPW_XC
    &END QS
    &AUXILIARY_DENSITY_MATRIX_METHOD
      METHOD basis_projection
      ADMM_PURIFICATION_METHOD none
      EXCH_CORRECTION_FUNC NONE
    &END
    &SCF
      MAX_SCF 40
      SCF_GUESS ATOMIC 
    &END SCF
    &XC
      &XC_FUNCTIONAL PBE0
      &END XC_FUNCTIONAL
    &END XC
    &POISSON
       PERIODIC NONE
       POISSON_SOLVER MT
    &END
  &END DFT
  &SUBSYS
    &CELL
      ABC  5.0  5.0  5.0
      PERIODIC NONE
    &END CELL
    &COORD
    O   0.000000    0.000000   -0.065587 H2O
    H   0.000000   -0.757136    0.520545 H2O
    H   0.000000    0.757136    0.520545 H2O
    &END COORD
    &TOPOLOGY
     &CENTER_COORDINATES
     &END
    &END
    &KIND H
      BASIS_SET ORB DZVP-GTH-PADE
      BASIS_SET AUX_FIT SZV-GTH-PADE
      POTENTIAL GTH-PADE-q1
    &END KIND
    &KIND O
      BASIS_SET ORB DZVP-GTH-PADE
      BASIS_SET AUX_FIT SZV-GTH-PADE
      POTENTIAL GTH-PADE-q6
    &END KIND
  &END SUBSYS
&END FORCE_EVAL
