&GLOBAL
  PRINT_LEVEL LOW
  PROJECT h2o_gpw_pade_gamma_kpoints
  RUN_TYPE ENERGY
&END GLOBAL

&FORCE_EVAL
  METHOD Quickstep
  &DFT
    &ACTIVE_SPACE
      ACTIVE_ELECTRONS 4
      ACTIVE_ORBITALS 6
      ORBITAL_SELECTION CANONICAL
      &ERI
        METHOD FULL_GPW
        OPERATOR COULOMB
      &END ERI
      &ERI_GPW
        PRINT_LEVEL MEDIUM
      &END ERI_GPW
      &FCIDUMP
        FILENAME __STD_OUT__
      &END FCIDUMP
    &END ACTIVE_SPACE
    &KPOINTS
      SCHEME GAMMA
      WAVEFUNCTIONS REAL
    &END KPOINTS
    &MGRID
      CUTOFF 200
    &END MGRID
    &QS
      EPS_DEFAULT 1.0E-8
    &END QS
    &SCF
      ADDED_MOS 4
      MAX_SCF 30
      SCF_GUESS ATOMIC
      &PRINT
        &RESTART OFF
        &END RESTART
      &END PRINT
    &END SCF
    &XC
      &XC_FUNCTIONAL Pade
      &END XC_FUNCTIONAL
    &END XC
  &END DFT
  &SUBSYS
    &CELL
      ABC 6.0 6.0 6.0
    &END CELL
    &COORD
      H   0.000000   -0.757136    0.520545
      O   0.000000    0.000000   -0.065587
      H   0.000000    0.757136    0.520545
    &END COORD
    &KIND H
      BASIS_SET ORB DZV-GTH-PADE
      POTENTIAL GTH-PADE-q1
    &END KIND
    &KIND O
      BASIS_SET ORB DZVP-GTH-PADE
      POTENTIAL GTH-PADE-q6
    &END KIND
  &END SUBSYS
&END FORCE_EVAL
