@SET PS   IMPLICIT
@SET BC   MIXED_PERIODIC
@SET Diag 0
@SET OT   1
@SET LS   off
@SET RST  off

&GLOBAL
  PROJECT     H2O_mixed_periodic_cuboidal
  RUN_TYPE    ENERGY
  PRINT_LEVEL MEDIUM
&END GLOBAL

&FORCE_EVAL
  METHOD Quickstep
  &DFT
    BASIS_SET_FILE_NAME ../../../data/BASIS_MOLOPT
    POTENTIAL_FILE_NAME ../../../data/GTH_POTENTIALS
    &POISSON
      POISSON_SOLVER ${PS}
      &IMPLICIT
        BOUNDARY_CONDITIONS ${BC}
        MAX_ITER     300
        TOL          1.0E-4
        OR_PARAMETER 1.0E-01
        &DIELECTRIC
          DIELECTRIC_CONSTANT 78.36
          RHO_MIN    1.0E-4
          RHO_MAX    1.0E-3
          DERIVATIVE_METHOD cd3
        &END DIELECTRIC
        &DIRICHLET_BC
          &AA_CUBOIDAL
            v_D      0.01
            X_xtnt   0.5 2.5
            Y_xtnt   0.5 7.5
            Z_xtnt   0.5 7.5
            n_prtn   1 1 1
            smooth  .FALSE.
            smoothing_width 0.2
          &END AA_CUBOIDAL
        &END DIRICHLET_BC
      &END IMPLICIT
    &END POISSON
    &PRINT
      &DIELECTRIC_CUBE off
        STRIDE 1 1 1
      &END DIELECTRIC_CUBE
      &V_HARTREE_CUBE off
        STRIDE 1 1 1
      &END V_HARTREE_CUBE
    &END PRINT
    &MGRID
      CUTOFF 150
      NGRIDS 4
      &RS_GRID
        DISTRIBUTION_TYPE DISTRIBUTED
      &END RS_GRID
    &END MGRID
    &QS
      EPS_DEFAULT 1.0E-10
      LS_SCF ${LS}
      &DISTRIBUTION
        BASIC_OPTIMIZATION .FALSE.
        BASIC_SPATIAL_OPTIMIZATION .TRUE.
      &END DISTRIBUTION
    &END QS
    &LS_SCF
      MAX_SCF    3
      EPS_FILTER 1.0E-7
      EPS_SCF    1.0E-7
      MU        -0.20
      MIXING_FRACTION 0.45
      S_PRECONDITIONER      NONE
      REPORT_ALL_SPARSITIES off
      PERFORM_MU_SCAN       off
      PURIFICATION_METHOD   TRS4 
    &END LS_SCF
    &SCF
      @IF ${Diag}
        SCF_GUESS ATOMIC
        MAX_SCF   3
        EPS_SCF   1.0E-5
        &MIXING
          ALPHA 0.2
        &END MIXING
      @ENDIF
      @IF ${OT}
        SCF_GUESS ATOMIC
        MAX_SCF   3
        EPS_SCF   1.0E-4
        &OT
          MINIMIZER DIIS
          PRECONDITIONER FULL_SINGLE_INVERSE
        &END OT
        &OUTER_SCF
          MAX_SCF 3
          EPS_SCF 1.0E-4
        &END OUTER_SCF
      @ENDIF
      &PRINT
        &RESTART ${RST}
          BACKUP_COPIES 0
          &EACH
            QS_SCF 10
          &END EACH
        &END RESTART
      &END PRINT
    &END SCF
    &XC
      &XC_FUNCTIONAL PBE
      &END XC_FUNCTIONAL
    &END XC
  &END DFT
  &SUBSYS
    &CELL
      ABC 8.0 8.0 8.0
    &END CELL
    &COORD
     O         4.9999870401        4.5606769781        4.5606769833
     H         5.0000000491        4.4536015938        5.5327585878
     H         5.0000000214        5.5327585972        4.4536017371
    &END COORD
    &KIND H
      BASIS_SET DZVP-MOLOPT-SR-GTH
      POTENTIAL GTH-PBE-q1
    &END KIND
    &KIND O
      BASIS_SET DZVP-MOLOPT-SR-GTH
      POTENTIAL GTH-PBE-q6
    &END KIND
  &END SUBSYS
&END FORCE_EVAL
