
&FORCE_EVAL
  METHOD FIST
  &MM
    &FORCEFIELD
      &SPLINE
       EPS_SPLINE 1.E-3
      &END
      &NONBONDED
        &EAM
          atoms Ag Ag
          PARM_FILE_NAME ../EAM_LIB/Ag.pot
        &END EAM
        &EAM
          atoms Pt Pt
          PARM_FILE_NAME ../EAM_LIB/Pt.pot
        &END EAM
        &EAM
          atoms Ag Pt
          PARM_FILE_NAME ../EAM_LIB/PtAg.pot
        &END EAM
      &END NONBONDED
    &END FORCEFIELD
    &POISSON
      &EWALD
        EWALD_TYPE none
      &END EWALD
    &END POISSON
  &END MM
  &SUBSYS
    &CELL
      ABC 7.206 7.206 7.206
    &END CELL
    &COORD
    Pt -3.602999926 -3.602999926 -3.602999926
    Ag -1.801499963 -1.801499963 -3.602999926
    Ag -1.801499963 -3.602999926 -1.801499963
    Ag -3.602999926 -1.801499963 -1.801499963
    Pt -3.602999926 -3.602999926 0.0000000000E+00
    Ag -1.801499963 -1.801499963 0.0000000000E+00
    Ag -1.801499963 -3.602999926 1.801499963
    Ag -3.602999926 -1.801499963 1.801499963
    Ag -3.602999926 0.0000000000E+00 -3.602999926
    Ag -1.801499963 1.801499963 -3.602999926
    Pt -1.801499963 0.0000000000E+00 -1.801499963
    Ag -3.602999926 1.801499963 -1.801499963
    Ag -3.602999926 0.0000000000E+00 0.0000000000E+00
    Pt -1.801499963 1.801499963 0.0000000000E+00
    Ag -1.801499963 0.0000000000E+00 1.801499963
    Ag -3.602999926 1.801499963 1.801499963
    Ag 0.0000000000E+00 -3.602999926 -3.602999926
    Pt 1.801499963 -1.801499963 -3.602999926
    Ag 1.801499963 -3.602999926 -1.801499963
    Ag 0.0000000000E+00 -1.801499963 -1.801499963
    Pt 0.0000000000E+00 -3.602999926 0.0000000000E+00
    Ag 1.801499963 -1.801499963 0.0000000000E+00
    Ag 1.801499963 -3.602999926 1.801499963
    Pt 0.0000000000E+00 -1.801499963 1.801499963
    Ag 0.0000000000E+00 0.0000000000E+00 -3.602999926
    Ag 1.801499963 1.801499963 -3.602999926
    Ag 1.801499963 0.0000000000E+00 -1.801499963
    Ag 0.0000000000E+00 1.801499963 -1.801499963
    Pt 0.0000000000E+00 0.0000000000E+00 0.0000000000E+00
    Ag 1.801499963 1.801499963 0.0000000000E+00
    Ag 1.801499963 0.0000000000E+00 1.801499963
    Ag 0.0000000000E+00 1.801499963 1.801499963
    &END COORD
    &TOPOLOGY
    &END TOPOLOGY
  &END SUBSYS
&END FORCE_EVAL
&GLOBAL
  PROJECT copper
  RUN_TYPE md
&END GLOBAL
&MOTION
  &GEO_OPT
    MINIMIZER BFGS
  &END
  &MD
    ENSEMBLE NVE
    STEPS 100
    TIMESTEP 5.
    TEMPERATURE 85.0
  &END MD
&END MOTION
