&GLOBAL
  PROJECT agpt
  RUN_TYPE md
&END GLOBAL

&MOTION
  &GEO_OPT
    MINIMIZER BFGS
  &END GEO_OPT
  &MD
    ENSEMBLE NVE
    STEPS 100
    TEMPERATURE 85.0
    TIMESTEP 5.
  &END MD
&END MOTION

&FORCE_EVAL
  METHOD FIST
  &MM
    &FORCEFIELD
      &NONBONDED
        &EAM
          ATOMS Ag Ag
          PARM_FILE_NAME ../EAM_LIB/Ag.pot
        &END EAM
        &EAM
          ATOMS Pt Pt
          PARM_FILE_NAME ../EAM_LIB/Pt.pot
        &END EAM
        &EAM
          ATOMS Ag Pt
          PARM_FILE_NAME ../EAM_LIB/PtAg.pot
        &END EAM
      &END NONBONDED
      &SPLINE
        EPS_SPLINE 1.E-3
      &END SPLINE
    &END FORCEFIELD
    &POISSON
      &EWALD
        EWALD_TYPE none
      &END EWALD
    &END POISSON
  &END MM
  &SUBSYS
    &CELL
      ABC 7.206 7.206 7.206
    &END CELL
    &COORD
      Pt -3.602999926 -3.602999926 -3.602999926
      Ag -1.801499963 -1.801499963 -3.602999926
      Ag -1.801499963 -3.602999926 -1.801499963
      Ag -3.602999926 -1.801499963 -1.801499963
      Pt -3.602999926 -3.602999926 0.0000000000E+00
      Ag -1.801499963 -1.801499963 0.0000000000E+00
      Ag -1.801499963 -3.602999926 1.801499963
      Ag -3.602999926 -1.801499963 1.801499963
      Ag -3.602999926 0.0000000000E+00 -3.602999926
      Ag -1.801499963 1.801499963 -3.602999926
      Pt -1.801499963 0.0000000000E+00 -1.801499963
      Ag -3.602999926 1.801499963 -1.801499963
      Ag -3.602999926 0.0000000000E+00 0.0000000000E+00
      Pt -1.801499963 1.801499963 0.0000000000E+00
      Ag -1.801499963 0.0000000000E+00 1.801499963
      Ag -3.602999926 1.801499963 1.801499963
      Ag 0.0000000000E+00 -3.602999926 -3.602999926
      Pt 1.801499963 -1.801499963 -3.602999926
      Ag 1.801499963 -3.602999926 -1.801499963
      Ag 0.0000000000E+00 -1.801499963 -1.801499963
      Pt 0.0000000000E+00 -3.602999926 0.0000000000E+00
      Ag 1.801499963 -1.801499963 0.0000000000E+00
      Ag 1.801499963 -3.602999926 1.801499963
      Pt 0.0000000000E+00 -1.801499963 1.801499963
      Ag 0.0000000000E+00 0.0000000000E+00 -3.602999926
      Ag 1.801499963 1.801499963 -3.602999926
      Ag 1.801499963 0.0000000000E+00 -1.801499963
      Ag 0.0000000000E+00 1.801499963 -1.801499963
      Pt 0.0000000000E+00 0.0000000000E+00 0.0000000000E+00
      Ag 1.801499963 1.801499963 0.0000000000E+00
      Ag 1.801499963 0.0000000000E+00 1.801499963
      Ag 0.0000000000E+00 1.801499963 1.801499963
    &END COORD
    &TOPOLOGY
    &END TOPOLOGY
  &END SUBSYS
&END FORCE_EVAL
