
&FORCE_EVAL
  METHOD FIST
  &MM
    &FORCEFIELD
      &CHARGE
        ATOM AL
        CHARGE 1.2
      &END CHARGE
      &CHARGE
        ATOM O
        CHARGE -0.8
      &END CHARGE
      &NONBONDED
        &WILLIAMS
          atoms AL AL
          A 2.518e14
          B 10.925
          C 20.13e5
          RCUT 8.5
        &END WILLIAMS
        &WILLIAMS
          atoms AL O
          A 128.7e8
          B 8.35
          C .005e6
          RCUT 8.5
        &END WILLIAMS
        &WILLIAMS
          atoms O O
          A 1.136e7
          B 2.76
          C 2.023e6
          RCUT 8.5
        &END WILLIAMS
      &END NONBONDED
    &END FORCEFIELD
    &POISSON
      &EWALD
        EWALD_TYPE spme
        ALPHA .368
        GMAX 25
        O_SPLINE 6
      &END EWALD
    &END POISSON
  &END MM
  &SUBSYS
    &CELL
      A 26.2236461476644 0.508235414971433 0.352095900341464
      B 15.3935301632910 21.2250717093132 0.339884967068496
      C 15.3881435611913 8.04313631389397 19.6199427770879
    &END CELL
    &COORD
    AL  -18.8567449782927       -9.84653151159998       -6.72435609218356
    AL  -15.9194522969308       -8.27705856544774       -2.73274193263499
    AL  -12.7278506256738       -6.71785891856505        1.17410995244948
    AL  -9.62675233277309       -5.09209733909407        4.98363349172688
    AL  -6.57724683550403       -3.30884186179054        8.98644715075822
    AL  -15.7572636476741       -5.59599757757724       -6.61298077049179
    AL  -12.7408600480051       -3.93705085727587       -2.82817318798414
    AL  -9.68900929875013       -2.45733796223791        1.07884789629429
    AL  -6.64642818287584      -0.880734413461268        5.21149969256811
    AL  -3.44028030066410       0.803608344422039        9.02295460035032
    AL  -12.7793540438403       -1.39157568895529       -6.60571921804317
    AL  -9.63589202563410       0.128780412642644       -2.63017166092483
    AL  -6.66514177037503        1.87984662121615        1.22935473300399
    AL  -3.58665988965592        3.42159310898384        5.17952295347728
    AL -0.358695376326726        5.07860079179356        9.00998158534702
    AL  -9.77694667712087        2.77097438903564       -6.47899780935017
    AL  -6.50319682812800        4.36909395530383       -2.58094778604565
    AL  -3.63163049913835        6.03132659803368        1.21998542909763
    AL -0.462064446448078        7.57839272031221        5.13818379975200
    AL   2.64759384693808        9.26360044256153        9.10051514764514
    AL  -6.63630400910596        7.09536631942721       -6.41863349867529
    AL  -3.48804560272737        8.74007672449723       -2.58398489961907
    AL -0.380348122538093        10.3119607930211        1.18404637112672
    AL   2.71517557367351        11.9021249985532        5.33228049603172
    AL   5.70892848195978        13.5784607936613        9.15711237347086
    AL  -13.6916928045163       -9.75078592910823       -6.75208739574750
    AL  -10.5710197148808       -8.14092214234199       -2.72435681118305
    AL  -7.60587456738934       -6.42194640386222        1.14331813376350
    AL  -4.52948813808604       -4.96092852834580        5.03176623539416
    AL  -1.37530973982536       -3.30139636392292        9.07022909889356
    AL  -10.5387574679249       -5.59463036548268       -6.47779286374316
    AL  -7.44438383750407       -3.88458336303317       -2.62227063487554
    AL  -4.53030819386589       -2.33717877908856        1.31136756145883
    AL  -1.43210021649247      -0.653504138678354        5.15402032428717
    AL   1.76003392375537       0.718074744112412        9.09034530884951
    AL  -7.50775995628297       -1.26247349514084       -6.53318561710826
    AL  -4.41375735547667       0.259780208351531       -2.72328342804664
    AL  -1.39901300741582        1.89429398511191        1.33019883696562
    AL   1.78045858865788        3.52314250851563        5.14008197816500
    AL   4.74888018249912        5.14909492629626        9.22125316991469
    AL  -4.41250588095482        2.97791984300187       -6.46755799222064
    AL  -1.28137114673263        4.56781504264704       -2.55774571362517
    AL   1.72239350764846        6.10841794896976        1.22644329829380
    AL   4.86335357509316        7.80984329604204        5.21634580159613
    AL   7.89501925296789        9.33445094432541        9.25491051856208
    AL  -1.44790833897537        7.30011504308242       -6.49147313295895
    AL   1.64869124079559        8.76017655525452       -2.53847161750318
    AL   4.80746437554888        10.3742258585039        1.42215109424088
    AL   7.92760319536220        12.1331077171664        5.34927786885006
    AL   10.9813232588325        13.7252899898327        9.36287029489174
    AL  -8.48625912880814       -9.65675791742328       -6.53578160461756
    AL  -5.34504922949086       -8.13317959475147       -2.71466014904029
    AL  -2.26943486387811       -6.46460848761674        1.33538896001624
    AL  0.701558671845137       -4.83180609146109        5.23708175612279
    AL   3.88111518886098       -3.25250921444504        9.03883439666635
    AL  -5.37559175230614       -5.43788466966063       -6.49228946720554
    AL  -2.34580685697374       -3.84949879043826       -2.63586533012178
    AL  0.740237127828985       -2.31029484717205        1.38956232326792
    AL   3.73925391247495      -0.689168376977886        5.24710845145168
    AL   6.91128076423790        1.00704734530447        9.16253145985467
    AL  -2.18242717570334       -1.33005951918982       -6.44418912786422
    AL  0.790024967179110       0.361849809672692       -2.41309954930273
    AL   3.84390596199325        1.99472441282047        1.33356600678708
    AL   6.94994663249818        3.61016640543621        5.38744066154359
    AL   9.95394753633428        5.32683903603191        9.25713462888950
    AL  0.843741950416219        2.98511091125382       -6.25686990985592
    AL   3.88443065084465        4.69376419950751       -2.36122041187160
    AL   6.97434008895110        6.33853597960306        1.42746284634823
    AL   9.99312262777554        7.95327352791701        5.35998126124119
    AL   13.1858048720883        9.35075055208385        9.15953396079636
    AL   3.94780170178608        7.29497045046477       -6.39522279787074
    AL   6.91003631167062        8.87842138725140       -2.35974277392239
    AL   10.0171963943442        10.5030027826352        1.63274735741214
    AL   13.1863710561635        12.1525933047557        5.46308319748880
    AL   16.1930866535363        13.7804975331315        9.34599704716959
    AL  -3.18318005535618       -9.53650140428452       -6.48530457864604
    AL -6.258935169544433E-002  -7.92985731816279       -2.59012880960504
    AL   3.07550643679662       -6.40435301682026        1.38399168805212
    AL   5.97812258119242       -4.77764321634982        5.35188116441044
    AL   9.02999997970435       -3.16984172065015        9.23162741549511
    AL -0.203999599390623       -5.31445605633471       -6.53159225818209
    AL   2.93563284636735       -3.76189988490371       -2.47022884802085
    AL   5.97477058146006       -2.13605560253044        1.38470988886176
    AL   9.08433078788040      -0.467257693955432        5.31266498853590
    AL   12.2014045699307        1.17490563976889        9.24357526297960
    AL   3.04092684630035       -1.13185135120575       -6.40826926966693
    AL   6.02171302628201       0.521323254201167       -2.40175988415395
    AL   9.11180231922928        2.10679705339942        1.47662572712628
    AL   12.2598637024000        3.79321961435138        5.33273474895357
    AL   15.2688769641595        5.35287838304637        9.37348592707805
    AL   5.96645676768107        3.15406720302678       -6.34187331226398
    AL   9.22571115311006        4.75047376624181       -2.45671089288378
    AL   12.2267008530433        6.24491395413949        1.50759773381331
    AL   15.2429777043210        7.94202052041650        5.49375321197904
    AL   18.3162140768954        9.61426650872115        9.32649261264879
    AL   9.03746453904140        7.34128466338204       -6.31119217708046
    AL   12.2683464777634        9.00167115468364       -2.27561209459063
    AL   15.2347818548927        10.5564581187778        1.60776303269255
    AL   18.4070679818558        12.1288474762668        5.46787338551950
    AL   21.4588699071577        13.6618013025152        9.35994538850066
    AL   2.01677318430900       -9.52477165628964       -6.54786228502843
    AL   5.12462673089402       -7.87077180625063       -2.54253218123401
    AL   8.28426509957190       -6.30645885085599        1.37474953458054
    AL   11.2738364249774       -4.62677076580925        5.39153072008731
    AL   14.2697161034282       -2.98516687609473        9.26278783948074
    AL   5.13899025962829       -5.26211027723290       -6.37609043020268
    AL   8.26612265386773       -3.58025201640953       -2.43921384652431
    AL   11.2037041943006       -2.04841134546828        1.52671167757606
    AL   14.4656102447088      -0.417813923270989        5.30323106817535
    AL   17.3880646322165        1.20101173690869        9.29340012775569
    AL   8.24435422855474      -0.885124706386393       -6.37737906243557
    AL   11.2482604456748       0.625055007398072       -2.31528091278648
    AL   14.3175370912620        2.16090706584576        1.61675087055812
    AL   17.4630221864183        3.79593591147964        5.48800773624772
    AL   20.4668120444164        5.55260871158501        9.33303968105456
    AL   11.2649235644510        3.18216759414794       -6.25371414982563
    AL   14.3777081991899        4.96123498041314       -2.37687685461683
    AL   17.5204741552976        6.54196319521572        1.39689760837231
    AL   20.5240708842162        8.10825676943096        5.56556976129599
    AL   23.6055738810861        9.71568815882987        9.52913608925889
    AL   14.3490396355474        7.42436227761811       -6.33393267766421
    AL   17.4172202023037        9.20013243771331       -2.42813491638419
    AL   20.4826353822078        10.6767101212322        1.54144581228006
    AL   23.6414407611669        12.1524687991770        5.54779272370048
    AL   26.6848459506551        13.9695443336120        9.42495677182521
    AL  -9.52460711075038       -4.95903907677994       -3.29435400472014
    AL  -6.49568193628631       -3.45468644547827       0.496190734061470
    AL  -3.51776230869867       -1.69885167935415        4.43795950848079
    AL -0.335961207400713      -0.118097962285009        8.25559801819507
    AL   2.73582967529662        1.42518042053289        12.3316941370627
    AL  -6.51504136939373      -0.728114162572500       -3.29287219116354
    AL  -3.44044467444396       0.805870399454007       0.663313318904731
    AL -0.321401374964893        2.45419808468930        4.47118363008710
    AL   2.72325903382968        3.96422512418567        8.44577695087403
    AL   5.82819845491078        5.63163544225666        12.3501625548462
    AL  -3.25178980184636        3.54286178603750       -3.36683136956556
    AL -0.448773043090412        5.06091025796929       0.676441309959627
    AL   2.70939186566614        6.77643118149910        4.55546657749829
    AL   5.85578731106424        8.29764522338190        8.48345842153831
    AL   8.87817655068674        9.93961301536229        12.4911929626087
    AL -0.356339807984973        7.59002035157032       -3.26015164853128
    AL   2.79631348543787        9.29851109986913       0.652019904059701
    AL   5.96780585932247        10.9115396302587        4.60623181371048
    AL   8.97821669817613        12.6152950809752        8.61550269123715
    AL   11.9079607533334        14.2605382019983        12.5104002173755
    AL   2.80844045699296        11.9781764181186       -3.21656848743863
    AL   5.76703798407993        13.5612058417116       0.817631900967820
    AL   8.84482753246188        15.2374580008159        4.68612689135573
    AL   11.9984132841155        16.8295130252222        8.66114685824022
    AL   15.1287111598297        18.4641320955448        12.5142205934571
    AL  -4.29437534147663       -4.95449068887870       -3.24354858731752
    AL  -1.31376201684646       -3.32277912741753       0.605618929936097
    AL   1.70966985765909       -1.65867969659541        4.64045967154907
    AL   4.82079092416542      -0.123137888105956        8.48069758605845
    AL   7.95605675937303        1.55129453961075        12.3264507828181
    AL  -1.22375082040949      -0.684737538245732       -3.21851031367175
    AL   1.77269476412914       0.931954050128872       0.666456646704314
    AL   4.97177928664675        2.50121100141775        4.59889697122714
    AL   7.96075225012725        4.19391022893162        8.42938755744290
    AL   11.0597685733347        5.86084354305408        12.3858246309217
    AL   1.85602628090297        3.69023839900511       -3.08171087074410
    AL   4.89780344055787        5.14738213795871       0.820788473626060
    AL   7.98888114117550        6.89119729337974        4.59068242264936
    AL   11.0957066839307        8.36476778933031        8.64454159971308
    AL   14.1488353279733        10.1389398753612        12.3868039913377
    AL   4.89462299075944        7.91008001380317       -3.11397348548128
    AL   8.01302199736778        9.42411347298266       0.781759357590788
    AL   11.0643110530813        11.1469665674076        4.84692403120239
    AL   14.1449411343203        12.6870129306479        8.63341547798043
    AL   17.2973452139931        14.1984013312248        12.6379716721475
    AL   8.05231691718829        12.0397362543629       -3.04952825598203
    AL   10.9890630804558        13.7074492477797       0.818767546708867
    AL   14.0758710829509        15.3108539539470        4.78649311145316
    AL   17.1941356433407        16.9285678605155        8.61481747912198
    AL   20.2887347052035        18.5339839856657        12.6098949691806
    AL  0.896563507663300       -4.77665252880479       -3.21603863895404
    AL   4.07042571958128       -3.21100294640479       0.622697369648429
    AL   7.12721226792657       -1.60180340881286        4.52917060917175
    AL   10.0929411340706      -5.116777461123956E-002   8.46410374927812
    AL   13.1737360459328        1.68529812569816        12.4558562505004
    AL   4.00991837206049      -0.564517453877392       -3.28905939316447
    AL   7.06119905655381        1.00873394453825       0.729609415196179
    AL   10.1669467715019        2.70599493051011        4.59667509547489
    AL   13.1363168255160        4.31803501231185        8.50924387506531
    AL   16.3113631566065        5.79511195778988        12.5980809710346
    AL   7.18476403698685        3.71748549979601       -3.05952448939316
    AL   10.1770346011892        5.19530526403483       0.759337323563938
    AL   13.1234773041127        7.01919379220546        4.64903394625878
    AL   16.2787633124782        8.54944162908517        8.59101349442954
    AL   19.2821482078669        10.1636231590508        12.5575430937477
    AL   10.1373145856972        8.01820556017568       -3.17035802563093
    AL   13.1791748530382        9.46537283838502       0.846470719745482
    AL   16.3629965732602        11.1473797058894        4.77216301313818
    AL   19.3443272281308        12.6528812532210        8.55091994846556
    AL   22.4192608875855        14.3560950066772        12.5249630593290
    AL   13.1547402880762        12.1562809574196       -2.92609234471507
    AL   16.3533460457656        13.7828369905428       0.991227454648675
    AL   19.3405271516964        15.3637907361237        4.94925781667540
    AL   22.4422568720482        17.0582766683208        8.77841884510334
    AL   25.5389603825076        18.6949294003876        12.7079706393892
    AL   6.18247780500397       -4.65623582691171       -3.20191912047969
    AL   9.17761595137368       -3.11355066513503       0.715382433732414
    AL   12.3234267758989       -1.44656583033013        4.66657117664103
    AL   15.3456504364797       0.165595021207410        8.60068030254200
    AL   18.4306966929449        1.79891578364459        12.5762111541559
    AL   9.16323317935247      -0.392741641571394       -3.07186119932640
    AL   12.2691781598228        1.17846120020276       0.798348213659104
    AL   15.4240962741339        2.70233142519928        4.75586528020358
    AL   18.5061914087864        4.30909359916424        8.64401027165008
    AL   21.5775577822685        6.04727884468505        12.5624862825494
    AL   12.3248617895858        3.80988401546946       -2.99814278758067
    AL   15.3921086341083        5.37836826954763       0.777311228054513
    AL   18.4127673405584        6.95829847890502        4.70592041782295
    AL   21.5859172349525        8.63710211341042        8.78320104264295
    AL   24.6843404400485        10.2792346341430        12.6903739274689
    AL   15.3176142415731        8.03767753261108       -3.10104056478298
    AL   18.3565542034772        9.76093379834472       0.865029232564779
    AL   21.6080241506805        11.1967427958956        4.75823235882569
    AL   24.6431053076284        12.8735116535859        8.74882100030291
    AL   27.6265680067778        14.6135861238680        12.6736298313454
    AL   18.5338933752154        12.3753997625206       -3.00991690773317
    AL   21.5332868043330        13.7932888915376       0.930241231279965
    AL   24.6664441354846        15.6228606676682        4.87192841768921
    AL   27.6748128494502        17.1821641616362        8.85523912032497
    AL   30.7844960695595        18.7890221517288        12.7226626054146
    AL   11.4867956401404       -4.65012388882691       -3.10857001176066
    AL   14.4209338223332       -3.00344970064234       0.865936496562940
    AL   17.5816351335741       -1.42175424626282        4.72415905046806
    AL   20.6834523288417       0.371369302268114        8.73196259458196
    AL   23.7070340765251        1.97541897066932        12.5421530289263
    AL   14.4433318062800      -0.341083019302798       -2.98726690806967
    AL   17.5167204817964        1.32932929103445       0.978896221715014
    AL   20.6282856831011        2.87402883584295        4.83283142053385
    AL   23.8060222248073        4.68093250556230        8.71467664455333
    AL   26.8049030444526        6.05519432520167        12.5395170599599
    AL   17.5654722571943        3.90292972775084       -2.99958668693963
    AL   20.5898009237968        5.49478463251190       0.886130967736925
    AL   23.6401881172705        7.08667664315387        4.82178567613098
    AL   26.8372959050577        8.57724339613805        8.74213553662921
    AL   29.9208760509699        10.2824243574790        12.6672278938155
    AL   20.6165451318448        8.11034448414390       -3.05852783998521
    AL   23.6705067119377        9.76771480090944        1.06397695694350
    AL   26.8451936432194        11.3711885877539        4.88670408517777
    AL   29.9487008048304        12.9142397646766        8.79896408942739
    AL   32.9503700842452        14.4168075476616        12.8457914407430
    AL   23.7909953181191        12.2529050101593       -2.79682440380695
    AL   26.8273540028879        14.0534518411900        1.09518803829668
    AL   29.8677301123826        15.6755463526631        4.99835197403641
    AL   32.9568817543869        17.2696708544047        8.94548172355631
    AL   35.9938758105932        18.8795216183346        12.9003720493798
    AL  -15.2733850353700       -7.95428453671031       -5.45399120053493
    AL  -12.2242131695971       -6.37992341539386       -1.50285956201994
    AL  -9.15247325300049       -4.75211158285839        2.39177792195245
    AL  -6.04421279905432       -3.16075770240730        6.42866609590320
    AL  -3.03826372019320       -1.45464034906530        10.2435150720373
    AL  -12.1557300172609       -3.71642366555864       -5.37058556776863
    AL  -9.11348306075930       -2.13246077303416       -1.42234110168538
    AL  -6.09705002236397      -0.516785211149792        2.46119138477389
    AL  -2.97152399751216        1.20870702909179        6.45207816393114
    AL  0.102593639722084        2.73839119877234        10.3221897621062
    AL  -9.07741793921466       0.485763577402711       -5.29971444845564
    AL  -6.00829105755222        2.09851134144539       -1.35717245006204
    AL  -3.05947462630163        3.79186253637860        2.59186404288761
    AL  0.148165456674243        5.32071606225033        6.41818474894303
    AL   3.16864496911435        6.92812626165922        10.4060858161720
    AL  -6.08384903532504        4.77830433681335       -5.17317618552427
    AL  -2.95326299443647        6.36877882720647       -1.27567220861567
    AL  0.131381847902200        7.90168607168100        2.57948440171288
    AL   3.22622012521853        9.61680697829033        6.45324003324861
    AL   6.37886162959207        11.1790492859672        10.3623867831579
    AL  -2.89221254706200        8.96175174859098       -5.24333279595407
    AL  0.166164803045978        10.6623336418011       -1.31668634766142
    AL   3.17796392847558        12.1228780074939        2.67406648833008
    AL   6.38378059780614        13.8135051248825        6.59832141025675
    AL   9.29613070453093        15.4469198737961        10.4561685328823
    AL  -9.94350722243211       -7.86725954879332       -5.41899595056408
    AL  -6.96052158680237       -6.26534396885359       -1.41559614708010
    AL  -3.95765869738466       -4.61010811952920        2.56016446391604
    AL -0.890647360677160       -3.00704855772272        6.48830461839587
    AL   2.39274828607955       -1.42640492291020        10.2757230666015
    AL  -6.93471687478209       -3.55135165349026       -5.23921269255135
    AL  -3.84050215884185       -2.09890664406578       -1.39043697382680
    AL -0.835884901658305      -0.319374286582949        2.63525952217929
    AL   2.31288133473131        1.29126520813535        6.46322505525261
    AL   5.37828103431713        2.77564692593260        10.3214030966048
    AL  -3.92056387183499       0.703993538072261       -5.19959510448191
    AL -0.807138445003689        2.16396809476628       -1.27885840638542
    AL   2.32398031467124        3.79104147206073        2.64428900737773
    AL   5.37335490763663        5.44856928433391        6.48058309943277
    AL   8.38947962048805        6.99544841168440        10.4153760155556
    AL -0.703675328086353        4.77179121768038       -5.21729934128919
    AL   2.23439574840485        6.46817079596257       -1.25176003963067
    AL   5.42309622279353        8.03033597441603        2.59199061452196
    AL   8.46262401055877        9.65392942299683        6.77380384380252
    AL   11.4598956251293        11.3295784141474        10.5729657620158
    AL   2.38684585060611        8.98114884773002       -5.09360476204830
    AL   5.34040628458816        10.7495704661440       -1.19953263429978
    AL   8.43431115879820        12.3741085771621        2.75040818106184
    AL   11.4806568362459        14.0291966117963        6.74471360501765
    AL   14.6481866410339        15.5067756070759        10.5307686768628
    AL  -4.65123943976983       -7.82181063096192       -5.27102024511919
    AL  -1.86005712426922       -6.22205140371432       -1.40244770536452
    AL   1.36095540853280       -4.57434531762292        2.61685964926074
    AL   4.42875785499477       -2.97990980394911        6.47378899800576
    AL   7.47529587916715       -1.26519559865835        10.4627327164064
    AL  -1.72744698493396       -3.49517238101030       -5.21869395799400
    AL   1.35117238517032       -2.06737243040997       -1.35525513378906
    AL   4.41455398284535      -0.319912862035822        2.68551877323844
    AL   7.53072972632844        1.30387104701315        6.60206024493904
    AL   10.6607081681589        2.91319760814777        10.4488435543611
    AL   1.36887429731046       0.781471030901847       -5.15716086964580
    AL   4.39473998810690        2.23117823650636       -1.29336057648038
    AL   7.55751861545089        3.95339039446587        2.66784059344853
    AL   10.6096717495701        5.52790133982843        6.53027943293891
    AL   13.7155040207576        7.24587873710318        10.5051307439236
    AL   4.51721198910358        4.96947923232894       -5.08430337437467
    AL   7.47843965072926        6.57331502256435       -1.22712004265054
    AL   10.5778699087736        8.09832618291875        2.69456729798446
    AL   13.7077221061432        9.90696131670856        6.68836107859334
    AL   16.7730705964317        11.4817935401203        10.5570941756515
    AL   7.51844728547970        9.30715668061663       -5.02346099505004
    AL   10.6007324307887        10.8779042948238      -0.913663800274845
    AL   13.6480309124966        12.3021186985826        2.84006582775079
    AL   16.6821381153134        13.9993765052510        6.73079211254452
    AL   19.8264677240213        15.5545327310501        10.5815607495683
    AL  0.431435085602939       -7.59674565951885       -5.19115757523699
    AL   3.57877962552493       -6.09348675380649       -1.27770289349664
    AL   6.57066262383002       -4.49076367310831        2.62334401799519
    AL   9.69246783035197       -2.84680180871943        6.53409279399695
    AL   12.7368962415858       -1.19812357497904        10.4227947704256
    AL   3.53786878573677       -3.52092925413119       -5.10418335317686
    AL   6.73828422341077       -1.92278127140025       -1.40655906385713
    AL   9.67077165194697      -0.133941255121695        2.61943050000345
    AL   12.8085514351366        1.40647133664568        6.58790776413683
    AL   15.8340273885016        3.01052819615646        10.5023571190985
    AL   6.61159046444474       0.866685903733194       -5.06822010796012
    AL   9.57362720450656        2.50748429342638       -1.22701545467950
    AL   12.8081630939750        3.92834730106553        2.77643397561938
    AL   15.8284043865098        5.69858020206209        6.60206151142973
    AL   18.9350704760810        7.23943066487090        10.5263101327773
    AL   9.68066394683480        5.14390288446032       -5.00810132250840
    AL   12.7364275291677        6.65534119745848       -1.12278224451669
    AL   15.7602161646874        8.15744241566813        2.89382287083683
    AL   18.8811517497765        9.82835962255090        6.74644322276572
    AL   21.9664844936837        11.4239117006562        10.6146263418687
    AL   12.6921698970117        9.35471902120296       -4.92659848879370
    AL   15.8511075295168        10.9807394048983      -0.955086784481524
    AL   18.9060170613964        12.4920473838624        2.81307751738786
    AL   22.0080843643216        14.0235528943161        6.79044322283569
    AL   24.9994990483682        15.7841852490326        10.7378800487188
    AL   5.75312700531240       -7.53616910524572       -5.26975994730009
    AL   8.82735807693369       -5.90653843925089       -1.23540534377584
    AL   11.8840033785103       -4.35968738633758        2.70758985781891
    AL   14.9360238242836       -2.87732793281762        6.56906626400059
    AL   17.9547815979655       -1.16464273505156        10.4920960396947
    AL   8.77734965646737       -3.33712926989050       -5.05457723103154
    AL   11.8543538433709       -1.76296846482947       -1.16908387649808
    AL   14.9174736153424      -0.130901876078881        2.71533940824599
    AL   17.9523359879391        1.42463749166026        6.68058142151506
    AL   21.1760108241417        3.13298078648481        10.5472521640236
    AL   11.9484005195398       0.916580735907206       -5.12470082995335
    AL   14.8888273616551        2.60599741136709       -1.02440981112643
    AL   18.0073772751123        4.13843255021351        2.79747449872784
    AL   21.1122008491460        5.77123453444542        6.72752566161280
    AL   24.2315001727161        7.39242107462795        10.6701075524275
    AL   14.8313230567714        5.12028014616276       -4.92992438526906
    AL   18.0940144856999        6.83491941120942       -1.12605547585533
    AL   20.9799398075734        8.32973337568653        2.87235965551261
    AL   24.2709456839588        9.97419457815229        6.75874504197857
    AL   27.3350329641004        11.6416344420773        10.6305552670286
    AL   18.0745041725655        9.40787112426742       -4.86574233890513
    AL   21.0543247210003        10.9540124074989       -1.06006441917534
    AL   24.1395721351990        12.6161321104272        2.79219570168358
    AL   27.2023554964301        14.2281892376141        6.80038696149609
    AL   30.3664390248752        15.8845398421384        10.7798397789268
    AL  -13.2163048184177       -6.97152582498000       -4.63508902604736
    AL  -10.0838574731015       -5.34082453234566      -0.742362127140018
    AL  -7.11364258860263       -3.62892195826423        3.17148876726261
    AL  -4.01669203457252       -2.07133680694065        7.09210894214904
    AL -0.886783118297143      -0.435192976103217        10.9502926460107
    AL  -10.0854379440463       -2.73476634912393       -4.65791605220145
    AL  -7.00320406772278       -1.08958407720515      -0.675946917837299
    AL  -4.11070905690437       0.605936948664604        3.28743141554581
    AL -0.848456305977567        2.22235001453963        7.08351768493498
    AL   2.14884773441410        3.76986505449413        11.0759810882632
    AL  -6.97194275108297        1.46020278542083       -4.51681250523545
    AL  -3.91746950059653        3.07223755054192      -0.703576335738168
    AL -0.881519658791945        4.68695749695490        3.18487557101250
    AL   2.16636834469869        6.29727238130188        7.28592495762522
    AL   5.17890830757334        7.99988312389724        11.0997463264637
    AL  -3.98238158119632        5.88480919231946       -4.52776377544628