&GLOBAL
  PRINT_LEVEL HIGH
  PROJECT cu_eam_3
  RUN_TYPE ENERGY_FORCE
&END GLOBAL

&FORCE_EVAL
  METHOD FIST
  &MM
    &FORCEFIELD
      &CHARGE
        ATOM Cu
        CHARGE 0.0
      &END CHARGE
      &CHARGE
        ATOM JKL
        CHARGE 0.0
      &END CHARGE
      &NONBONDED
        &EAM
          ATOMS Cu Cu
          PARM_FILE_NAME ../EAM_LIB/CU.pot
        &END EAM
        &EAM
          ATOMS JKL Cu
          PARM_FILE_NAME ../EAM_LIB/CU.pot
        &END EAM
        &EAM
          ATOMS JKL JKL
          PARM_FILE_NAME ../EAM_LIB/CU.pot
        &END EAM
      &END NONBONDED
      &SPLINE
        EPS_SPLINE 1.0E-6
      &END SPLINE
    &END FORCEFIELD
    &POISSON
      &EWALD
        EWALD_TYPE none
      &END EWALD
    &END POISSON
    &PRINT
      &FF_INFO off
        SPLINE_DATA
        SPLINE_INFO
      &END FF_INFO
    &END PRINT
  &END MM
  &PRINT
    &FORCES
      &EACH
      &END EACH
    &END FORCES
  &END PRINT
  &SUBSYS
    &CELL
      ABC 40.764229 39.715716 70.
    &END CELL
    &COORD
      JKL        36.6080047735       36.2811167970        4.6331919138
      CU        -2.8820605829       -2.6986296084        6.7140672782
    &END COORD
    &KIND JKL
      ELEMENT CU
      MASS 99999999
    &END KIND
    &TOPOLOGY
      CONNECTIVITY OFF
    &END TOPOLOGY
  &END SUBSYS
&END FORCE_EVAL
