
&FORCE_EVAL
  METHOD FIST
  &MM
    &FORCEFIELD
      &SPLINE
       EPS_SPLINE 1.E-6
      &END
      &NONBONDED
        &EAM
          atoms Cu Cu
          PARM_FILE_NAME ../EAM_LIB/CU.pot
        &END EAM
      &END NONBONDED
    &END FORCEFIELD
    &POISSON
      &EWALD
        EWALD_TYPE none
      &END EWALD
    &END POISSON
  &END MM
  &SUBSYS
    &CELL
      ABC 1.801499963 1.801499963 1.801499963
      MULTIPLE_UNIT_CELL 1 1 1
    &END CELL
    &COORD
    Cu 0.0000000000E+00 0.0000000000E+00 0.0000000000E+00
    &END COORD
    &TOPOLOGY
      MULTIPLE_UNIT_CELL 1 1 1
      CONNECTIVITY OFF
    &END TOPOLOGY
  &END SUBSYS
  STRESS_TENSOR ANALYTICAL
&END FORCE_EVAL
&GLOBAL
  PROJECT copper
  RUN_TYPE DEBUG
&END GLOBAL
&DEBUG
&END
