&GLOBAL
  PROJECT cu_eam_2
  RUN_TYPE md
&END GLOBAL

&MOTION
  &MD
    ENSEMBLE NPT_I
    STEPS 5
    TEMPERATURE 85.0
    TIMESTEP 5.
    &BAROSTAT
    &END BAROSTAT
    &THERMOSTAT
      &NOSE
      &END NOSE
    &END THERMOSTAT
  &END MD
&END MOTION

&FORCE_EVAL
  METHOD FIST
  STRESS_TENSOR ANALYTICAL
  &MM
    &FORCEFIELD
      &NONBONDED
        &EAM
          ATOMS Cu Cu
          PARM_FILE_NAME ../EAM_LIB/CU.pot
        &END EAM
      &END NONBONDED
      &SPLINE
        EPS_SPLINE 1.E-6
      &END SPLINE
    &END FORCEFIELD
    &POISSON
      &EWALD
        EWALD_TYPE none
      &END EWALD
    &END POISSON
  &END MM
  &SUBSYS
    &CELL
      ABC 7.206 7.206 7.206
    &END CELL
    &COORD
      Cu -3.602999926 -3.602999926 -3.602999926
      Cu -1.801499963 -1.801499963 -3.602999926
      Cu -1.801499963 -3.602999926 -1.801499963
      Cu -3.602999926 -1.801499963 -1.801499963
      Cu -3.602999926 -3.602999926 0.0000000000E+00
      Cu -1.801499963 -1.801499963 0.0000000000E+00
      Cu -1.801499963 -3.602999926 1.801499963
      Cu -3.602999926 -1.801499963 1.801499963
      Cu -3.602999926 0.0000000000E+00 -3.602999926
      Cu -1.801499963 1.801499963 -3.602999926
      Cu -1.801499963 0.0000000000E+00 -1.801499963
      Cu -3.602999926 1.801499963 -1.801499963
      Cu -3.602999926 0.0000000000E+00 0.0000000000E+00
      Cu -1.801499963 1.801499963 0.0000000000E+00
      Cu -1.801499963 0.0000000000E+00 1.801499963
      Cu -3.602999926 1.801499963 1.801499963
      Cu 0.0000000000E+00 -3.602999926 -3.602999926
      Cu 1.801499963 -1.801499963 -3.602999926
      Cu 1.801499963 -3.602999926 -1.801499963
      Cu 0.0000000000E+00 -1.801499963 -1.801499963
      Cu 0.0000000000E+00 -3.602999926 0.0000000000E+00
      Cu 1.801499963 -1.801499963 0.0000000000E+00
      Cu 1.801499963 -3.602999926 1.801499963
      Cu 0.0000000000E+00 -1.801499963 1.801499963
      Cu 0.0000000000E+00 0.0000000000E+00 -3.602999926
      Cu 1.801499963 1.801499963 -3.602999926
      Cu 1.801499963 0.0000000000E+00 -1.801499963
      Cu 0.0000000000E+00 1.801499963 -1.801499963
      Cu 0.0000000000E+00 0.0000000000E+00 0.0000000000E+00
      Cu 1.801499963 1.801499963 0.0000000000E+00
      Cu 1.801499963 0.0000000000E+00 1.801499963
      Cu 0.0000000000E+00 1.801499963 1.801499963
    &END COORD
    &TOPOLOGY
    &END TOPOLOGY
  &END SUBSYS
&END FORCE_EVAL
