&GLOBAL
  PROJECT cu_eam_0
  RUN_TYPE DEBUG
&END GLOBAL

&DEBUG
&END DEBUG

&FORCE_EVAL
  METHOD FIST
  STRESS_TENSOR ANALYTICAL
  &MM
    &FORCEFIELD
      &NONBONDED
        &EAM
          ATOMS Cu Cu
          PARM_FILE_NAME ../EAM_LIB/CU.pot
        &END EAM
      &END NONBONDED
      &SPLINE
        EPS_SPLINE 1.E-6
      &END SPLINE
    &END FORCEFIELD
    &POISSON
      &EWALD
        EWALD_TYPE none
      &END EWALD
    &END POISSON
  &END MM
  &SUBSYS
    &CELL
      ABC 1.801499963 1.801499963 1.801499963
      MULTIPLE_UNIT_CELL 1 1 1
    &END CELL
    &COORD
      Cu 0.0000000000E+00 0.0000000000E+00 0.0000000000E+00
    &END COORD
    &TOPOLOGY
      CONNECTIVITY OFF
      MULTIPLE_UNIT_CELL 1 1 1
    &END TOPOLOGY
  &END SUBSYS
&END FORCE_EVAL
