&GLOBAL
  PROJECT NaCl-H2O
  RUN_TYPE MD
&END GLOBAL

&MOTION
  &MD
    ENSEMBLE NVE
    STEPS 5
    TEMPERATURE 298
    TEMP_TOL 10
    TIMESTEP 0.5
  &END MD
&END MOTION

&FORCE_EVAL
  METHOD FIST
  &MM
    &FORCEFIELD
      PARMTYPE CHM
      PARM_FILE_NAME ../sample_pot/NaCl-H2O.pot
      &NONBONDED
        &BMHFT
          ATOMS IP IP
          MAP_ATOMS Na+ Na+
          RCUT 11.0
        &END BMHFT
        &BMHFT
          ATOMS IM IP
          MAP_ATOMS Cl- Na+
          RCUT 11.0
        &END BMHFT
        &BMHFT
          ATOMS IM IM
          MAP_ATOMS Cl- Cl-
          RCUT 11.0
        &END BMHFT
      &END NONBONDED
    &END FORCEFIELD
    &POISSON
      &EWALD
        ALPHA .44
        EWALD_TYPE spme
        GMAX 60
        O_SPLINE 6
      &END EWALD
    &END POISSON
  &END MM
  &SUBSYS
    &CELL
      ABC 10.5375 10.5375 30.000
    &END CELL
    &TOPOLOGY
      CONNECTIVITY UPSF
      CONN_FILE_NAME ../sample_psf/NaCl-H2O.psf
      COORDINATE PDB
      COORD_FILE_NAME ../sample_pdb/NaCl-H2O.pdb
    &END TOPOLOGY
  &END SUBSYS
&END FORCE_EVAL
