&GLOBAL
  PRINT_LEVEL LOW
  PROJECT Ar-HF-2p-SOC-os
  RUN_TYPE ENERGY
&END GLOBAL

&FORCE_EVAL
  METHOD Quickstep
  &DFT
    AUTO_BASIS RI_XAS MEDIUM
    BASIS_SET_FILE_NAME EMSL_BASIS_SETS
    LSD
    POTENTIAL_FILE_NAME POTENTIAL
    &POISSON
      PERIODIC NONE
      PSOLVER MT
    &END POISSON
    &QS
      METHOD GAPW
    &END QS
    &XAS_TDP
      EXCITATIONS OS_SPIN_CONS
      EXCITATIONS OS_SPIN_FLIP
      GRID Ar 150 150
      N_EXCITED 4
      SPIN_ORBIT_COUPLING
      TAMM_DANCOFF
      &DONOR_STATES
        AT_LIST 1
        DEFINE_EXCITED BY_INDEX
        N_SEARCH 5
        STATE_TYPES 2p
      &END DONOR_STATES
      &KERNEL
        &EXACT_EXCHANGE
          OPERATOR COULOMB
        &END EXACT_EXCHANGE
        &XC_FUNCTIONAL NONE
        &END XC_FUNCTIONAL
      &END KERNEL
    &END XAS_TDP
    &XC
      &HF
      &END HF
      &XC_FUNCTIONAL NONE
      &END XC_FUNCTIONAL
    &END XC
  &END DFT
  &SUBSYS
    &CELL
      ABC 5.0 5.0 5.0
      PERIODIC NONE
    &END CELL
    &COORD
      Ar 2.5 2.5 2.5
    &END COORD
    &KIND Ar
      BASIS_SET 6-31G*
      POTENTIAL ALL
    &END KIND
  &END SUBSYS
&END FORCE_EVAL
