&GLOBAL
  PRINT_LEVEL LOW
  PROJECT He-LDA-extRI_XAS
  RUN_TYPE ENERGY
&END GLOBAL

&FORCE_EVAL
  METHOD Quickstep
  &DFT
    BASIS_SET_FILE_NAME BASIS_def2_QZVP_RI_ALL
    POTENTIAL_FILE_NAME POTENTIAL
    &POISSON
      PERIODIC NONE
      PSOLVER MT
    &END POISSON
    &QS
      METHOD GAPW
    &END QS
    &XAS_TDP
      GRID He 150 250
      N_EXCITED 10
      TAMM_DANCOFF
      &DONOR_STATES
        AT_LIST 1
        DEFINE_EXCITED BY_INDEX
        N_SEARCH 1
        STATE_TYPES 1s
      &END DONOR_STATES
      &KERNEL
        &XC_FUNCTIONAL
          &LDA_XC_TETER93
          &END LDA_XC_TETER93
        &END XC_FUNCTIONAL
      &END KERNEL
    &END XAS_TDP
    &XC
      &XC_FUNCTIONAL PADE
      &END XC_FUNCTIONAL
    &END XC
  &END DFT
  &SUBSYS
    &CELL
      ABC 5.0 5.0 5.0
      PERIODIC NONE
    &END CELL
    &COORD
      He 2.5 2.5 2.5
    &END COORD
    &KIND He
      BASIS_SET def2-QZVP
      BASIS_SET RI_XAS RI-5Z
      POTENTIAL ALL
    &END KIND
  &END SUBSYS
&END FORCE_EVAL
