&GLOBAL
  PROJECT Ne-HF-extRI_XAS
  PRINT_LEVEL LOW
  RUN_TYPE ENERGY
&END GLOBAL
&FORCE_EVAL
  METHOD Quickstep
  &DFT
    BASIS_SET_FILE_NAME BASIS_def2_QZVP_RI_ALL
    POTENTIAL_FILE_NAME POTENTIAL

    &QS
      METHOD GAPW
    &END QS

    &POISSON
      PERIODIC NONE
      PSOLVER MT 
    &END

    &XC
      &XC_FUNCTIONAL NONE
      &END XC_FUNCTIONAL
      &HF
      &END HF
    &END XC

    &XAS_TDP
      &DONOR_STATES
         DEFINE_EXCITED BY_INDEX
         AT_LIST 1 
         STATE_TYPES 1s
         N_SEARCH 1
      &END DONOR_STATES

      TAMM_DANCOFF 

      &KERNEL
         &EXACT_EXCHANGE
            OPERATOR COULOMB
         &END EXACT_EXCHANGE
      &END KERNEL

      &DIAGONALIZATION
         N_EXCITED 10
      &END DIAGONALIZATION
    &END XAS_TDP

  &END DFT
  &SUBSYS
    &CELL
      ABC 5.0 5.0 5.0
      PERIODIC NONE
    &END CELL
    &COORD
      Ne 2.5 2.5 2.5
    &END COORD
    &KIND Ne
      BASIS_SET def2-QZVP
      BASIS_SET RI_XAS RI-5Z
      POTENTIAL ALL
    &END KIND
  &END SUBSYS
&END FORCE_EVAL
