&GLOBAL
  PRINT_LEVEL LOW
  PROJECT Ne-LDA-e_range
  RUN_TYPE ENERGY
&END GLOBAL

&FORCE_EVAL
  METHOD Quickstep
  &DFT
    AUTO_BASIS RI_XAS MEDIUM
    BASIS_SET_FILE_NAME EMSL_BASIS_SETS
    POTENTIAL_FILE_NAME POTENTIAL
    &POISSON
      PERIODIC NONE
      PSOLVER MT
    &END POISSON
    &QS
      METHOD GAPW
    &END QS
    &XAS_TDP
      ENERGY_RANGE 40.0
      GRID Ne 150 150
      TAMM_DANCOFF
      &DONOR_STATES
        AT_LIST 1
        DEFINE_EXCITED BY_INDEX
        N_SEARCH 1
        STATE_TYPES 1s
      &END DONOR_STATES
      &KERNEL
        &XC_FUNCTIONAL
          &LDA_XC_TETER93
          &END LDA_XC_TETER93
        &END XC_FUNCTIONAL
      &END KERNEL
    &END XAS_TDP
    &XC
      &XC_FUNCTIONAL LDA
      &END XC_FUNCTIONAL
    &END XC
  &END DFT
  &SUBSYS
    &CELL
      ABC 5.0 5.0 5.0
      PERIODIC NONE
    &END CELL
    &COORD
      Ne 2.5 2.5 2.5
    &END COORD
    &KIND Ne
      BASIS_SET aug-cc-pVDZ
      POTENTIAL ALL
    &END KIND
  &END SUBSYS
&END FORCE_EVAL
