&GLOBAL
  PROJECT pot_tor
  RUN_TYPE md
&END GLOBAL

&MOTION
  &MD
    ENSEMBLE NVE
    STEPS 1
    TEMPERATURE 298
    TIMESTEP 0.5
  &END MD
&END MOTION

&FORCE_EVAL
  METHOD FIST
  &MM
    &FORCEFIELD
      PARMTYPE CHM
      PARM_FILE_NAME ../sample_pot/pot_tor.pot
    &END FORCEFIELD
    &POISSON
      &EWALD
        ALPHA .44
        EWALD_TYPE spme
        GMAX 24
        O_SPLINE 6
      &END EWALD
    &END POISSON
  &END MM
  &SUBSYS
    &CELL
      ABC 24.955 24.955 24.955
    &END CELL
    &TOPOLOGY
      CHARGE_O
      COORDINATE pdb
      COORD_FILE_NAME ../sample_pdb/butane.pdb
    &END TOPOLOGY
  &END SUBSYS
&END FORCE_EVAL
