&GLOBAL
  PRINT_LEVEL LOW
  PROJECT Si_1000_Lenosky
  RUN_TYPE MD
&END GLOBAL

&MOTION
  &MD
    ENSEMBLE NVE
    STEPS 10
    TEMPERATURE 300.0
    TIMESTEP 1.0
  &END MD
&END MOTION

&FORCE_EVAL
  METHOD EIP
  &EIP
    EIP_MODEL LENOSKY
  &END EIP
  &SUBSYS
    &CELL
      ABC 27.1550 27.1550 27.1550
    &END CELL
    &TOPOLOGY
      COORD_FILE_FORMAT XYZ
      COORD_FILE_NAME ../sample_xyz/Si_1000.xyz
    &END TOPOLOGY
  &END SUBSYS
&END FORCE_EVAL
