&GLOBAL
  PROJECT water_2_rescaleF
  RUN_TYPE md
&END GLOBAL

&MOTION
  &MD
    ENSEMBLE NVE
    STEPS 100
    TEMPERATURE 298
    TIMESTEP 1.0
  &END MD
&END MOTION

&FORCE_EVAL
  METHOD FIST
  &MM
    &FORCEFIELD
      PARMTYPE CHM
      PARM_FILE_NAME ../sample_pot/water.pot
      &CHARGE
        ATOM OT
        CHARGE -0.8476
      &END CHARGE
      &CHARGE
        ATOM HT
        CHARGE 0.4238
      &END CHARGE
      &SPLINE
        EMAX_SPLINE 10000.0
      &END SPLINE
    &END FORCEFIELD
    &POISSON
      &EWALD
        ALPHA .44
        EWALD_TYPE spme
        GMAX 24
        O_SPLINE 6
      &END EWALD
    &END POISSON
  &END MM
  &PRINT
    &FORCES
    &END FORCES
  &END PRINT
  &RESCALE_FORCES
    MAX_FORCE 0.001
  &END RESCALE_FORCES
  &SUBSYS
    &CELL
      ABC 24.955 24.955 24.955
    &END CELL
    &COORD
      O      0.000   0.000   0.000 WAT
      H      1.000   0.000   0.000 WAT
      H      0.000   1.000   0.000 WAT
      O      0.000   0.000   1.000 WAT
      H      0.000   0.000   2.000 WAT
      H      1.000   1.000   1.000 WAT
    &END COORD
    &TOPOLOGY
      CONNECTIVITY PSF
      CONN_FILE_NAME ../sample_psf/water_2.psf
      COORDINATE pdb
      COORD_FILE_NAME ../sample_pdb/water_2.pdb
    &END TOPOLOGY
  &END SUBSYS
&END FORCE_EVAL
