
&FORCE_EVAL
  METHOD Quickstep
  &DFT
    &MGRID
      CUTOFF 200
    &END MGRID
    &QS
      WF_INTERPOLATION PS 3
    &END QS
    &SCF
      SCF_GUESS ATOMIC
    &END SCF
    &XC
      &XC_FUNCTIONAL Pade
      &END XC_FUNCTIONAL
    &END XC
  &END DFT
  &SUBSYS
    &CELL
      ABC 9.865 9.865 9.865
    &END CELL
    &COORD
    O         -4.5803850683        5.3285581925        1.5549187956  H2O
    H         -3.7604943795        5.3979691509        0.9957280291  H2O
    H         -5.1517647165        4.5818585527        1.2298067443  H2O
    O         -0.0853350645        4.2086283268        0.0698550959  H2O
    H         -0.4458356760        3.4770174657        0.6395197808  H2O
    H          0.3947472610        3.8254091463       -0.7127028694  H2O
    O         -1.4953593399        2.6862416221        4.1232392749  H2O
    H         -2.4345155647        2.4676332650        3.8784356776  H2O
    H         -1.2283001498        2.1777287552        4.9355365617  H2O
    O         -2.4547186675       -2.5462518569       -6.1400653424  H2O
    H         -1.9310623144       -2.2135368751       -6.9177655673  H2O
    H         -1.9994156669       -3.3323778647       -5.7345558662  H2O
    O          4.0307830323        0.1541896523        2.1832348870  H2O
    H          4.2649617153        0.0030407446        1.2282232802  H2O
    H          4.0298059872       -0.7109801604        2.6743693524  H2O
    O          2.9508515903       -3.5021479439       -0.9984558712  H2O
    H          2.6012907216       -3.8416252158       -0.1311062448  H2O
    H          3.2096992927       -4.2645560904       -1.5828056040  H2O
    O         -2.8849943607       -4.7998943675       -2.7250617504  H2O
    H         -2.8290557291       -5.7128474339       -2.3337557473  H2O
    H         -2.4725827714       -4.1387532264       -2.1065620145  H2O
    O         -0.5460364145        0.9257191487       -3.7365780782  H2O
    H         -0.1861951294        1.5550058266       -3.0552226038  H2O
    H         -1.4105517068        0.5446772437       -3.4248841444  H2O
    O          4.1766687626        4.0212378784        4.2744137120  H2O
    H          3.2718945174        3.8104366672        3.9184934017  H2O
    H          4.7089478298        4.5040316795        3.5864297165  H2O
    O          5.7315517031        1.4280656998        3.9371209089  H2O
    H          5.1730256551        2.0895717689        4.4272139592  H2O
    H          5.2627649955        1.1327205405        3.1108382109  H2O
    O          0.9873998380       -0.7627887427       -5.4453987938  H2O
    H          1.6389903145       -1.3729883797       -5.0062870082  H2O
    H          0.5324786527       -0.2016118829       -4.7613957454  H2O
    O         -0.7467108707        1.9876035461        1.2498643828  H2O
    H          0.0578055475        1.4522263708        1.4862060503  H2O
    H         -1.2098323871        2.2891163001        2.0771136257  H2O
    O          4.1274462424       -0.2387934100       -3.1480788966  H2O
    H          5.0668759909       -0.4173977956       -3.4224965080  H2O
    H          3.5159015303       -0.8919253175       -3.5830094373  H2O
    O         -2.4736367357        2.7626725932       -1.3927018967  H2O
    H         -1.4969645843        2.7920565667       -1.2056701571  H2O
    H         -2.7729095279        1.8190593913       -1.4915083335  H2O
    O         -0.1207862582       -2.1148716808        2.4052896788  H2O
    H          0.6232723587       -2.6229265153        1.9834012325  H2O
    H          0.2391236518       -1.4926147951        3.0930352850  H2O
    O          0.7298256791        2.8207561294       -2.1942978719  H2O
    H          0.6282747562        3.6816793625       -2.6823874580  H2O
    H          1.6819763598        2.6837177050       -1.9406004319  H2O
    O          4.2627814343       -5.4283037968       -2.6465168989  H2O
    H          5.1724738376       -5.0651109204       -2.4724953419  H2O
    H          4.1582362423       -5.6348648181       -3.6140579297  H2O
    O         -3.1808065581       -0.5137086531       -4.2321566700  H2O
    H         -2.7335388143       -1.2491157918       -4.7310161490  H2O
    H         -3.6213425637        0.1107343005       -4.8691275555  H2O
    O         -1.4496211354        5.2957026724       -4.8032453855  H2O
    H         -1.3655546151        4.4739626409       -5.3576901202  H2O
    H         -2.0835142020        5.1366854390       -4.0531614389  H2O
    O          3.3570242498        2.1970113800       -1.7618362644  H2O
    H          3.3774682996        1.4120915644       -2.3727501609  H2O
    H          3.9192299301        2.9301340077       -2.1308741179  H2O
    O          1.7707232674       -4.0183228450        1.7715689243  H2O
    H          1.1317447276       -4.5304245910        1.2065989576  H2O
    H          1.9692908128       -4.5243308336        2.6047913730  H2O
    O          1.5287170988        1.3774649599        2.7139443575  H2O
    H          2.3403053920        1.1124841766        2.2032169294  H2O
    H          1.3072538829        0.6791987394        3.3870796992  H2O
    O          2.7143098096       -2.4055490440       -4.2584135240  H2O
    H          2.1780554306       -3.2234978648       -4.0764140187  H2O
    H          3.2939072505       -2.5487698773       -5.0542071423  H2O
    O          6.9280763769        0.0934274722       -1.3900127875  H2O
    H          6.1842206078       -0.1104999160       -0.7616617400  H2O
    H          6.7836901318       -0.3796625128       -2.2531879145  H2O
    O         -5.6090445955       -2.5499425427        3.1469085643  H2O
    H         -4.7505231730       -2.4806276893        3.6447732347  H2O
    H         -5.5086314918       -3.1770702063        2.3811664599  H2O
    O          0.8210910565       -4.4023190606        6.5166276367  H2O
    H          0.8793564364       -3.7005013196        7.2193294426  H2O
    H         -0.0013855913       -4.2714756767        5.9724355836  H2O
    O          1.5707779801        3.9293781336        3.7646595048  H2O
    H          1.2482998910        3.0043238585        3.5914100674  H2O
    H          1.3722474354        4.1885036102        4.7044321349  H2O
    O         -2.1154986868       -3.7408042005       -0.2195744478  H2O
    H         -1.3853533857       -4.3917200723       -0.0381105005  H2O
    H         -1.8127860594       -2.8194136830        0.0020950932  H2O
    O          0.9324252672       -1.9642824470       -2.0578908802  H2O
    H          0.1688299440       -1.8204985567       -1.4366168761  H2O
    H          1.7236072025       -2.2952831484       -1.5537058258  H2O
    O          4.5323726147       -1.0281137650       -0.5493793911  H2O
    H          4.2884171579       -1.9921741789       -0.5777703167  H2O
    H          4.2916229813       -0.5907332698       -1.4098854670  H2O
    O         -0.7404716505       -1.2580518328       -0.0297493872  H2O
    H         -1.2736229172       -0.4216557168       -0.1067172862  H2O
    H         -0.3927048837       -1.3557814035        0.8972026023  H2O
    O          3.6469473120        3.0213992952        0.9780366518  H2O
    H          2.7258558443        3.0843010631        1.3486669565  H2O
    H          3.6187847671        2.6406359692        0.0593641372  H2O
    &END COORD
    &KIND H
      BASIS_SET DZVP-GTH-PADE
      POTENTIAL GTH-PADE-q1
    &END KIND
    &KIND O
      BASIS_SET DZVP-GTH-PADE
      POTENTIAL GTH-PADE-q6
    &END KIND
  &END SUBSYS
&END FORCE_EVAL
&GLOBAL

  PROJECT H2O
  RUN_TYPE MD
  PRINT_LEVEL LOW
&END GLOBAL
&MOTION
  &CONSTRAINT
    &G3X3
      DISTANCES 1.88 1.88 3.08
      MOLECULE 1
      ATOMS 1 2 3
    &END G3X3
  &END CONSTRAINT
  &MD
    ENSEMBLE NVE
    STEPS 10
    TIMESTEP 0.5
    TEMPERATURE 300.0
  &END MD
&END MOTION
