&FORCE_EVAL
  METHOD Quickstep
  &DFT
    BASIS_SET_FILE_NAME BASIS_MOLOPT
    POTENTIAL_FILE_NAME GTH_POTENTIALS
    &QS
      LS_SCF
    &END QS
    &POISSON
      PERIODIC NONE
      PSOLVER  MT
    &END POISSON
    &LS_SCF
      MAX_SCF     25
      EPS_SCF     1.0E-8
      S_PRECONDITIONER  NONE
      REPORT_ALL_SPARSITIES OFF
      PURIFICATION_METHOD TRS4
      EXTRAPOLATION_ORDER  1
      &PAO
        MAX_PAO 500
        EPS_PAO 1.0E-5
        PARAMETERIZATION ROTINV
        REGULARIZATION 1.0E-3
        PRECONDITION YES
        LINPOT_PRECONDITION_DELTA 0.01
        LINPOT_INITGUESS_DELTA 0.1
        LINPOT_REGULARIZATION_DELTA 1E-6
        LINPOT_REGULARIZATION_STRENGTH 1E-3
        &LINE_SEARCH
          METHOD ADAPT
        &END LINE_SEARCH
        &PRINT
          &RESTART ON
          &END RESTART
        &END PRINT
      &END PAO
    &END
    &XC
      &XC_FUNCTIONAL PBE
      &END XC_FUNCTIONAL
    &END XC
  &END DFT
  &SUBSYS
    &CELL
      ABC 4.0 4.0 4.0
      PERIODIC NONE
    &END CELL
    &COORD
      H       1.2   0.0   0.0
      H       0.0   0.0   0.0
    &END COORD
    &TOPOLOGY
       &CENTER_COORDINATES
       &END
    &END
    &KIND H
      BASIS_SET DZVP-MOLOPT-GTH
      POTENTIAL GTH-PBE
      PAO_BASIS_SIZE 1
      &PAO_POTENTIAL
        MAXL 0
      &END PAO_POTENTIAL
    &END KIND
  &END SUBSYS
&END FORCE_EVAL
&GLOBAL
  PROJECT H2_dist_1.2_pao
&END GLOBAL
