&GLOBAL
  PRINT_LEVEL MEDIUM
  PROJECT G0W0_kpoints_from_Gamma
  RUN_TYPE ENERGY
  &TIMINGS
    THRESHOLD 0.01
  &END TIMINGS
&END GLOBAL

&FORCE_EVAL
  METHOD Quickstep
  &DFT
    BASIS_SET_FILE_NAME HFX_BASIS
    BASIS_SET_FILE_NAME BASIS_ADMM
    POTENTIAL_FILE_NAME GTH_POTENTIALS
    SORT_BASIS EXP
    &AUXILIARY_DENSITY_MATRIX_METHOD
      ADMM_PURIFICATION_METHOD NONE
      METHOD BASIS_PROJECTION
    &END AUXILIARY_DENSITY_MATRIX_METHOD
    &MGRID
      CUTOFF 100
      REL_CUTOFF 20
    &END MGRID
    &QS
      EPS_DEFAULT 1.0E-15
      EPS_PGF_ORB 1.0E-15
      METHOD GPW
    &END QS
    &SCF
      ADDED_MOS -1
      EPS_SCF 1.0E-5
      MAX_SCF 100
      SCF_GUESS RESTART
      &PRINT
        &RESTART ON
        &END RESTART
      &END PRINT
    &END SCF
    &XC
      &HF
        FRACTION 0.0
        &INTERACTION_POTENTIAL
          CUTOFF_RADIUS 3.0
          POTENTIAL_TYPE TRUNCATED
          T_C_G_DATA t_c_g.dat
        &END INTERACTION_POTENTIAL
        &MEMORY
          EPS_STORAGE_SCALING 0.1
          ! In MB per MPI rank.. use as much as need to get in-core operation
          MAX_MEMORY 0
        &END MEMORY
        &SCREENING
          EPS_SCHWARZ 1.0E-3
          SCREEN_ON_INITIAL_P TRUE
        &END SCREENING
      &END HF
      &WF_CORRELATION
        &INTEGRALS
          SIZE_LATTICE_SUM 3
        &END INTEGRALS
        &LOW_SCALING
          KPOINTS 4 1 4
        &END LOW_SCALING
        &RI_RPA
          ADMM
          RPA_NUM_QUAD_POINTS 6
          &GW
            ANALYTIC_CONTINUATION TWO_POLE
            CORR_OCC 1
            CORR_VIRT 1
            CROSSING_SEARCH NEWTON
            KPOINTS_SELF_ENERGY 2 2 1
            RI_SIGMA_X FALSE
            &KPOINT_SET
              NPOINTS 3
              SPECIAL_POINT 0.5 0.0 0.0
              SPECIAL_POINT 0.0 0.0 0.0
            &END KPOINT_SET
          &END GW
          &HF
            FRACTION 1.0
            &INTERACTION_POTENTIAL
              CUTOFF_RADIUS 3.9
              POTENTIAL_TYPE TRUNCATED
              T_C_G_DATA t_c_g.dat
            &END INTERACTION_POTENTIAL
            &MEMORY
              EPS_STORAGE_SCALING 0.1
              ! In MB per MPI rank.. use as much as need to get in-core operation
              MAX_MEMORY 0
            &END MEMORY
            &SCREENING
              EPS_SCHWARZ 1.0E-6
              SCREEN_ON_INITIAL_P TRUE
            &END SCREENING
          &END HF
        &END RI_RPA
      &END WF_CORRELATION
      &XC_FUNCTIONAL PBE
      &END XC_FUNCTIONAL
    &END XC
  &END DFT
  &SUBSYS
    &CELL
      ABC [angstrom] 8.000 8.000 8.000
      MULTIPLE_UNIT_CELL 1 1 1
      PERIODIC XZ
    &END CELL
    &COORD
      H  0.0 -0.5 -4.5
      O  0.5  0.0  4.5
      H  0.0  0.5 -4.5
    &END COORD
    &KIND H
      BASIS_SET ORB DZVP-GTH
      BASIS_SET RI_AUX RI_DZVP-GTH
      BASIS_SET AUX_FIT cFIT3
      POTENTIAL GTH-PBE-q1
    &END KIND
    &KIND O
      BASIS_SET ORB DZVP-GTH
      BASIS_SET RI_AUX RI_DZVP-GTH
      BASIS_SET AUX_FIT cFIT3
      POTENTIAL GTH-PBE-q6
    &END KIND
    &TOPOLOGY
      MULTIPLE_UNIT_CELL 1 1 1
    &END TOPOLOGY
  &END SUBSYS
&END FORCE_EVAL
