&GLOBAL
  PRINT_LEVEL LOW
  PROJECT h2_manual
  RUN_TYPE ENERGY
&END GLOBAL

&FORCE_EVAL
  METHOD QS
  &DFT
    &ACTIVE_SPACE
      ACTIVE_ELECTRONS 2
      ACTIVE_ORBITALS 2
      ACTIVE_ORBITAL_INDICES 1 2
      ISOLATED_SYSTEM TRUE
      ORBITAL_SELECTION MANUAL
      &ERI
        EPS_INTEGRAL 1E-10
        METHOD FULL_GPW
        OPERATOR <ERF(A*R)/R>
        OPERATOR_PARAMETER 1.0
        PERIODICITY 0 0 0
      &END ERI
      &ERI_GPW
        CUTOFF 250
      &END ERI_GPW
      &FCIDUMP
        FILENAME __STD_OUT__
      &END FCIDUMP
    &END ACTIVE_SPACE
    &MGRID
      CUTOFF 300
    &END MGRID
    &POISSON
      PERIODIC NONE
      POISSON_SOLVER ANALYTIC
    &END POISSON
    &QS
      METHOD GAPW
    &END QS
    &SCF
      ADDED_MOS 3
      EPS_DIIS 1E-003
      EPS_EIGVAL 1E-009
      EPS_SCF 1E-009
      MAX_SCF 20
      &PRINT
        &RESTART OFF
        &END RESTART
      &END PRINT
    &END SCF
    &XC
      &HF
        FRACTION 1.0
        &INTERACTION_POTENTIAL
          OMEGA 1.0
          POTENTIAL_TYPE LONGRANGE
        &END INTERACTION_POTENTIAL
      &END HF
      &XC_FUNCTIONAL
        &LDA_C_PMGB06
          SCALE -1.0
          _OMEGA 1.0
        &END LDA_C_PMGB06
        &LDA_C_PW
        &END LDA_C_PW
        # LDA_X_ERF is the short-range part of the functional
        &LDA_X_ERF
          _OMEGA 1.0
          SCALE 1.0
        &END LDA_X_ERF
      &END XC_FUNCTIONAL
    &END XC
  &END DFT
  &SUBSYS
    &CELL
      ABC 6.0 6.0 6.0
      PERIODIC NONE
    &END CELL
    &COORD
      H 0.0 0.0  0.356
      H 0.0 0.0 -0.356
    &END COORD
    &KIND H
      BASIS_SET 6-31G*
      POTENTIAL ALL
    &END KIND
    &PRINT
      &INTERATOMIC_DISTANCES ON
      &END INTERATOMIC_DISTANCES
    &END PRINT
  &END SUBSYS
&END FORCE_EVAL
