&GLOBAL                                                                                           
  PROJECT     CH_mp2_lr
  PRINT_LEVEL LOW
  RUN_TYPE    ENERGY_FORCE
&END GLOBAL
&FORCE_EVAL
  METHOD Quickstep
  STRESS_TENSOR ANALYTICAL
  &DFT
    BASIS_SET_FILE_NAME  HFX_BASIS
    POTENTIAL_FILE_NAME  POTENTIAL
    UKS
    MULTIPLICITY  2
    &MGRID
      CUTOFF     100
      REL_CUTOFF  30
    &END MGRID
    &QS
      METHOD GPW
      EPS_DEFAULT 1.0E-10
    &END QS
    &SCF
      SCF_GUESS   ATOMIC
      EPS_SCF     1.0E-4
      MAX_SCF     100
    &END SCF
    &XC
      &XC_FUNCTIONAL NONE
      &END XC_FUNCTIONAL
      &HF
        FRACTION 1.0000000
        &SCREENING
          SCREEN_ON_INITIAL_P .FALSE.
          EPS_SCHWARZ         1.0E-5
          EPS_SCHWARZ_FORCES  1.0E-4
        &END SCREENING
        &INTERACTION_POTENTIAL
          POTENTIAL_TYPE TRUNCATED
          CUTOFF_RADIUS 1.5
          T_C_G_DATA t_c_g.dat
        &END
      &END HF
      &WF_CORRELATION
        &RI_MP2
          BLOCK_SIZE  1
          EPS_CANONICAL 0.0001
          FREE_HFX_BUFFER .TRUE.
          &CPHF
            EPS_CONV  1.0E-2
            MAX_ITER  10
          &END
        &END
        &RI
          &RI_METRIC
            POTENTIAL_TYPE LONGRANGE
            OMEGA 2.0
          &END RI_METRIC
        &END RI
        &INTEGRALS
          ERI_METHOD GPW
          &INTERACTION_POTENTIAL
            POTENTIAL_TYPE LONGRANGE
            ! This large value of omega is used to make sure that the matrices are still invertible
            OMEGA 2.0
          &END INTERACTION_POTENTIAL
          &WFC_GPW
            CUTOFF  30
            REL_CUTOFF 20
            EPS_GRID 1.0E-6
            EPS_FILTER 1.0E-6
          &END WFC_GPW
        &END INTEGRALS
        MEMORY       1.00
        NUMBER_PROC  1
      &END
    &END XC
  &END DFT
  &PRINT
    &STRESS_TENSOR
    &END STRESS_TENSOR
  &END
  &SUBSYS
    &CELL
      ABC [angstrom]  5.0 5.0 5.0
    &END CELL
    &KIND H
      BASIS_SET         DZVP-GTH
      BASIS_SET RI_AUX  RI_DZVP-GTH
      POTENTIAL         GTH-PBE-q1
    &END KIND
    &KIND C
      BASIS_SET         DZVP-GTH
      BASIS_SET RI_AUX  RI_DZVP-GTH
      POTENTIAL         GTH-PBE-q4
    &END KIND
    &COORD
        C     0.000     0.000     0.300
        H     0.000     1.173     0.000
        H     0.929    -0.536     0.000
        H    -0.929    -0.536     0.000
    &END
    &TOPOLOGY
      &CENTER_COORDINATES
      &END
    &END TOPOLOGY
  &END SUBSYS
&END FORCE_EVAL
