&GLOBAL
  PRINT_LEVEL MEDIUM
  PROJECT_NAME quartz-kv-ksg
  RUN_TYPE CELL_OPT
&END GLOBAL

&MOTION
  &CELL_OPT
    EPS_SYMMETRY 1e-4
    KEEP_ANGLES T
    KEEP_SPACE_GROUP T
    KEEP_SYMMETRY T
    KEEP_VOLUME T
    MAX_ITER 1
    OPTIMIZER BFGS
    &BFGS
      TRUST_RADIUS 1.0E-1
    &END BFGS
  &END CELL_OPT
  &PRINT
    &CELL ON
    &END CELL
    &RESTART_HISTORY OFF
    &END RESTART_HISTORY
  &END PRINT
&END MOTION

&FORCE_EVAL
  METHOD QS
  STRESS_TENSOR ANALYTICAL
  &DFT
    BASIS_SET_FILE_NAME BASIS_MOLOPT
    CHARGE 0
    MULTIPLICITY 1
    POTENTIAL_FILE_NAME GTH_POTENTIALS
    &POISSON
      PERIODIC XYZ
      POISSON_SOLVER PERIODIC
    &END POISSON
    &SCF
      EPS_SCF 1.E-5
      MAX_SCF 6
      SCF_GUESS ATOMIC
      &OT T
        MINIMIZER CG
        PRECONDITIONER FULL_ALL
      &END OT
      &OUTER_SCF T
        EPS_SCF 1.E-5
        MAX_SCF 10
      &END OUTER_SCF
      &PRINT
        &RESTART OFF
        &END RESTART
      &END PRINT
    &END SCF
    &XC
      &XC_FUNCTIONAL PBE
      &END XC_FUNCTIONAL
    &END XC
  &END DFT
  &SUBSYS
    &CELL
      ABC 4.9159998894 4.9159998894 5.4053997993
      ALPHA_BETA_GAMMA 90.00 90.00 120.00
      MULTIPLE_UNIT_CELL 1 1 1
      PERIODIC XYZ
      SYMMETRY HEXAGONAL_GAMMA_120
    &END CELL
    &COORD
      Si   0.469699985         0.000000000         0.000000000
      Si   0.000000018         0.469700021         0.666666696
      Si   0.530300031         0.530300048         0.333333348
      O    0.413500032         0.266900007         0.119099996
      O    0.266900018         0.413500038         0.547566700
      O    0.733100016         0.146600017         0.785766692
      O    0.586499976         0.853400010         0.214233330
      O    0.853400027         0.586500031         0.452433344
      O    0.146600008         0.733100006         0.880900004
      UNIT angstrom
      SCALED  T
    &END COORD
    &KIND O
      BASIS_SET ORB SZV-MOLOPT-SR-GTH
      POTENTIAL GTH-PBE
    &END KIND
    &KIND Si
      BASIS_SET ORB SZV-MOLOPT-SR-GTH
      POTENTIAL GTH-PBE
    &END KIND
    &TOPOLOGY
      MULTIPLE_UNIT_CELL 1 1 1
      NUMBER_OF_ATOMS 9
    &END TOPOLOGY
  &END SUBSYS
&END FORCE_EVAL
