&GLOBAL
  PRINT_LEVEL MEDIUM
  PROJECT hBN_gpw_pbe0
  RUN_TYPE ENERGY
&END GLOBAL

&FORCE_EVAL
  METHOD Quickstep
  &DFT
    AUTO_BASIS RI_HFX SMALL
    BASIS_SET_FILE_NAME BASIS_ccGRB_UZH
    BASIS_SET_FILE_NAME BASIS_ADMM_UZH
    POTENTIAL_FILE_NAME POTENTIAL_UZH
    SORT_BASIS EXP
    &AUXILIARY_DENSITY_MATRIX_METHOD
      ADMM_PURIFICATION_METHOD NONE
      EXCH_CORRECTION_FUNC PBEX
    &END AUXILIARY_DENSITY_MATRIX_METHOD
    &KPOINTS
      SCHEME MONKHORST-PACK 3 3 1
    &END KPOINTS
    &MGRID
      CUTOFF 200
      REL_CUTOFF 40
    &END MGRID
    &QS
      METHOD GPW
      PW_GRID_BLOCKED FALSE
    &END QS
    &SCF
      IGNORE_CONVERGENCE_FAILURE
      MAX_SCF 3
      SCF_GUESS ATOMIC
    &END SCF
    &XC
      &HF
        FRACTION 0.25
        &INTERACTION_POTENTIAL
          !this is too small for a real calculation. The only requirement is that it is
          !smaller than N_kp * L/2 in each direction. Potential range has a drastic effect
          !on efficiency, as it greatly increses the number of periodic images to consider
          CUTOFF_RADIUS 0.5
          POTENTIAL_TYPE TRUNCATED
        &END INTERACTION_POTENTIAL
        &RI
          MEMORY_CUT 2
          NGROUPS 2
          RI_METRIC IDENTITY
        &END RI
      &END HF
      &XC_FUNCTIONAL
        &PBE
          SCALE_X 0.75
        &END PBE
      &END XC_FUNCTIONAL
    &END XC
  &END DFT
  &SUBSYS
    &CELL
      !note: this is not a realistic cell, but denser cells would be too expensive for a test
      ABC 6.5 6.5 15.0
      ALPHA_BETA_GAMMA 90.0 90.0 120.0
    &END CELL
    &COORD
      SCALED
      B 0.3333333 0.6666667 0.0
      N 0.6666667 0.3333333 0.0
    &END COORD
    &KIND B
      BASIS_SET ccGRB-D-q3
      BASIS_SET AUX_FIT admm-dz-q3
      POTENTIAL GTH-PBE0-q3
    &END KIND
    &KIND N
      BASIS_SET ccGRB-D-q5
      BASIS_SET AUX_FIT admm-dz-q5
      POTENTIAL GTH-PBE0-q5
    &END KIND
    &TOPOLOGY
    &END TOPOLOGY
  &END SUBSYS
&END FORCE_EVAL
