#CPQA INCLUDE ../../../data/nonscc/nonscc_parameter
#CPQA INCLUDE ../../../data/uff_table
#CPQA INCLUDE ../../../data/nonscc/oo
#CPQA INCLUDE ../../../data/nonscc/oc
#CPQA INCLUDE ../../../data/nonscc/oh
#CPQA INCLUDE ../../../data/nonscc/co
#CPQA INCLUDE ../../../data/nonscc/cc
#CPQA INCLUDE ../../../data/nonscc/ch
#CPQA INCLUDE ../../../data/nonscc/hh
&FORCE_EVAL
  &DFT
    &QS
      METHOD DFTB
      &DFTB
        SELF_CONSISTENT    F
        DISPERSION         T
        ORTHOGONAL_BASIS   F   
        &PARAMETER
          PARAM_FILE_PATH  ../../../data/nonscc
          PARAM_FILE_NAME  nonscc_parameter
          UFF_FORCE_FIELD  ../uff_table
        &END PARAMETER
      &END DFTB
    &END QS
    &SCF
      SCF_GUESS NONE
      &MIXING
          METHOD DIRECT_P_MIXING
          ALPHA   1.
      &END
      MAX_SCF  2
      &PRINT
        &RESTART
          FILENAME =RESTART-ch2o-3
        &END
      &END
    &END SCF
  &END DFT
  &SUBSYS
    &CELL
      ABC 20.0 20.0 20.0
      PERIODIC NONE
    &END CELL
    &COORD
     O     0.051368    0.000000    0.000000     
     C     1.278612    0.000000    0.000000    
     H     1.870460    0.939607    0.000000   
     H     1.870460   -0.939607    0.000000  
    &END COORD
  &END SUBSYS
&END FORCE_EVAL
&GLOBAL
  PROJECT CH2O-1
  RUN_TYPE GEO_OPT
  PRINT_LEVEL LOW
&END GLOBAL
