&GLOBAL
  PRINT_LEVEL HIGH
  PROJECT coo
  RUN_TYPE ENERGY_FORCE
&END GLOBAL

#CPQA INCLUDE DFTB/nonscc/nonscc_parameter
#CPQA INCLUDE uff_table
#CPQA INCLUDE DFTB/nonscc/hh
&FORCE_EVAL
  &DFT
    &QS
      METHOD DFTB
      &DFTB
        SELF_CONSISTENT F
        &PARAMETER
          PARAM_FILE_PATH DFTB/nonscc
          SK_FILE O O oo
          SK_FILE C C cc
          SK_FILE C O co
          SK_FILE O C oc
        &END PARAMETER
      &END DFTB
    &END QS
    &SCF
      SCF_GUESS NONE
      &MIXING
        ALPHA 1.
        METHOD DIRECT_P_MIXING
      &END MIXING
    &END SCF
  &END DFT
  &SUBSYS
    &CELL
      ABC 20.0 20.0 20.0
      PERIODIC NONE
    &END CELL
    &COORD
      C  0.0   0.0    0.0
      O  0.0  0.0  +1.2
      O   0.0  0.0  -1.2
    &END COORD
    &KIND O
      LMAX_DFTB 1
    &END KIND
    &KIND C
      LMAX_DFTB 1
    &END KIND
  &END SUBSYS
&END FORCE_EVAL
