&GLOBAL
  PRINT_LEVEL HIGH
  PROJECT h2-1
  RUN_TYPE ENERGY
&END GLOBAL

#CPQA INCLUDE DFTB/nonscc/nonscc_parameter
#CPQA INCLUDE uff_table
#CPQA INCLUDE DFTB/nonscc/hh
&FORCE_EVAL
  &DFT
    &QS
      METHOD DFTB
      &DFTB
        SELF_CONSISTENT F
        &PARAMETER
          PARAM_FILE_PATH DFTB/nonscc
          SK_FILE H H hh
        &END PARAMETER
      &END DFTB
    &END QS
    &SCF
      SCF_GUESS NONE
      &MIXING
        ALPHA 1.
        METHOD DIRECT_P_MIXING
      &END MIXING
    &END SCF
  &END DFT
  &SUBSYS
    &CELL
      ABC 20.0 20.0 20.0
      PERIODIC NONE
    &END CELL
    &COORD
      H     0.000000    0.000000    0.000000
      H     0.000000    0.700000    0.000000
    &END COORD
  &END SUBSYS
&END FORCE_EVAL
