#CPQA INCLUDE DFTB/nonscc/nonscc_parameter
#CPQA INCLUDE uff_table
#CPQA INCLUDE DFTB/nonscc/mos
#CPQA INCLUDE DFTB/nonscc/momo
#CPQA INCLUDE DFTB/nonscc/smo
#CPQA INCLUDE DFTB/nonscc/ss
&FORCE_EVAL
  &DFT
    &QS
      METHOD DFTB
      &DFTB
        SELF_CONSISTENT    F
        DISPERSION         T
        ORTHOGONAL_BASIS   F   
        &PARAMETER
          PARAM_FILE_PATH  DFTB/nonscc
          SK_FILE  Mo Mo  momo
          SK_FILE  Mo S   mos
          SK_FILE  S  Mo  smo
          SK_FILE  S  S   ss
          UFF_FORCE_FIELD  ../uff_table
        &END PARAMETER
      &END DFTB
    &END QS
    &SCF
      SCF_GUESS NONE
      &MIXING
          METHOD DIRECT_P_MIXING
          ALPHA   1.
      &END
    &END SCF
  &END DFT
  &SUBSYS
    &CELL
      ABC 100.0 100.0 100.0
      PERIODIC NONE
    &END CELL
    &COORD
Mo  0.000000 0.00000 0.00000
S   1.500000 0.00000 0.00000
    &END COORD
  &END SUBSYS
&END FORCE_EVAL
&GLOBAL
  PROJECT MoS
PRINT_LEVEL low
&END GLOBAL
