&GLOBAL
  PRINT_LEVEL HIGH
  PROJECT n2
  RUN_TYPE GEO_OPT
&END GLOBAL

#CPQA INCLUDE DFTB/nonscc/nonscc_parameter
#CPQA INCLUDE uff_table
#CPQA INCLUDE DFTB/nonscc/nn
&FORCE_EVAL
  &DFT
    &QS
      METHOD DFTB
      &DFTB
        ORTHOGONAL_BASIS F
        SELF_CONSISTENT F
        &PARAMETER
          PARAM_FILE_PATH DFTB/nonscc
          SK_FILE N N nn
        &END PARAMETER
      &END DFTB
    &END QS
    &SCF
      SCF_GUESS RANDOM
    &END SCF
  &END DFT
  &SUBSYS
    &CELL
      ABC 20.0 20.0 20.0
      PERIODIC NONE
    &END CELL
    &COORD
      N     0.000000    0.000000    0.000000
      N     1.100000    0.000000    0.000000
    &END COORD
  &END SUBSYS
&END FORCE_EVAL
