#CPQA INCLUDE DFTB/nonscc/nonscc_parameter
#CPQA INCLUDE DFTB/nonscc/sisi-d
#CPQA INCLUDE uff_table
@SET NREP 1
&FORCE_EVAL
  STRESS_TENSOR ANALYTICAL
  &DFT
    &KPOINTS
      EPS_GEO 1.e-8
      FULL_GRID ON
      SCHEME MONKHORST-PACK 2 2 2
      SYMMETRY ON
      VERBOSE F
    &END KPOINTS
    &QS
      EXTRAPOLATION USE_GUESS
      METHOD DFTB
      &DFTB
        DISPERSION T
        ORTHOGONAL_BASIS F
        SELF_CONSISTENT F
        &PARAMETER
          PARAM_FILE_NAME nonscc_parameter
          PARAM_FILE_PATH DFTB/nonscc
          SK_FILE Si Si sisi-d
          UFF_FORCE_FIELD ../uff_table
        &END PARAMETER
      &END DFTB
    &END QS
    &SCF
      SCF_GUESS NONE
      &MIXING
        ALPHA 1.
        METHOD DIRECT_P_MIXING
      &END MIXING
    &END SCF
  &END DFT
  &SUBSYS
    &CELL
      ABC 5.431 5.431 5.431
      MULTIPLE_UNIT_CELL ${NREP} ${NREP} ${NREP}
    &END CELL
    &COORD
      SCALED
      Si     0.010000    0.020000    0.030000
      Si     0.500000    0.500000    0.000000
      Si     0.500000    0.000000    0.500000
      Si     0.000000    0.500000    0.500000
      Si     0.250000    0.250000    0.250000
      Si     0.250000    0.750000    0.750000
      Si     0.750000    0.250000    0.750000
      Si     0.750000    0.750000    0.250000
    &END COORD
    &TOPOLOGY
      MULTIPLE_UNIT_CELL ${NREP} ${NREP} ${NREP}
    &END TOPOLOGY
  &END SUBSYS
&END FORCE_EVAL

&GLOBAL
  PRINT_LEVEL low
  PROJECT Si
  RUN_TYPE DEBUG
&END GLOBAL

&DEBUG
  DEBUG_FORCES T
  DEBUG_STRESS_TENSOR F
  DX 1.0e-3
  STOP_ON_MISMATCH T
&END DEBUG
