&GLOBAL
  PROJECT h2o-gapw-4
  PRINT_LEVEL LOW
  RUN_TYPE LINEAR_RESPONSE
&END GLOBAL
&FORCE_EVAL
  &DFT
    BASIS_SET_FILE_NAME ../../../data/EMSL_BASIS_SETS
    POTENTIAL_FILE_NAME ../../../data/POTENTIAL
    &MGRID
      CUTOFF 70
    &END MGRID
    &QS
      METHOD GAPW
    &END QS
    &SCF
      MAX_SCF 4
      SCF_GUESS ATOMIC
    &END SCF
    &XC
      &XC_FUNCTIONAL BLYP
      &END XC_FUNCTIONAL
    &END XC
  &END DFT
  &PROPERTIES
    &LINRES
       &LOCALIZE
       &END
       MAX_ITER 4
       PRECONDITIONER FULL_ALL
       &CURRENT
          GAUGE ATOM
          GAUGE_ATOM_RADIUS 0.5
       &END CURRENT
       &NMR
          SHIFT_GAPW_RADIUS 0.5
       &END
    &END
  &END
  &SUBSYS
    &CELL
      ABC 4.0 4.0 4.0
    &END CELL
    &COORD
H    0.768381   -0.476437    -0.000000
H   -0.768381   -0.476411    -0.000000
O    0.000000    0.119106    -0.000000
    &END COORD
    &KIND H
      BASIS_SET 3-21G*
      POTENTIAL ALL
    &END KIND
    &KIND O
      BASIS_SET 3-21G*
      POTENTIAL ALL
    &END KIND
  &END SUBSYS
&END FORCE_EVAL
