&GLOBAL
  PROJECT o2-gapw-uks-3
  PRINT_LEVEL LOW
  RUN_TYPE LINEAR_RESPONSE
&END GLOBAL
&FORCE_EVAL
  &DFT
    UNRESTRICTED_KOHN_SHAM T
    MULTIPLICITY 3
    BASIS_SET_FILE_NAME EMSL_BASIS_SETS
    POTENTIAL_FILE_NAME POTENTIAL
    &QS
      METHOD GAPW
    &END QS
    &MGRID
      CUTOFF 150
    &END MGRID
    &SCF
      SCF_GUESS ATOMIC
      MAX_SCF 5
    &END SCF
    &XC
      &XC_FUNCTIONAL BLYP
      &END XC_FUNCTIONAL
    &END XC
  &END DFT
  &PROPERTIES
    &LINRES
       PRECONDITIONER FULL_ALL
       MAX_ITER 10
       &CURRENT
          GAUGE R
       &END CURRENT
       &NMR
          &PRINT
            &CHI_TENSOR
            &END CHI_TENSOR
          &END PRINT
       &END
       &LOCALIZE
         MAX_ITER 10
       &END LOCALIZE
    &END
  &END
  &SUBSYS
    &CELL
      ABC 5.0 5.0 5.0
    &END CELL
    &COORD
 O   0.000000    0.000000    0.615571
 O   0.000000    0.000000   -0.615571
    &END COORD
    &KIND O
      BASIS_SET 6-31G**
      POTENTIAL ALL
    &END KIND
  &END SUBSYS
&END FORCE_EVAL
