&GLOBAL
  PROJECT o2-gapw-uks-4
  PRINT_LEVEL LOW
  RUN_TYPE LINEAR_RESPONSE
&END GLOBAL
&FORCE_EVAL
  &DFT
    UNRESTRICTED_KOHN_SHAM T
    MULTIPLICITY 3
    BASIS_SET_FILE_NAME EMSL_BASIS_SETS
    POTENTIAL_FILE_NAME POTENTIAL
    &QS
      METHOD GAPW
    &END QS
    &MGRID
      CUTOFF 70
    &END MGRID
    &SCF
      SCF_GUESS ATOMIC
      MAX_SCF 4
    &END SCF
    &XC
      &XC_FUNCTIONAL BLYP
      &END XC_FUNCTIONAL
    &END XC
  &END DFT
  &PROPERTIES
    &LINRES
       PRECONDITIONER FULL_ALL
       MAX_ITER 4
       &CURRENT
          GAUGE ATOM
          GAUGE_ATOM_RADIUS 0.5
       &END CURRENT
       &NMR
          SHIFT_GAPW_RADIUS 0.5
       &END
       &LOCALIZE
         MAX_ITER 1
       &END LOCALIZE
    &END
  &END
  &SUBSYS
    &CELL
      ABC 4.0 4.0 4.0
    &END CELL
    &COORD
 O   0.000000    0.000000    0.615571
 O   0.000000    0.000000   -0.615571
    &END COORD
    &KIND O
      BASIS_SET 3-21G*
      POTENTIAL ALL
    &END KIND
  &END SUBSYS
&END FORCE_EVAL
