&GLOBAL
  PREFERRED_DIAG_LIBRARY SL
  PRINT_LEVEL MEDIUM
  PROJECT H2O-128-SOS-MP2-TZ
  RUN_TYPE ENERGY_FORCE
&END GLOBAL

&FORCE_EVAL
  METHOD Quickstep
  &DFT
    BASIS_SET_FILE_NAME BASIS_RI_cc-TZ
    POTENTIAL_FILE_NAME POTENTIAL
    SORT_BASIS EXP
    WFN_RESTART_FILE_NAME ./H2O-128-PBE-TZ-RESTART.wfn
    &MGRID
      CUTOFF 800
      REL_CUTOFF 50
    &END MGRID
    &QS
      EPS_DEFAULT 1.0E-12
    &END QS
    &SCF
      EPS_SCF 1.0E-6
      MAX_SCF 30
      SCF_GUESS RESTART
      &OT
        MINIMIZER DIIS
        PRECONDITIONER FULL_SINGLE_INVERSE
      &END OT
      &OUTER_SCF
        EPS_SCF 1.0E-6
        MAX_SCF 20
      &END OUTER_SCF
      &PRINT
        &RESTART OFF
        &END RESTART
      &END PRINT
    &END SCF
    &XC
      &HF
        FRACTION 1.0
        &INTERACTION_POTENTIAL
          CUTOFF_RADIUS 4.9
          POTENTIAL_TYPE TRUNCATED
          T_C_G_DATA t_c_g.dat
        &END INTERACTION_POTENTIAL
        &MEMORY
          MAX_MEMORY 6000
        &END MEMORY
        &SCREENING
          EPS_SCHWARZ 1.0E-7
        &END SCREENING
      &END HF
      &WF_CORRELATION
        SCALE_S 1.3
        &INTEGRALS
          &WFC_GPW
            CUTOFF 200
            REL_CUTOFF 40
          &END WFC_GPW
        &END INTEGRALS
        &LOW_SCALING
          MEMORY_CUT 4
          MIN_BLOCK_SIZE 6
        &END LOW_SCALING
        &RI
          &RI_METRIC
            POTENTIAL_TYPE IDENTITY
          &END RI_METRIC
        &END RI
        &RI_SOS_MP2
          QUADRATURE_POINTS 8
        &END RI_SOS_MP2
      &END WF_CORRELATION
      &XC_FUNCTIONAL NONE
      &END XC_FUNCTIONAL
    &END XC
  &END DFT
  &SUBSYS
    &CELL
      ABC 15.6404 15.6404 15.6404
    &END CELL
    &KIND H
      BASIS_SET cc-TZ
      BASIS_SET RI_AUX RI_TZ
      POTENTIAL GTH-HF-q1
    &END KIND
    &KIND O
      BASIS_SET cc-TZ
      BASIS_SET RI_AUX RI_TZ
      POTENTIAL GTH-HF-q6
    &END KIND
    &TOPOLOGY
      COORD_FILE_FORMAT XYZ
      COORD_FILE_NAME ./H2O-128.xyz
    &END TOPOLOGY
  &END SUBSYS
&END FORCE_EVAL
