&GLOBAL
  PROJECT C_tersoff
  RUN_TYPE md
&END GLOBAL
&MOTION
  &MD
    ENSEMBLE MSST
    STEPS 10
    TIMESTEP 0.1
    TEMPERATURE 300.0
    &MSST
      V_SHOCK 13500.0
      CMASS 70000000
      PRESSURE 1000.0
    &END MSST
    &BAROSTAT
    &END
    &PRINT
      &ENERGY
        &EACH
          MD 1
        &END
        FILENAME md1.ener
      &END ENERGY
    &END PRINT
  &END MD
  &PRINT
    &CELL
      &EACH
        MD 10
      &END
      FILENAME md1.cell
    &END CELL
    &TRAJECTORY
      &EACH
        MD 10
      &END
      FILENAME md1.xyz
    &END TRAJECTORY
    &VELOCITIES OFF
    &END VELOCITIES
    &RESTART
      &EACH
        MD 1000
      &END
    &END RESTART
    &RESTART_HISTORY OFF
    &END RESTART_HISTORY
    &STRESS
      &EACH
        MD 10
      &END
      FILENAME md1.stress
    &END STRESS
  &END PRINT
&END MOTION
&FORCE_EVAL
  METHOD FIST
  STRESS_TENSOR ANALYTICAL
  &MM
    &FORCEFIELD
      &SPLINE
       EPS_SPLINE 1.E-6
      &END
      &NONBONDED
        &TERSOFF
          ATOMS C  C
          A        1.3936E3
          B        3.467E2
          lambda1  3.4879
          lambda2  2.2119
          alpha    0.00
          beta     1.5724E-7
          n        7.2751E-1
          c        3.8049E4
          d        4.384
          h       -5.7058E-1
          lambda3  0.0000
          bigR     1.95
          bigD     0.15
        &END TERSOFF
      &END NONBONDED
    &END FORCEFIELD
    &POISSON
      &EWALD
        EWALD_TYPE none
      &END EWALD
    &END POISSON
    #&PRINT
    #  &NEIGHBOR_LISTS SILENT
    #  &END NEIGHBOR_LISTS
    #&END PRINT
  &END MM
  &SUBSYS
    &CELL
      ABC  20.10000   12.75000   12.30000
    &END CELL
    &COORD
   C    5.02200   -0.70900   -3.68400
   C    1.67400   -3.54500   -3.68400
   C    1.67400   -2.12700   -3.68400
   C    5.02200   -2.12700   -3.68400
   C    1.67400   -1.41800   -2.45600
   C    5.02200   -2.83600   -2.45600
   C    1.67400    0.00000   -2.45600
   C    5.02200    0.00000   -2.45600
   C   11.72200   -0.70900   -3.68400
   C    8.37400   -3.54500   -3.68400
   C    8.37400   -2.12700   -3.68400
   C   11.72200   -2.12700   -3.68400
   C    8.37400   -1.41800   -2.45600
   C   11.72200   -2.83600   -2.45600
   C    8.37400    0.00000   -2.45600
   C   11.72200    0.00000   -2.45600
   C   18.42200   -0.70900   -3.68400
   C   15.07400   -3.54500   -3.68400
   C   15.07400   -2.12700   -3.68400
   C   18.42200   -2.12700   -3.68400
   C   15.07400   -1.41800   -2.45600
   C   18.42200   -2.83600   -2.45600
   C   15.07400    0.00000   -2.45600
   C   18.42200    0.00000   -2.45600
   C    5.02200    3.54100   -3.68400
   C    1.67400    0.70500   -3.68400
   C    1.67400    2.12300   -3.68400
   C    5.02200    2.12300   -3.68400
   C    1.67400    2.83200   -2.45600
   C    5.02200    1.41400   -2.45600
   C    1.67400    4.25000   -2.45600
   C    5.02200    4.25000   -2.45600
   C   11.72200    3.54100   -3.68400
   C    8.37400    0.70500   -3.68400
   C    8.37400    2.12300   -3.68400
   C   11.72200    2.12300   -3.68400
   C    8.37400    2.83200   -2.45600
   C   11.72200    1.41400   -2.45600
   C    8.37400    4.25000   -2.45600
   C   11.72200    4.25000   -2.45600
   C   18.42200    3.54100   -3.68400
   C   15.07400    0.70500   -3.68400
   C   15.07400    2.12300   -3.68400
   C   18.42200    2.12300   -3.68400
   C   15.07400    2.83200   -2.45600
   C   18.42200    1.41400   -2.45600
   C   15.07400    4.25000   -2.45600
   C   18.42200    4.25000   -2.45600
   C    5.02200    7.79100   -3.68400
   C    1.67400    4.95500   -3.68400
   C    1.67400    6.37300   -3.68400
   C    5.02200    6.37300   -3.68400
   C    1.67400    7.08200   -2.45600
   C    5.02200    5.66400   -2.45600
   C    1.67400    8.50000   -2.45600
   C    5.02200    8.50000   -2.45600
   C   11.72200    7.79100   -3.68400
   C    8.37400    4.95500   -3.68400
   C    8.37400    6.37300   -3.68400
   C   11.72200    6.37300   -3.68400
   C    8.37400    7.08200   -2.45600
   C   11.72200    5.66400   -2.45600
   C    8.37400    8.50000   -2.45600
   C   11.72200    8.50000   -2.45600
   C   18.42200    7.79100   -3.68400
   C   15.07400    4.95500   -3.68400
   C   15.07400    6.37300   -3.68400
   C   18.42200    6.37300   -3.68400
   C   15.07400    7.08200   -2.45600
   C   18.42200    5.66400   -2.45600
   C   15.07400    8.50000   -2.45600
   C   18.42200    8.50000   -2.45600
   C    5.02200   -0.70900   -1.22400
   C    1.67400   -3.54500   -1.22400
   C    1.67400   -2.12700   -1.22400
   C    5.02200   -2.12700   -1.22400
   C    1.67400   -1.41800    0.00400
   C    5.02200   -2.83600    0.00400
   C    1.67400    0.00000    0.00400
   C    5.02200    0.00000    0.00400
   C   11.72200   -0.70900   -1.22400
   C    8.37400   -3.54500   -1.22400
   C    8.37400   -2.12700   -1.22400
   C   11.72200   -2.12700   -1.22400
   C    8.37400   -1.41800    0.00400
   C   11.72200   -2.83600    0.00400
   C    8.37400    0.00000    0.00400
   C   11.72200    0.00000    0.00400
   C   18.42200   -0.70900   -1.22400
   C   15.07400   -3.54500   -1.22400
   C   15.07400   -2.12700   -1.22400
   C   18.42200   -2.12700   -1.22400
   C   15.07400   -1.41800    0.00400
   C   18.42200   -2.83600    0.00400
   C   15.07400    0.00000    0.00400
   C   18.42200    0.00000    0.00400
   C    5.02200    3.54100   -1.22400
   C    1.67400    0.70500   -1.22400
   C    1.67400    2.12300   -1.22400
   C    5.02200    2.12300   -1.22400
   C    1.67400    2.83200    0.00400
   C    5.02200    1.41400    0.00400
   C    1.67400    4.25000    0.00400
   C    5.02200    4.25000    0.00400
   C   11.72200    3.54100   -1.22400
   C    8.37400    0.70500   -1.22400
   C    8.37400    2.12300   -1.22400
   C   11.72200    2.12300   -1.22400
   C    8.37400    2.83200    0.00400
   C   11.72200    1.41400    0.00400
   C    8.37400    4.25000    0.00400
   C   11.72200    4.25000    0.00400
   C   18.42200    3.54100   -1.22400
   C   15.07400    0.70500   -1.22400
   C   15.07400    2.12300   -1.22400
   C   18.42200    2.12300   -1.22400
   C   15.07400    2.83200    0.00400
   C   18.42200    1.41400    0.00400
   C   15.07400    4.25000    0.00400
   C   18.42200    4.25000    0.00400
   C    5.02200    7.79100   -1.22400
   C    1.67400    4.95500   -1.22400
   C    1.67400    6.37300   -1.22400
   C    5.02200    6.37300   -1.22400
   C    1.67400    7.08200    0.00400
   C    5.02200    5.66400    0.00400
   C    1.67400    8.50000    0.00400
   C    5.02200    8.50000    0.00400
   C   11.72200    7.79100   -1.22400
   C    8.37400    4.95500   -1.22400
   C    8.37400    6.37300   -1.22400
   C   11.72200    6.37300   -1.22400
   C    8.37400    7.08200    0.00400
   C   11.72200    5.66400    0.00400
   C    8.37400    8.50000    0.00400
   C   11.72200    8.50000    0.00400
   C   18.42200    7.79100   -1.22400
   C   15.07400    4.95500   -1.22400
   C   15.07400    6.37300   -1.22400
   C   18.42200    6.37300   -1.22400
   C   15.07400    7.08200    0.00400
   C   18.42200    5.66400    0.00400
   C   15.07400    8.50000    0.00400
   C   18.42200    8.50000    0.00400
   C    5.02200   -0.70900    1.23600
   C    1.67400   -3.54500    1.23600
   C    1.67400   -2.12700    1.23600
   C    5.02200   -2.12700    1.23600
   C    1.67400   -1.41800    2.46400
   C    5.02200   -2.83600    2.46400
   C    1.67400    0.00000    2.46400
   C    5.02200    0.00000    2.46400
   C   11.72200   -0.70900    1.23600
   C    8.37400   -3.54500    1.23600
   C    8.37400   -2.12700    1.23600
   C   11.72200   -2.12700    1.23600
   C    8.37400   -1.41800    2.46400
   C   11.72200   -2.83600    2.46400
   C    8.37400    0.00000    2.46400
   C   11.72200    0.00000    2.46400
   C   18.42200   -0.70900    1.23600
   C   15.07400   -3.54500    1.23600
   C   15.07400   -2.12700    1.23600
   C   18.42200   -2.12700    1.23600
   C   15.07400   -1.41800    2.46400
   C   18.42200   -2.83600    2.46400
   C   15.07400    0.00000    2.46400
   C   18.42200    0.00000    2.46400
   C    5.02200    3.54100    1.23600
   C    1.67400    0.70500    1.23600
   C    1.67400    2.12300    1.23600
   C    5.02200    2.12300    1.23600
   C    1.67400    2.83200    2.46400
   C    5.02200    1.41400    2.46400
   C    1.67400    4.25000    2.46400
   C    5.02200    4.25000    2.46400
   C   11.72200    3.54100    1.23600
   C    8.37400    0.70500    1.23600
   C    8.37400    2.12300    1.23600
   C   11.72200    2.12300    1.23600
   C    8.37400    2.83200    2.46400
   C   11.72200    1.41400    2.46400
   C    8.37400    4.25000    2.46400
   C   11.72200    4.25000    2.46400
   C   18.42200    3.54100    1.23600
   C   15.07400    0.70500    1.23600
   C   15.07400    2.12300    1.23600
   C   18.42200    2.12300    1.23600
   C   15.07400    2.83200    2.46400
   C   18.42200    1.41400    2.46400
   C   15.07400    4.25000    2.46400
   C   18.42200    4.25000    2.46400
   C    5.02200    7.79100    1.23600
   C    1.67400    4.95500    1.23600
   C    1.67400    6.37300    1.23600
   C    5.02200    6.37300    1.23600
   C    1.67400    7.08200    2.46400
   C    5.02200    5.66400    2.46400
   C    1.67400    8.50000    2.46400
   C    5.02200    8.50000    2.46400
   C   11.72200    7.79100    1.23600
   C    8.37400    4.95500    1.23600
   C    8.37400    6.37300    1.23600
   C   11.72200    6.37300    1.23600
   C    8.37400    7.08200    2.46400
   C   11.72200    5.66400    2.46400
   C    8.37400    8.50000    2.46400
   C   11.72200    8.50000    2.46400
   C   18.42200    7.79100    1.23600
   C   15.07400    4.95500    1.23600
   C   15.07400    6.37300    1.23600
   C   18.42200    6.37300    1.23600
   C   15.07400    7.08200    2.46400
   C   18.42200    5.66400    2.46400
   C   15.07400    8.50000    2.46400
   C   18.42200    8.50000    2.46400
   C    5.02200   -0.70900    3.69600
   C    1.67400   -3.54500    3.69600
   C    1.67400   -2.12700    3.69600
   C    5.02200   -2.12700    3.69600
   C    1.67400   -1.41800    4.92400
   C    5.02200   -2.83600    4.92400
   C    1.67400    0.00000    4.92400
   C    5.02200    0.00000    4.92400
   C   11.72200   -0.70900    3.69600
   C    8.37400   -3.54500    3.69600
   C    8.37400   -2.12700    3.69600
   C   11.72200   -2.12700    3.69600
   C    8.37400   -1.41800    4.92400
   C   11.72200   -2.83600    4.92400
   C    8.37400    0.00000    4.92400
   C   11.72200    0.00000    4.92400
   C   18.42200   -0.70900    3.69600
   C   15.07400   -3.54500    3.69600
   C   15.07400   -2.12700    3.69600
   C   18.42200   -2.12700    3.69600
   C   15.07400   -1.41800    4.92400
   C   18.42200   -2.83600    4.92400
   C   15.07400    0.00000    4.92400
   C   18.42200    0.00000    4.92400
   C    5.02200    3.54100    3.69600
   C    1.67400    0.70500    3.69600
   C    1.67400    2.12300    3.69600
   C    5.02200    2.12300    3.69600
   C    1.67400    2.83200    4.92400
   C    5.02200    1.41400    4.92400
   C    1.67400    4.25000    4.92400
   C    5.02200    4.25000    4.92400
   C   11.72200    3.54100    3.69600
   C    8.37400    0.70500    3.69600
   C    8.37400    2.12300    3.69600
   C   11.72200    2.12300    3.69600
   C    8.37400    2.83200    4.92400
   C   11.72200    1.41400    4.92400
   C    8.37400    4.25000    4.92400
   C   11.72200    4.25000    4.92400
   C   18.42200    3.54100    3.69600
   C   15.07400    0.70500    3.69600
   C   15.07400    2.12300    3.69600
   C   18.42200    2.12300    3.69600
   C   15.07400    2.83200    4.92400
   C   18.42200    1.41400    4.92400
   C   15.07400    4.25000    4.92400
   C   18.42200    4.25000    4.92400
   C    5.02200    7.79100    3.69600
   C    1.67400    4.95500    3.69600
   C    1.67400    6.37300    3.69600
   C    5.02200    6.37300    3.69600
   C    1.67400    7.08200    4.92400
   C    5.02200    5.66400    4.92400
   C    1.67400    8.50000    4.92400
   C    5.02200    8.50000    4.92400
   C   11.72200    7.79100    3.69600
   C    8.37400    4.95500    3.69600
   C    8.37400    6.37300    3.69600
   C   11.72200    6.37300    3.69600
   C    8.37400    7.08200    4.92400
   C   11.72200    5.66400    4.92400
   C    8.37400    8.50000    4.92400
   C   11.72200    8.50000    4.92400
   C   18.42200    7.79100    3.69600
   C   15.07400    4.95500    3.69600
   C   15.07400    6.37300    3.69600
   C   18.42200    6.37300    3.69600
   C   15.07400    7.08200    4.92400
   C   18.42200    5.66400    4.92400
   C   15.07400    8.50000    4.92400
   C   18.42200    8.50000    4.92400
   C    5.02200   -0.70900    6.15600
   C    1.67400   -3.54500    6.15600
   C    1.67400   -2.12700    6.15600
   C    5.02200   -2.12700    6.15600
   C    1.67400   -1.41800    7.38400
   C    5.02200   -2.83600    7.38400
   C    1.67400    0.00000    7.38400
   C    5.02200    0.00000    7.38400
   C   11.72200   -0.70900    6.15600
   C    8.37400   -3.54500    6.15600
   C    8.37400   -2.12700    6.15600
   C   11.72200   -2.12700    6.15600
   C    8.37400   -1.41800    7.38400
   C   11.72200   -2.83600    7.38400
   C    8.37400    0.00000    7.38400
   C   11.72200    0.00000    7.38400
   C   18.42200   -0.70900    6.15600
   C   15.07400   -3.54500    6.15600
   C   15.07400   -2.12700    6.15600
   C   18.42200   -2.12700    6.15600
   C   15.07400   -1.41800    7.38400
   C   18.42200   -2.83600    7.38400
   C   15.07400    0.00000    7.38400
   C   18.42200    0.00000    7.38400
   C    5.02200    3.54100    6.15600
   C    1.67400    0.70500    6.15600
   C    1.67400    2.12300    6.15600
   C    5.02200    2.12300    6.15600
   C    1.67400    2.83200    7.38400
   C    5.02200    1.41400    7.38400
   C    1.67400    4.25000    7.38400
   C    5.02200    4.25000    7.38400
   C   11.72200    3.54100    6.15600
   C    8.37400    0.70500    6.15600
   C    8.37400    2.12300    6.15600
   C   11.72200    2.12300    6.15600
   C    8.37400    2.83200    7.38400
   C   11.72200    1.41400    7.38400
   C    8.37400    4.25000    7.38400
   C   11.72200    4.25000    7.38400
   C   18.42200    3.54100    6.15600
   C   15.07400    0.70500    6.15600
   C   15.07400    2.12300    6.15600
   C   18.42200    2.12300    6.15600
   C   15.07400    2.83200    7.38400
   C   18.42200    1.41400    7.38400
   C   15.07400    4.25000    7.38400
   C   18.42200    4.25000    7.38400
   C    5.02200    7.79100    6.15600
   C    1.67400    4.95500    6.15600
   C    1.67400    6.37300    6.15600
   C    5.02200    6.37300    6.15600
   C    1.67400    7.08200    7.38400
   C    5.02200    5.66400    7.38400
   C    1.67400    8.50000    7.38400
   C    5.02200    8.50000    7.38400
   C   11.72200    7.79100    6.15600
   C    8.37400    4.95500    6.15600
   C    8.37400    6.37300    6.15600
   C   11.72200    6.37300    6.15600
   C    8.37400    7.08200    7.38400
   C   11.72200    5.66400    7.38400
   C    8.37400    8.50000    7.38400
   C   11.72200    8.50000    7.38400
   C   18.42200    7.79100    6.15600
   C   15.07400    4.95500    6.15600
   C   15.07400    6.37300    6.15600
   C   18.42200    6.37300    6.15600
   C   15.07400    7.08200    7.38400
   C   18.42200    5.66400    7.38400
   C   15.07400    8.50000    7.38400
   C   18.42200    8.50000    7.38400
    &END COORD
    &TOPOLOGY
    &END TOPOLOGY
  &END SUBSYS
&END FORCE_EVAL
