 # Version information for this restart file 
 # current date 2022-12-12 13:39:12.304
 # current working dir /data/gtocci/scratch/projects/cp2k/tests/Fist/regtest-6
 # Program compiled at                           Mon 12 Dec 2022 01:04:53 PM CET
 # Program compiled on                                                   tcopt12
 # Program compiled for                                                    local
 # Source code revision number                                       git:78e2152
 &GLOBAL
   PROJECT_NAME C_tersoff
   RUN_TYPE  MD
 &END GLOBAL
 &MOTION
   &MD
     ENSEMBLE  MSST
     STEPS  10
     TIMESTEP     9.9999999999999992E-02
     STEP_START_VAL  10
     TIME_START_VAL     9.9999999999999989E-01
     ECONS_START_VAL    -9.6683978971612675E+01
     TEMPERATURE     3.0000000000000000E+02
     &MSST
       PRESSURE     1.0000000000000000E+03
       CMASS     7.0000000000000000E+07
       VSHOCK     1.3500000000000000E+04
     &END MSST
     &BAROSTAT
       &VELOCITY
             1.3667397074182343E-07
       &END VELOCITY
       &MASS
             7.0000000000000000E+07
       &END MASS
     &END BAROSTAT
     &AVERAGES  T
       &RESTART_AVERAGES
         ITIMES_START  1
         AVECPU     9.8362106829881675E-03
         AVEHUGONIOT     6.4504874300140851E-06
         AVETEMP_BARO     1.5973763092400478E-01
         AVEPOT    -9.7179644561072223E+01
         AVEKIN     4.9567183582085628E-01
         AVETEMP     2.9066035177666981E+02
         AVEKIN_QM     0.0000000000000000E+00
         AVETEMP_QM     0.0000000000000000E+00
         AVEVOL     2.1272005425663316E+04
         AVECELL_A     3.7983536784150687E+01
         AVECELL_B     2.4094008194291948E+01
         AVECELL_C     2.3243631434493409E+01
         AVEALPHA     9.0000000000000000E+01
         AVEBETA     9.0000000000000000E+01
         AVEGAMMA     9.0000000000000000E+01
         AVE_ECONS     5.7577649985279420E-03
         AVE_PRESS     2.3767517615066719E+05
         AVE_PXX     4.1846028287150966E+03
       &END RESTART_AVERAGES
     &END AVERAGES
     &PRINT
       &ENERGY  SILENT
         FILENAME md1.ener
         &EACH
           MD  1
         &END EACH
       &END ENERGY
     &END PRINT
   &END MD
   &PRINT
     &TRAJECTORY  SILENT
       FILENAME md1.xyz
       &EACH
         MD  10
       &END EACH
     &END TRAJECTORY
     &CELL  SILENT
       FILENAME md1.cell
       &EACH
         MD  10
       &END EACH
     &END CELL
     &VELOCITIES  OFF
     &END VELOCITIES
     &STRESS  SILENT
       FILENAME md1.stress
       &EACH
         MD  10
       &END EACH
     &END STRESS
     &RESTART  SILENT
       &EACH
         MD  1000
       &END EACH
     &END RESTART
     &RESTART_HISTORY  OFF
     &END RESTART_HISTORY
   &END PRINT
 &END MOTION
 &FORCE_EVAL
   METHOD  FIST
   STRESS_TENSOR  ANALYTICAL
   &MM
     &FORCEFIELD
       &SPLINE
         EPS_SPLINE     9.9999999999999995E-07
       &END SPLINE
       &NONBONDED
         &TERSOFF
           ATOMS C C
           A     1.3935999999999999E+03
           B     3.4669999999999999E+02
           LAMBDA1     3.4878999999999998E+00
           LAMBDA2     2.2119000000000000E+00
           ALPHA     0.0000000000000000E+00
           BETA     1.5724000000000000E-07
           N     7.2750999999999999E-01
           C     3.8049000000000000E+04
           D     4.3840000000000003E+00
           H    -5.7057999999999998E-01
           LAMBDA3     0.0000000000000000E+00
           BIGR     1.9500000000000000E+00
           BIGD     1.4999999999999999E-01
         &END TERSOFF
       &END NONBONDED
     &END FORCEFIELD
     &POISSON
       &EWALD
         EWALD_TYPE  NONE
       &END EWALD
     &END POISSON
   &END MM
   &SUBSYS
     &CELL
       A     2.0100056990378455E+01    0.0000000000000000E+00    0.0000000000000000E+00
       B     0.0000000000000000E+00    1.2750000000000002E+01    0.0000000000000000E+00
       C     0.0000000000000000E+00    0.0000000000000000E+00    1.2300000000000001E+01
       MULTIPLE_UNIT_CELL  1 1 1
     &END CELL
     &COORD
C    5.0177199030864630E+00   -7.1015436184078662E-01   -3.6811469646775667E+00
C    1.6722348723588987E+00   -3.5468978427085447E+00   -3.6854960016141374E+00
C    1.6710188831959540E+00   -2.1313281811557547E+00   -3.6744948373468898E+00
C    5.0153545900506780E+00   -2.1234717597212391E+00   -3.6751100025831258E+00
C    1.6706608199133599E+00   -1.4165709587156097E+00   -2.4526925449124510E+00
C    5.0188527157302136E+00   -2.8294184077443489E+00   -2.4554481683489611E+00
C    1.6709270176302546E+00    3.9543342476502583E-03   -2.4624398191102284E+00
C    5.0167369741181087E+00   -3.3104765763471650E-03   -2.4608320562844108E+00
C    1.1726667724515533E+01   -7.1305220882291642E-01   -3.6846514088232989E+00
C    8.3836699402848343E+00   -3.5475865597217564E+00   -3.6855555795375250E+00
C    8.3819344972194862E+00   -2.1299403630600988E+00   -3.6803110371497030E+00
C    1.1720661098725753E+01   -2.1210771162686668E+00   -3.6836185976405180E+00
C    8.3759306003137102E+00   -1.4233453346446967E+00   -2.4587243895793005E+00
C    1.1721098038178292E+01   -2.8314535763656199E+00   -2.4562162526943050E+00
C    8.3825849126763998E+00    1.9051363170909840E-04   -2.4465101875440398E+00
C    1.1725020848624961E+01    1.5753461741594219E-03   -2.4559852256034471E+00
C    1.8415369459495622E+01   -7.0361087600394856E-01   -3.6852041246434908E+00
C    1.5076144272359214E+01   -3.5427400269448577E+00   -3.6810601993026850E+00
C    1.5074309043310469E+01   -2.1277749860344430E+00   -3.6867731060953881E+00
C    1.8426417896564317E+01   -2.1245179631928224E+00   -3.6809683223899849E+00
C    1.5073646963416421E+01   -1.4082777069622996E+00   -2.4608875498669960E+00
C    1.8422297743789247E+01   -2.8377016428596429E+00   -2.4487810590630974E+00
C    1.5074318451715886E+01   -2.5576705161891628E-03   -2.4685032655112749E+00
C    1.8421000995833850E+01    8.3459272141393607E-04   -2.4604775069595815E+00
C    5.0259278454335945E+00    3.5381864451297638E+00   -3.6768920123466038E+00
C    1.6788677419703151E+00    7.1145775475008688E-01   -3.6813295595636992E+00
C    1.6670134273116208E+00    2.1254772339900736E+00   -3.6820529999703568E+00
C    5.0224625539539627E+00    2.1232849451414113E+00   -3.6913655291330945E+00
C    1.6730854914146975E+00    2.8350310682177664E+00   -2.4614728808355313E+00
C    5.0223397439108481E+00    1.4124221854230465E+00   -2.4561392820326766E+00
C    1.6801495911632602E+00    4.2542625710278239E+00   -2.4587694205415778E+00
C    5.0249647416987049E+00    4.2547136759795672E+00   -2.4461552209310904E+00
C    1.1727488606608695E+01    3.5467081698363039E+00   -3.6822161520248473E+00
C    8.3697693410832237E+00    7.0201071224253708E-01   -3.6749835487948666E+00
C    8.3774925199087313E+00    2.1200783482456891E+00   -3.6893817504396975E+00
C    1.1717034794314170E+01    2.1239314506506002E+00   -3.6915632824291409E+00
C    8.3780407324282269E+00    2.8300706749531859E+00   -2.4578809011159892E+00
C    1.1730541469662635E+01    1.4166311568859553E+00   -2.4555295897377585E+00
C    8.3727360808011095E+00    4.2497880674311519E+00   -2.4624867936853598E+00
C    1.1721905772796532E+01    4.2507252652913241E+00   -2.4548015398492744E+00
C    1.8422777523384312E+01    3.5337653856567521E+00   -3.6861624272731364E+00
C    1.5069129371006694E+01    7.0269146899977475E-01   -3.6863414815010653E+00
C    1.5071943258964721E+01    2.1212173801939307E+00   -3.6824698179427537E+00
C    1.8419206836894162E+01    2.1227148725498672E+00   -3.6913309211582832E+00
C    1.5066385619608178E+01    2.8316466703114878E+00   -2.4567822840351310E+00
C    1.8419722989252136E+01    1.4096009863722787E+00   -2.4528506635555507E+00
C    1.5075349087988057E+01    4.2405063190993424E+00   -2.4534185762641867E+00
C    1.8429053015309552E+01    4.2498922181126577E+00   -2.4626559786694813E+00
C    5.0209025438988286E+00    7.7892663767682562E+00   -3.6806803780108597E+00
C    1.6717825584580142E+00    4.9568566707727069E+00   -3.6810645809250895E+00
C    1.6738421942329276E+00    6.3729382012590774E+00   -3.6784281491678104E+00
C    5.0173279493952130E+00    6.3783882066608957E+00   -3.6813073018996509E+00
C    1.6839503839127454E+00    7.0867078344494754E+00   -2.4552570784396854E+00
C    5.0226473649239463E+00    5.6652283421353564E+00   -2.4626796633060830E+00
C    1.6727747216115316E+00    8.4920084915754650E+00   -2.4594757909922600E+00
C    5.0176641037487322E+00    8.4991263082246657E+00   -2.4498743416600064E+00
C    1.1721143552251705E+01    7.7885723131100884E+00   -3.6754325658617328E+00
C    8.3719196098222213E+00    4.9615438867016355E+00   -3.6827679465736369E+00
C    8.3735263601390013E+00    6.3795452205379766E+00   -3.6822681155644466E+00
C    1.1719959721467633E+01    6.3713429382665385E+00   -3.6859129829180053E+00
C    8.3773690148963631E+00    7.0871525905009713E+00   -2.4533028673593971E+00
C    1.1716986933577513E+01    5.6647169985674202E+00   -2.4563987835909518E+00
C    8.3749497604813214E+00    8.4980992547417085E+00   -2.4509447486279363E+00
C    1.1718304307682510E+01    8.5036018832327525E+00   -2.4599051438280828E+00
C    1.8426457306183263E+01    7.7847969418602485E+00   -3.6831679194758640E+00
C    1.5070166924544633E+01    4.9613779757410539E+00   -3.6871275114171818E+00
C    1.5077677396872927E+01    6.3789353114771767E+00   -3.6780207020768265E+00
C    1.8425511128862215E+01    6.3804362336973801E+00   -3.6813749664824362E+00
C    1.5075237496775580E+01    7.0830150045601785E+00   -2.4509356347366498E+00
C    1.8423530178097018E+01    5.6534282009645187E+00   -2.4522923773272427E+00
C    1.5078552860373305E+01    8.5101880327502002E+00   -2.4559650467434007E+00
C    1.8417761500256415E+01    8.4975591777647157E+00   -2.4526969706106247E+00
C    5.0137938924248431E+00   -7.0596270138404593E-01   -1.2268230842292693E+00
C    1.6807254038460571E+00   -3.5485352719203647E+00   -1.2277228243399672E+00
C    1.6712140415765206E+00   -2.1290212811486957E+00   -1.2274233362425995E+00
C    5.0134297806929951E+00   -2.1286291205875183E+00   -1.2282588283224452E+00
C    1.6671164282847826E+00   -1.4095125596469105E+00    1.5466216555549189E-03
C    5.0224600314191434E+00   -2.8426660252265092E+00    6.1371002981923861E-03
C    1.6726070981236725E+00   -5.5873028136096811E-03    5.1836102806306870E-03
C    5.0316767531825972E+00   -2.5585658664178143E-03    1.9814634410185114E-03
C    1.1726124084533602E+01   -6.9997427071309604E-01   -1.2326990733913215E+00
C    8.3759939232666358E+00   -3.5493535117223862E+00   -1.2244707983600100E+00
C    8.3658592911237815E+00   -2.1272470666237635E+00   -1.2266464061826696E+00
C    1.1727587425836372E+01   -2.1229005156392806E+00   -1.2285778867623727E+00
C    8.3721862009639434E+00   -1.4203133530887020E+00    2.5353352116496541E-03
C    1.1724371494100184E+01   -2.8313382946323533E+00    3.7591562020920922E-03
C    8.3815016647696776E+00   -8.2380769333137915E-04    8.2317350818466757E-03
C    1.1718368621051988E+01    2.8674375670156133E-03    1.2078901338126526E-02
C    1.8427351595688251E+01   -7.1384634954117643E-01   -1.2250147002927985E+00
C    1.5076830583272296E+01   -3.5458896028257252E+00   -1.2268376482800623E+00
C    1.5073969755717133E+01   -2.1318237873922961E+00   -1.2216017968093673E+00
C    1.8422864527227407E+01   -2.1267002078294639E+00   -1.2254557120386342E+00
C    1.5074235055673991E+01   -1.4270503932154894E+00    2.7931383903965763E-03
C    1.8425212525865135E+01   -2.8402708631063902E+00   -5.7434483143166523E-04
C    1.5075112258391711E+01    5.9084015396105392E-03    6.0772655047632469E-03
C    1.8423222697887528E+01   -1.0221111938363313E-03    7.9768341739752599E-03
C    5.0243493730269000E+00    3.5342869430175132E+00   -1.2218343897056398E+00
C    1.6773993559470550E+00    7.0119484210789906E-01   -1.2241358073542445E+00
C    1.6769068810875571E+00    2.1230030128236703E+00   -1.2238011462575340E+00
C    5.0176670902675866E+00    2.1238657836908956E+00   -1.2288482653966892E+00
C    1.6700621441959658E+00    2.8299936763410134E+00    9.3171847093476822E-03
C    5.0183604010267411E+00    1.4123584776824991E+00    5.4930810371036825E-03
C    1.6688949744341277E+00    4.2480312003530374E+00    6.1962484488344710E-03
C    5.0203532140796634E+00    4.2494546792760399E+00    1.7025016899528674E-02
C    1.1726547064561442E+01    3.5412330022889691E+00   -1.2316641922510840E+00
C    8.3765093529075454E+00    7.1201031609016285E-01   -1.2191880079034190E+00
C    8.3644317124776535E+00    2.1294776897844319E+00   -1.2310830670366921E+00
C    1.1726839717580347E+01    2.1223671350924960E+00   -1.2245647688706069E+00
C    8.3742605249565933E+00    2.8357269164701009E+00    9.8809389923982475E-03
C    1.1719937538052163E+01    1.4193386920972264E+00    9.3707812816871960E-03
C    8.3678565658104276E+00    4.2476360183149229E+00    1.0871810675464342E-02
C    1.1728527916665609E+01    4.2536226249810056E+00   -8.3096273944314025E-03
C    1.8418945344567362E+01    3.5408931074666805E+00   -1.2220206300179817E+00
C    1.5073054874245074E+01    7.0971810555834491E-01   -1.2341290319529743E+00
C    1.5079249646688673E+01    2.1130734788979137E+00   -1.2201170853388292E+00
C    1.8421240380722999E+01    2.1164486313176329E+00   -1.2237293001658214E+00
C    1.5069283007876985E+01    2.8302952950290159E+00    7.7779993472775390E-03
C    1.8426071361528610E+01    1.4152207406449187E+00    4.2032429151099143E-03
C    1.5077331552563159E+01    4.2420131501686678E+00    1.0853272909544437E-02
C    1.8417902304756655E+01    4.2513970694396273E+00    6.2558880673674521E-03
C    5.0196738855760197E+00    7.7938923792360759E+00   -1.2242264210431502E+00
C    1.6694358172143839E+00    4.9572521058137289E+00   -1.2232003955661159E+00
C    1.6695279060079562E+00    6.3721824638145170E+00   -1.2215943045423880E+00
C    5.0305806352942941E+00    6.3699356233237987E+00   -1.2276511575187419E+00
C    1.6753094942421625E+00    7.0792775504782499E+00    9.7914801320663682E-03
C    5.0198658836378653E+00    5.6694138393894482E+00    4.0572999749366603E-05
C    1.6673869180884524E+00    8.4946341161709658E+00    6.5555772425923793E-03
C    5.0206442407182772E+00    8.5009129236380403E+00    9.3945884227840636E-03
C    1.1715222951668796E+01    7.7862287064743647E+00   -1.2259280094111080E+00
C    8.3687055279538018E+00    4.9583883843846683E+00   -1.2287884748465945E+00
C    8.3808509356730081E+00    6.3737753752339801E+00   -1.2243067468400772E+00
C    1.1720434508462500E+01    6.3729611974377915E+00   -1.2147410814169153E+00
C    8.3790541888356014E+00    7.0770056849375065E+00    2.7118130067926888E-03
C    1.1726944004201451E+01    5.6685225778013670E+00    3.1494509503236967E-03
C    8.3750601656707921E+00    8.4988837799618064E+00   -1.8743196484435705E-04
C    1.1719587713092601E+01    8.5043014174204039E+00    3.4161383250022968E-03
C    1.8425127343008405E+01    7.7907899045264903E+00   -1.2212496282014058E+00
C    1.5081360799734931E+01    4.9558009399651155E+00   -1.2241757466830840E+00
C    1.5075306739573334E+01    6.3743855525087909E+00   -1.2161661606297762E+00
C    1.8425362854806547E+01    6.3768636422283889E+00   -1.2208600451346772E+00
C    1.5075124897245177E+01    7.0917480052744502E+00    3.3218685471721526E-03
C    1.8424194407710161E+01    5.6619291942615977E+00    1.2181483023271926E-02
C    1.5076629651740772E+01    8.5000707065533643E+00    7.5931878990861991E-03
C    1.8421328241721479E+01    8.4948082298263330E+00   -2.6869155814373651E-03
C    5.0196321102698933E+00   -7.1217977370461860E-01    1.2322381879607736E+00
C    1.6744772614893009E+00   -3.5463988792042049E+00    1.2363118291595798E+00
C    1.6747922301567049E+00   -2.1252820556597034E+00    1.2288214346252946E+00
C    5.0185138446718742E+00   -2.1303048615518878E+00    1.2389487910366728E+00
C    1.6721704534848099E+00   -1.4134265635366772E+00    2.4648521086794428E+00
C    5.0191383496002180E+00   -2.8367415791435331E+00    2.4687563805832156E+00
C    1.6815284865002258E+00   -9.7188766947448862E-03    2.4692075118085905E+00
C    5.0253060723695526E+00    9.3484941600899837E-04    2.4620903793347946E+00
C    1.1717514705579745E+01   -7.1017831958192623E-01    1.2309470078749356E+00
C    8.3675289458961828E+00   -3.5470849381599860E+00    1.2336894404953578E+00
C    8.3684801216862343E+00   -2.1191515780712837E+00    1.2338810472467738E+00
C    1.1712476329187229E+01   -2.1208075963189033E+00    1.2362257496659059E+00
C    8.3806649300668941E+00   -1.4215761638167803E+00    2.4611600644750373E+00
C    1.1715825089981907E+01   -2.8359186858864178E+00    2.4644469838097498E+00
C    8.3622145018593841E+00   -1.5414223992211036E-03    2.4667461032403213E+00
C    1.1717332382330609E+01    7.7165455784065863E-04    2.4752758709316409E+00
C    1.8422413690550872E+01   -7.0497451873203365E-01    1.2333634551407469E+00
C    1.5078337579530878E+01   -3.5396011743199773E+00    1.2362643047859707E+00
C    1.5077696867281549E+01   -2.1307600993928566E+00    1.2312596876476614E+00
C    1.8426639085542259E+01   -2.1244876992670654E+00    1.2301088583691175E+00
C    1.5073301397658017E+01   -1.4228957106715832E+00    2.4586477060009546E+00
C    1.8417073033099744E+01   -2.8423876046002077E+00    2.4695870439103627E+00
C    1.5074077820064504E+01   -4.1355758437923744E-04    2.4649920839079065E+00
C    1.8421563946367002E+01    8.9250710398744285E-04    2.4621388823506063E+00
C    5.0228395331394591E+00    3.5357294060337825E+00    1.2310914005956786E+00
C    1.6707238672694558E+00    7.0505959669187968E-01    1.2380873164694601E+00
C    1.6716054747589004E+00    2.1178659305760847E+00    1.2294146953028615E+00
C    5.0223735611823681E+00    2.1286892246698104E+00    1.2338371978897571E+00
C    1.6870566088531627E+00    2.8314666023705626E+00    2.4632892297494791E+00
C    5.0198966893081831E+00    1.4186794871616997E+00    2.4704864984580022E+00
C    1.6782622652002617E+00    4.2449346708920146E+00    2.4594550283875809E+00
C    5.0145838655309598E+00    4.2493823224835188E+00    2.4736236708770765E+00
C    1.1723456883140042E+01    3.5471129682362248E+00    1.2366357096795770E+00
C    8.3790298039142392E+00    7.0548426069119707E-01    1.2327423252219041E+00
C    8.3780068254621778E+00    2.1181981456769057E+00    1.2339994590012520E+00
C    1.1725863001645003E+01    2.1243786616412024E+00    1.2328970226913398E+00
C    8.3775220026478223E+00    2.8289597810871028E+00    2.4696368677936169E+00
C    1.1722127548957070E+01    1.4127378180093073E+00    2.4659483591954077E+00
C    8.3746745454977045E+00    4.2484213213349573E+00    2.4568098603482169E+00
C    1.1718620055456496E+01    4.2480085116512472E+00    2.4663165388395059E+00
C    1.8424151893200289E+01    3.5388187204913080E+00    1.2320853551051536E+00
C    1.5079804903785512E+01    7.0697292122861899E-01    1.2541311381699760E+00
C    1.5069561225950897E+01    2.1221364434407350E+00    1.2428120585340665E+00
C    1.8418861966351010E+01    2.1292158795451970E+00    1.2417094236216468E+00
C    1.5076984591109328E+01    2.8336251388621179E+00    2.4632357128411706E+00
C    1.8423330300682661E+01    1.4191903404546085E+00    2.4705046135461406E+00
C    1.5080562955975283E+01    4.2441739814387764E+00    2.4627842035694387E+00
C    1.8427311632696064E+01    4.2501875355260923E+00    2.4596802505442508E+00
C    5.0231029444702449E+00    7.7935141465304110E+00    1.2376679678003706E+00
C    1.6778842571058599E+00    4.9444018146552695E+00    1.2260627170337224E+00
C    1.6755106508339468E+00    6.3806414429465699E+00    1.2346030281586595E+00
C    5.0223317833822447E+00    6.3672644463628574E+00    1.2444655455402709E+00
C    1.6764646951973694E+00    7.0787483692478244E+00    2.4643359725813263E+00
C    5.0117307748027891E+00    5.6710883912959300E+00    2.4675559919952343E+00
C    1.6739333527824154E+00    8.5106073613876330E+00    2.4628774036593990E+00
C    5.0243949597521906E+00    8.4964946294218482E+00    2.4651891273084399E+00
C    1.1714826583262548E+01    7.7856678026745074E+00    1.2401377128748172E+00
C    8.3722378444978443E+00    4.9629226744578201E+00    1.2306250399447427E+00
C    8.3742911168806700E+00    6.3601677567364998E+00    1.2250595092104519E+00
C    1.1723861126630565E+01    6.3725036415147223E+00    1.2293391520869963E+00
C    8.3675040456872090E+00    7.0867125895047769E+00    2.4646564124313266E+00
C    1.1713310243805992E+01    5.6729142594491533E+00    2.4637428886753634E+00
C    8.3707848834910639E+00    8.5013003108173244E+00    2.4640628226866195E+00
C    1.1728346870724792E+01    8.5038696845896897E+00    2.4580231646827611E+00
C    1.8421273079756215E+01    7.7863385195831105E+00    1.2443806675248932E+00
C    1.5076252915487368E+01    4.9501502430436899E+00    1.2292866526005866E+00
C    1.5079862498752174E+01    6.3770721433253588E+00    1.2341754253294097E+00
C    1.8419320824778691E+01    6.3659859391520008E+00    1.2321086815252738E+00
C    1.5074952539972553E+01    7.0803299267469386E+00    2.4624764376474282E+00
C    1.8418055835729387E+01    5.6663853377121383E+00    2.4646958585926018E+00
C    1.5078213713797876E+01    8.4971418559038110E+00    2.4650724830681243E+00
C    1.8417690891359701E+01    8.5042476518770673E+00    2.4605693770557355E+00
C    5.0282893592975153E+00   -7.0766733431089246E-01    3.6988127038191791E+00
C    1.6773538939333330E+00   -3.5454639168610433E+00    3.6898605404263431E+00
C    1.6804211842851533E+00   -2.1261626690313618E+00    3.6951429214562732E+00
C    5.0236948728530750E+00   -2.1297386083669414E+00    3.7019070619009931E+00
C    1.6724607562382627E+00   -1.4244012010560974E+00    4.9206008186121570E+00
C    5.0225726295624051E+00   -2.8390211874818596E+00    4.9321122950538792E+00
C    1.6748318548578121E+00    3.4423658067042531E-03    4.9210190030864887E+00
C    5.0245759020299676E+00    6.2818357433681027E-03    4.9252526381106412E+00
C    1.1722181580512702E+01   -7.0560468820339040E-01    3.7000006019092258E+00
C    8.3708642960019546E+00   -3.5409956183418259E+00    3.6963050282478056E+00
C    8.3763980267444396E+00   -2.1309786782856999E+00    3.6941816765656053E+00
C    1.1723541628629940E+01   -2.1247870035473082E+00    3.6863312075386898E+00
C    8.3742267972373980E+00   -1.4170630410901821E+00    4.9331440935547946E+00
C    1.1719640056747519E+01   -2.8383749927483941E+00    4.9218804301055403E+00
C    8.3714143638601399E+00   -4.1427973670468835E-03    4.9233048261640073E+00
C    1.1719074750532842E+01   -7.7767122926360763E-04    4.9223222010020296E+00
C    1.8425392106636206E+01   -7.0950993927189454E-01    3.6979590753413811E+00
C    1.5076664698576032E+01   -3.5438282264761640E+00    3.7020793434245243E+00
C    1.5072100376135916E+01   -2.1279428065800863E+00    3.7014212099965986E+00
C    1.8421556042444600E+01   -2.1239379884299074E+00    3.6954378418516125E+00
C    1.5071179383294201E+01   -1.4114075020732031E+00    4.9286543294988636E+00
C    1.8422403996198110E+01   -2.8396679148478525E+00    4.9329424684955514E+00
C    1.5069515044591617E+01    3.5052889333502904E-03    4.9274858796260448E+00
C    1.8425900460810627E+01    1.0794521318827728E-03    4.9185268441637655E+00
C    5.0267480134694447E+00    3.5404537158312395E+00    3.6911514358883393E+00
C    1.6754347846570250E+00    7.0288716879426594E-01    3.6974570910091886E+00
C    1.6731586109224483E+00    2.1248795837132533E+00    3.6913786668787698E+00
C    5.0217989870867301E+00    2.1164438023140018E+00    3.6896358039850838E+00
C    1.6789834224166789E+00    2.8320258770514108E+00    4.9240022514003012E+00
C    5.0259110599493093E+00    1.4140329494563375E+00    4.9250512955290979E+00
C    1.6734666607459865E+00    4.2475151929090114E+00    4.9189018403118379E+00
C    5.0243962378466831E+00    4.2498164502645093E+00    4.9184461976422291E+00
C    1.1712995838757676E+01    3.5352521444591423E+00    3.6983522490205085E+00
C    8.3662851777867502E+00    7.0628518217819447E-01    3.6924229993294908E+00
C    8.3723030836826968E+00    2.1263990431938407E+00    3.6970435233106227E+00
C    1.1725140069996160E+01    2.1309004311031243E+00    3.7034029508338282E+00
C    8.3760367654993342E+00    2.8285132337930361E+00    4.9230806214584222E+00
C    1.1719133311473689E+01    1.4216321348659393E+00    4.9250751573530192E+00
C    8.3807386343338113E+00    4.2513164737538327E+00    4.9240298760726642E+00
C    1.1727795459371002E+01    4.2513463662883906E+00    4.9227893380692942E+00
C    1.8424510618463025E+01    3.5502273297664959E+00    3.6966287780754055E+00
C    1.5076771223521884E+01    7.0484139363599008E-01    3.6942974116554677E+00
C    1.5070667206546259E+01    2.1202156042671136E+00    3.7029247733357082E+00
C    1.8419026971285739E+01    2.1137636323118176E+00    3.7039846657637936E+00
C    1.5076772954403499E+01    2.8336660104504703E+00    4.9225225118685421E+00
C    1.8419518449334596E+01    1.4148837583970584E+00    4.9259231819132960E+00
C    1.5077209222676428E+01    4.2553828831006735E+00    4.9273748837402671E+00
C    1.8423538979990187E+01    4.2486239983040734E+00    4.9200829684817817E+00
C    5.0253073053373329E+00    7.7977253847352213E+00    3.7011356085942047E+00
C    1.6713873937784844E+00    4.9497024728353871E+00    3.6928111006125075E+00
C    1.6827119083831095E+00    6.3710729375936053E+00    3.6915288366682906E+00
C    5.0281550052366306E+00    6.3694812268909251E+00    3.6866687371216580E+00
C    1.6691800454890655E+00    7.0811763458823052E+00    4.9237451794325917E+00
C    5.0191365253098548E+00    5.6619858261504561E+00    4.9252688002800671E+00
C    1.6717047036248276E+00    8.4944825007709550E+00    4.9220189427564645E+00
C    5.0224957702793427E+00    8.5003813705179123E+00    4.9297289618690598E+00
C    1.1714906843054589E+01    7.7916571510344736E+00    3.6938273480307537E+00
C    8.3840496415831343E+00    4.9593766779616590E+00    3.6949978481805363E+00
C    8.3717270476796770E+00    6.3798203723892311E+00    3.6949665966320810E+00
C    1.1720398446753709E+01    6.3678656936461637E+00    3.6898252000794032E+00
C    8.3767480872455682E+00    7.0814259648154438E+00    4.9244142448488901E+00
C    1.1719593707767867E+01    5.6615174305628440E+00    4.9309034239625680E+00
C    8.3716467300264199E+00    8.5058188208756889E+00    4.9256410488054119E+00
C    1.1719635227187972E+01    8.4965756356982993E+00    4.9288373761613435E+00
C    1.8419605248888399E+01    7.7956777667236192E+00    3.6914101534135741E+00
C    1.5071750308707312E+01    4.9539111823196658E+00    3.6913759151605494E+00
C    1.5073646697922511E+01    6.3718538063745491E+00    3.7003391179294449E+00
C    1.8418368413307149E+01    6.3703961275559333E+00    3.6964765567832023E+00
C    1.5079878932907457E+01    7.0807761887889988E+00    4.9222665278146085E+00
C    1.8417938736656438E+01    5.6625573237833082E+00    4.9185433491907569E+00
C    1.5072630173581105E+01    8.4916479143638650E+00    4.9203377749293251E+00
C    1.8416598149765314E+01    8.4956284262936936E+00    4.9245034407496977E+00
C    5.0254845282453307E+00   -7.0845897133801183E-01    6.1486324951343700E+00
C    1.6736448577153547E+00   -3.5468603849590461E+00    6.1687528873370336E+00
C    1.6711718449621882E+00   -2.1294269848298568E+00    6.1537499612496775E+00
C    5.0245989833009919E+00   -2.1274531170841007E+00    6.1681372290060894E+00
C    1.6763191945250808E+00   -1.4109632474595790E+00    7.3770232429243903E+00
C    5.0187693461439959E+00   -2.8386141276307018E+00    7.3777539748226575E+00
C    1.6831466809362536E+00    3.1467377048921808E-03    7.3785154518701628E+00
C    5.0252115104259323E+00   -8.0153341969582993E-03    7.3822073790874185E+00
C    1.1721617325062599E+01   -7.0714263897205987E-01    6.1539273204417828E+00
C    8.3793962851452424E+00   -3.5432387079054615E+00    6.1519179082195024E+00
C    8.3701325863046545E+00   -2.1274861748367488E+00    6.1567841277963211E+00
C    1.1721040859171147E+01   -2.1238708423422143E+00    6.1574916954232419E+00
C    8.3754444649775657E+00   -1.4177948929610933E+00    7.3886958565149428E+00
C    1.1724537411536669E+01   -2.8429924850918105E+00    7.3847942261653161E+00
C    8.3804648679625888E+00   -1.1110962865057080E-03    7.3878157377086087E+00
C    1.1721477734827971E+01    4.5585806471555223E-03    7.3796587933114521E+00
C    1.8415396783946068E+01   -7.0723650257382153E-01    6.1547436713207517E+00
C    1.5071570557266353E+01   -3.5465668567605504E+00    6.1571754523180351E+00
C    1.5075877523044969E+01   -2.1285021841587612E+00    6.1491852431719529E+00
C    1.8414636145247929E+01   -2.1279618020940672E+00    6.1566907862255187E+00
C    1.5069667134734811E+01   -1.4284487968726081E+00    7.3848684989848952E+00
C    1.8422387710471789E+01   -2.8352557912948662E+00    7.3808450882991981E+00
C    1.5072015590903165E+01   -3.2662601224939295E-03    7.3832711877008270E+00
C    1.8427296550437738E+01    5.2198788938865462E-03    7.3821793852310593E+00
C    5.0263157299299204E+00    3.5448664804390564E+00    6.1564502673015076E+00
C    1.6738964949106492E+00    7.0685015399007833E-01    6.1566706532117932E+00
C    1.6758506082876043E+00    2.1210636669745568E+00    6.1592310636445342E+00
C    5.0208719193609577E+00    2.1252758956090712E+00    6.1591788548550603E+00
C    1.6717231489353244E+00    2.8331729421431975E+00    7.3913408702381327E+00
C    5.0313540777204828E+00    1.4135390983333143E+00    7.3790027849565236E+00
C    1.6771307265684332E+00    4.2483560907192714E+00    7.3816824373123300E+00
C    5.0191503880104573E+00    4.2403330470992557E+00    7.3820493402418830E+00
C    1.1722722157275768E+01    3.5351170218383747E+00    6.1557771411326234E+00
C    8.3808303029459754E+00    6.9680864973407208E-01    6.1458320112549600E+00
C    8.3778588171313420E+00    2.1216576580137740E+00    6.1582765450347319E+00
C    1.1720385944965829E+01    2.1220720022611763E+00    6.1482859960871830E+00