&GLOBAL
  PROJECT extern_pot-test-01
  RUN_TYPE md
&END GLOBAL

&MOTION
  &MD
    ENSEMBLE NVE
    STEPS 10
    TEMPERATURE 85.0
    TIMESTEP 1.
  &END MD
&END MOTION

&FORCE_EVAL
  METHOD FIST
  &EXTERNAL_POTENTIAL
    ATOMS_LIST 1
    FUNCTION sin(0.5*X)+cos(2.0*Y)-0.03*Z
  &END EXTERNAL_POTENTIAL
  &EXTERNAL_POTENTIAL
    ATOMS_LIST 2
    FUNCTION sin(0.5*X)+cos(2.0*Y)-0.03*Z
  &END EXTERNAL_POTENTIAL
  &EXTERNAL_POTENTIAL
    ATOMS_LIST 3
    FUNCTION sin(0.5*X)+cos(2.0*Y)-0.03*Z
  &END EXTERNAL_POTENTIAL
  &MM
    &FORCEFIELD
      &CHARGE
        ATOM Ar
        CHARGE 0.0
      &END CHARGE
      &NONBONDED
        &LENNARD-JONES
          ATOMS Ar Ar
          EPSILON 119.8
          RCUT 8.4
          SIGMA 3.405
        &END LENNARD-JONES
      &END NONBONDED
    &END FORCEFIELD
    &POISSON
      &EWALD
        EWALD_TYPE none
      &END EWALD
    &END POISSON
  &END MM
  &SUBSYS
    &CELL
      ABC 10.0 10.0 10.0
    &END CELL
    &COORD
      Ar 2.5 2.5 2.0
      Ar 5.0 5.0 5.0
      Ar 4.0 2.0 8.0
    &END COORD
    &TOPOLOGY
    &END TOPOLOGY
  &END SUBSYS
&END FORCE_EVAL
