&GLOBAL
  PROJECT Si_tersoff_rcut
  RUN_TYPE md
&END GLOBAL

&MOTION
  &MD
    ENSEMBLE NVE
    STEPS 50
    TEMPERATURE 4000.0
    TIMESTEP 0.1
  &END MD
&END MOTION

&FORCE_EVAL
  METHOD FIST
  &MM
    &FORCEFIELD
      &NONBONDED
        &TERSOFF
          A 1.8308E3
          ALPHA 0.00
          ATOMS Si Si
          B 4.7118E2
          BETA 1.0999E-6
          BIGD 0.15
          BIGR 2.85
          C 1.0039E5
          D 1.6218E1
          H -5.9826E-1
          LAMBDA1 2.4799
          LAMBDA2 1.7322
          LAMBDA3 1.7322
          N 7.8734E-1
          RCUT 10.0
        &END TERSOFF
      &END NONBONDED
      &SPLINE
        EPS_SPLINE 1.E-6
      &END SPLINE
    &END FORCEFIELD
    &POISSON
      &EWALD
        EWALD_TYPE none
      &END EWALD
    &END POISSON
  &END MM
  &SUBSYS
    &CELL
      ABC 7.73 7.73 7.73
    &END CELL
    &COORD
      Si 0 0 0
      Si 1.9325 1.9325 0
      Si 1.9325 0 1.9325
      Si 0 1.9325 1.9325
      Si 3.865 0 0
      Si 5.7975 1.9325 0
      Si 5.7975 0 1.9325
      Si 3.865 1.9325 1.9325
      Si 0 3.865 0
      Si 1.9325 5.7975 0
      Si 1.9325 3.865 1.9325
      Si 0 5.7975 1.9325
      Si 3.865 3.865 0
      Si 5.7975 5.7975 0
      Si 5.7975 3.865 1.9325
      Si 3.865 5.7975 1.9325
      Si 0 0 3.865
      Si 1.9325 1.9325 3.865
      Si 1.9325 0 5.7975
      Si 0 1.9325 5.7975
      Si 3.865 0 3.865
      Si 5.7975 1.9325 3.865
      Si 5.7975 0 5.7975
      Si 3.865 1.9325 5.7975
      Si 0 3.865 3.865
      Si 1.9325 5.7975 3.865
      Si 1.9325 3.865 5.7975
      Si 0 5.7975 5.7975
      Si 3.865 3.865 3.865
      Si 5.7975 5.7975 3.865
      Si 5.7975 3.865 5.7975
      Si 3.865 5.7975 5.7975
    &END COORD
    &TOPOLOGY
    &END TOPOLOGY
  &END SUBSYS
&END FORCE_EVAL
