&FORCE_EVAL
 METHOD FIST
  &MM
    &FORCEFIELD
      &NONBONDED
       &TERSOFF
         ATOMS SI SI
       &END TERSOFF
      &END NONBONDED
    &END FORCEFIELD
    &POISSON
      &EWALD
        GMAX 25
      &END EWALD
    &END POISSON

  &END MM
  &SUBSYS
    &CELL
      ABC 21.7236 21.7236 21.7236
      UNIT ANGSTROM
    &END CELL
    &COORD
SI     0.000000    0.000000    0.000000
SI     0.000000    2.715450    2.715450
SI     2.715450    0.000000    2.715450
SI     2.715450    2.715450    0.000000
SI     1.357725    1.357725    1.357725
SI     4.073175    4.073175    1.357725
SI     1.357725    4.073175    4.073175
SI     4.073175    1.357725    4.073175
SI     0.000000    0.000000    5.430900
SI     0.000000    2.715450    8.146350
SI     2.715450    0.000000    8.146350
SI     2.715450    2.715450    5.430900
SI     1.357725    1.357725    6.788625
SI     4.073175    4.073175    6.788625
SI     1.357725    4.073175    9.504075
SI     4.073175    1.357725    9.504075
SI     0.000000    5.430900    0.000000
SI     0.000000    8.146350    2.715450
SI     2.715450    5.430900    2.715450
SI     2.715450    8.146350    0.000000
SI     1.357725    6.788625    1.357725
SI     4.073175    9.504075    1.357725
SI     1.357725    9.504075    4.073175
SI     4.073175    6.788625    4.073175
SI     0.000000    5.430900    5.430900
SI     0.000000    8.146350    8.146350
SI     2.715450    5.430900    8.146350
SI     2.715450    8.146350    5.430900
SI     1.357725    6.788625    6.788625
SI     4.073175    9.504075    6.788625
SI     1.357725    9.504075    9.504075
SI     4.073175    6.788625    9.504075
SI     5.430900    0.000000    0.000000
SI     5.430900    2.715450    2.715450
SI     8.146350    0.000000    2.715450
SI     8.146350    2.715450    0.000000
SI     6.788625    1.357725    1.357725
SI     9.504075    4.073175    1.357725
SI     6.788625    4.073175    4.073175
SI     9.504075    1.357725    4.073175
SI     5.430900    0.000000    5.430900
SI     5.430900    2.715450    8.146350
SI     8.146350    0.000000    8.146350
SI     8.146350    2.715450    5.430900
SI     6.788625    1.357725    6.788625
SI     9.504075    4.073175    6.788625
SI     6.788625    4.073175    9.504075
SI     9.504075    1.357725    9.504075
SI     5.430900    5.430900    0.000000
SI     5.430900    8.146350    2.715450
SI     8.146350    5.430900    2.715450
SI     8.146350    8.146350    0.000000
SI     6.788625    6.788625    1.357725
SI     9.504075    9.504075    1.357725
SI     6.788625    9.504075    4.073175
SI     9.504075    6.788625    4.073175
SI     5.430900    5.430900    5.430900
SI     5.430900    8.146350    8.146350
SI     8.146350    5.430900    8.146350
SI     8.146350    8.146350    5.430900
SI     6.788625    6.788625    6.788625
SI     9.504075    9.504075    6.788625
SI     6.788625    9.504075    9.504075
SI     9.504075    6.788625    9.504075
    &END COORD
#    &PRINT
#      &ATOMIC_COORDINATES
#      &END
#      &INTERATOMIC_DISTANCES OFF
#      &END
#    &END
 &END SUBSYS
&END FORCE_EVAL
&GLOBAL
  FFTLIB FFTSG
  PROGRAM_NAME CP2K
  PROJECT SilicioBulk
  RUN_TYPE MD
  PRINT_LEVEL LOW
  WALLTIME 10000000
&END GLOBAL
#&EXT_RESTART
# EXTERNAL_FILE file.restart
# RESTART_COUNTERS F
# RESTART_POS T
# RESTART_VEL T
#&END EXT_RESTART
&MOTION
  &MD
    ENSEMBLE NVE
    STEPS 50
    TIMESTEP 1.0
    TEMPERATURE 100.0
  &END MD
  &PRINT
    &RESTART
      EACH 50
      FILENAME file.restart
    &END
  &END 
&END MOTION

