&GLOBAL
  PROJECT silicon
  RUN_TYPE md
&END GLOBAL
&MOTION
  &MD
    ENSEMBLE NVE
    STEPS 50
    TIMESTEP 0.1
    TEMPERATURE 4000.0
  &END MD
&END MOTION

&FORCE_EVAL
  METHOD FIST
  &MM
    &FORCEFIELD
      &SPLINE
       EPS_SPLINE 1.E-6
      &END
      &NONBONDED
        &TERSOFF
          ATOMS Si Si
          A        1.8308E3
          B        4.7118E2
          lambda1  2.4799
          lambda2  1.7322
          alpha    0.00
          beta     1.0999E-6
          n        7.8734E-1
          c        1.0039E5
          d        1.6218E1
          h       -5.9826E-1
          lambda3  1.7322
          bigR     2.85
          bigD     0.15
        &END TERSOFF
      &END NONBONDED
    &END FORCEFIELD
    &POISSON
      &EWALD
        EWALD_TYPE none
      &END EWALD
    &END POISSON
  &END MM
  &SUBSYS
    &CELL
      ABC 7.73 7.73 7.73
      UNIT ANGSTROM
    &END CELL
    &COORD
Si 0 0 0
Si 1.9325 1.9325 0
Si 1.9325 0 1.9325
Si 0 1.9325 1.9325
Si 3.865 0 0
Si 5.7975 1.9325 0
Si 5.7975 0 1.9325
Si 3.865 1.9325 1.9325
Si 0 3.865 0
Si 1.9325 5.7975 0
Si 1.9325 3.865 1.9325
Si 0 5.7975 1.9325
Si 3.865 3.865 0
Si 5.7975 5.7975 0
Si 5.7975 3.865 1.9325
Si 3.865 5.7975 1.9325
Si 0 0 3.865
Si 1.9325 1.9325 3.865
Si 1.9325 0 5.7975
Si 0 1.9325 5.7975
Si 3.865 0 3.865
Si 5.7975 1.9325 3.865
Si 5.7975 0 5.7975
Si 3.865 1.9325 5.7975
Si 0 3.865 3.865
Si 1.9325 5.7975 3.865
Si 1.9325 3.865 5.7975
Si 0 5.7975 5.7975
Si 3.865 3.865 3.865
Si 5.7975 5.7975 3.865
Si 5.7975 3.865 5.7975
Si 3.865 5.7975 5.7975
    &END COORD
    &TOPOLOGY
    &END TOPOLOGY
  &END SUBSYS
&END FORCE_EVAL
