&GLOBAL
  PROJECT siepmann_sprik_OH
  RUN_TYPE MD
&END GLOBAL

&MOTION
  &MD
    ENSEMBLE NVE
    STEPS 2  
    TIMESTEP 0.1
    TEMPERATURE 4000.0
  &END MD
&END MOTION

&MULTIPLE_FORCE_EVALS
  FORCE_EVAL_ORDER  1 2 3 
  MULTIPLE_SUBSYS T
&END

&FORCE_EVAL
  METHOD MIXED
  &MIXED
    GROUP_PARTITION 1 1
   MIXING_TYPE GENMIX
   &GENERIC
     # X: Energy force_eval 2
     # Y: Energy force_eval 3
     MIXING_FUNCTION X+Y
     VARIABLES X Y 
   &END
   &PRINT
    &DIPOLE OFF
    &END
   &END
  &END
  &SUBSYS
    &CELL
    ABC 33.2623 28.8060  35.0  
    ALPHA_BETA_GAMMA 90.0 90.0 90.0 
    &END CELL
    &COORD
Pt     0.000000    0.000000    0.000000
Pt     1.385929    2.400500    0.000000
Pt     2.771859    0.000000    0.000000
Pt     4.157788    2.400500    0.000000
Pt     5.543717    0.000000    0.000000
Pt     6.929646    2.400500    0.000000
Pt     8.315576    0.000000    0.000000
Pt     9.701505    2.400500    0.000000
Pt    11.087434    0.000000    0.000000
Pt    12.473363    2.400500    0.000000
Pt    13.859293    0.000000    0.000000
Pt    15.245222    2.400500    0.000000
Pt    16.631151    0.000000    0.000000
Pt    18.017080    2.400500    0.000000
Pt    19.403010    0.000000    0.000000
Pt    20.788939    2.400500    0.000000
Pt    22.174868    0.000000    0.000000
Pt    23.560798    2.400500    0.000000
Pt    24.946727    0.000000    0.000000
Pt    26.332656    2.400500    0.000000
Pt    27.718585    0.000000    0.000000
Pt    29.104515    2.400500    0.000000
Pt    30.490444    0.000000    0.000000
Pt    31.876373    2.400500    0.000000
Pt     0.000000    4.801000    0.000000
Pt     1.385929    7.201499    0.000000
Pt     2.771859    4.801000    0.000000
Pt     4.157788    7.201499    0.000000
Pt     5.543717    4.801000    0.000000
Pt     6.929646    7.201499    0.000000
Pt     8.315576    4.801000    0.000000
Pt     9.701505    7.201499    0.000000
Pt    11.087434    4.801000    0.000000
Pt    12.473363    7.201499    0.000000
Pt    13.859293    4.801000    0.000000
Pt    15.245222    7.201499    0.000000
Pt    16.631151    4.801000    0.000000
Pt    18.017080    7.201499    0.000000
Pt    19.403010    4.801000    0.000000
Pt    20.788939    7.201499    0.000000
Pt    22.174868    4.801000    0.000000
Pt    23.560798    7.201499    0.000000
Pt    24.946727    4.801000    0.000000
Pt    26.332656    7.201499    0.000000
Pt    27.718585    4.801000    0.000000
Pt    29.104515    7.201499    0.000000
Pt    30.490444    4.801000    0.000000
Pt    31.876373    7.201499    0.000000
Pt     0.000000    9.601999    0.000000
Pt     1.385929   12.002499    0.000000
Pt     2.771859    9.601999    0.000000
Pt     4.157788   12.002499    0.000000
Pt     5.543717    9.601999    0.000000
Pt     6.929646   12.002499    0.000000
Pt     8.315576    9.601999    0.000000
Pt     9.701505   12.002499    0.000000
Pt    11.087434    9.601999    0.000000
Pt    12.473363   12.002499    0.000000
Pt    13.859293    9.601999    0.000000
Pt    15.245222   12.002499    0.000000
Pt    16.631151    9.601999    0.000000
Pt    18.017080   12.002499    0.000000
Pt    19.403010    9.601999    0.000000
Pt    20.788939   12.002499    0.000000
Pt    22.174868    9.601999    0.000000
Pt    23.560798   12.002499    0.000000
Pt    24.946727    9.601999    0.000000
Pt    26.332656   12.002499    0.000000
Pt    27.718585    9.601999    0.000000
Pt    29.104515   12.002499    0.000000
Pt    30.490444    9.601999    0.000000
Pt    31.876373   12.002499    0.000000
Pt     0.000000   14.402999    0.000000
Pt     1.385929   16.803499    0.000000
Pt     2.771859   14.402999    0.000000
Pt     4.157788   16.803499    0.000000
Pt     5.543717   14.402999    0.000000
Pt     6.929646   16.803499    0.000000
Pt     8.315576   14.402999    0.000000
Pt     9.701505   16.803499    0.000000
Pt    11.087434   14.402999    0.000000
Pt    12.473363   16.803499    0.000000
Pt    13.859293   14.402999    0.000000
Pt    15.245222   16.803499    0.000000
Pt    16.631151   14.402999    0.000000
Pt    18.017080   16.803499    0.000000
Pt    19.403010   14.402999    0.000000
Pt    20.788939   16.803499    0.000000
Pt    22.174868   14.402999    0.000000
Pt    23.560798   16.803499    0.000000
Pt    24.946727   14.402999    0.000000
Pt    26.332656   16.803499    0.000000
Pt    27.718585   14.402999    0.000000
Pt    29.104515   16.803499    0.000000
Pt    30.490444   14.402999    0.000000
Pt    31.876373   16.803499    0.000000
Pt     0.000000   19.203998    0.000000
Pt     1.385929   21.604498    0.000000
Pt     2.771859   19.203998    0.000000
Pt     4.157788   21.604498    0.000000
Pt     5.543717   19.203998    0.000000
Pt     6.929646   21.604498    0.000000
Pt     8.315576   19.203998    0.000000
Pt     9.701505   21.604498    0.000000
Pt    11.087434   19.203998    0.000000
Pt    12.473363   21.604498    0.000000
Pt    13.859293   19.203998    0.000000
Pt    15.245222   21.604498    0.000000
Pt    16.631151   19.203998    0.000000
Pt    18.017080   21.604498    0.000000
Pt    19.403010   19.203998    0.000000
Pt    20.788939   21.604498    0.000000
Pt    22.174868   19.203998    0.000000
Pt    23.560798   21.604498    0.000000
Pt    24.946727   19.203998    0.000000
Pt    26.332656   21.604498    0.000000
Pt    27.718585   19.203998    0.000000
Pt    29.104515   21.604498    0.000000
Pt    30.490444   19.203998    0.000000
Pt    31.876373   21.604498    0.000000
Pt     0.000000   24.004998    0.000000
Pt     1.385929   26.405498    0.000000
Pt     2.771859   24.004998    0.000000
Pt     4.157788   26.405498    0.000000
Pt     5.543717   24.004998    0.000000
Pt     6.929646   26.405498    0.000000
Pt     8.315576   24.004998    0.000000
Pt     9.701505   26.405498    0.000000
Pt    11.087434   24.004998    0.000000
Pt    12.473363   26.405498    0.000000
Pt    13.859293   24.004998    0.000000
Pt    15.245222   26.405498    0.000000
Pt    16.631151   24.004998    0.000000
Pt    18.017080   26.405498    0.000000
Pt    19.403010   24.004998    0.000000
Pt    20.788939   26.405498    0.000000
Pt    22.174868   24.004998    0.000000
Pt    23.560798   26.405498    0.000000
Pt    24.946727   24.004998    0.000000
Pt    26.332656   26.405498    0.000000
Pt    27.718585   24.004998    0.000000
Pt    29.104515   26.405498    0.000000
Pt    30.490444   24.004998    0.000000
Pt    31.876373   26.405498    0.000000
Pt     1.385929    0.800167    2.263213
Pt     0.000000    3.200666    2.263213
Pt     4.157788    0.800167    2.263213
Pt     2.771859    3.200666    2.263213
Pt     6.929646    0.800167    2.263213
Pt     5.543717    3.200666    2.263213
Pt     9.701505    0.800167    2.263213
Pt     8.315576    3.200666    2.263213
Pt    12.473363    0.800167    2.263213
Pt    11.087434    3.200666    2.263213
Pt    15.245222    0.800167    2.263213
Pt    13.859293    3.200666    2.263213
Pt    18.017080    0.800167    2.263213
Pt    16.631151    3.200666    2.263213
Pt    20.788939    0.800167    2.263213
Pt    19.403010    3.200666    2.263213
Pt    23.560798    0.800167    2.263213
Pt    22.174868    3.200666    2.263213
Pt    26.332656    0.800167    2.263213
Pt    24.946727    3.200666    2.263213
Pt    29.104515    0.800167    2.263213
Pt    27.718585    3.200666    2.263213
Pt    31.876373    0.800167    2.263213
Pt    30.490444    3.200666    2.263213
Pt     1.385929    5.601166    2.263213
Pt     0.000000    8.001666    2.263213
Pt     4.157788    5.601166    2.263213
Pt     2.771859    8.001666    2.263213
Pt     6.929646    5.601166    2.263213
Pt     5.543717    8.001666    2.263213
Pt     9.701505    5.601166    2.263213
Pt     8.315576    8.001666    2.263213
Pt    12.473363    5.601166    2.263213
Pt    11.087434    8.001666    2.263213
Pt    15.245222    5.601166    2.263213
Pt    13.859293    8.001666    2.263213
Pt    18.017080    5.601166    2.263213
Pt    16.631151    8.001666    2.263213
Pt    20.788939    5.601166    2.263213
Pt    19.403010    8.001666    2.263213
Pt    23.560798    5.601166    2.263213
Pt    22.174868    8.001666    2.263213
Pt    26.332656    5.601166    2.263213
Pt    24.946727    8.001666    2.263213
Pt    29.104515    5.601166    2.263213
Pt    27.718585    8.001666    2.263213
Pt    31.876373    5.601166    2.263213
Pt    30.490444    8.001666    2.263213
Pt     1.385929   10.402166    2.263213
Pt     0.000000   12.802666    2.263213
Pt     4.157788   10.402166    2.263213
Pt     2.771859   12.802666    2.263213
Pt     6.929646   10.402166    2.263213
Pt     5.543717   12.802666    2.263213
Pt     9.701505   10.402166    2.263213
Pt     8.315576   12.802666    2.263213
Pt    12.473363   10.402166    2.263213
Pt    11.087434   12.802666    2.263213
Pt    15.245222   10.402166    2.263213
Pt    13.859293   12.802666    2.263213
Pt    18.017080   10.402166    2.263213
Pt    16.631151   12.802666    2.263213
Pt    20.788939   10.402166    2.263213
Pt    19.403010   12.802666    2.263213
Pt    23.560798   10.402166    2.263213
Pt    22.174868   12.802666    2.263213
Pt    26.332656   10.402166    2.263213
Pt    24.946727   12.802666    2.263213
Pt    29.104515   10.402166    2.263213
Pt    27.718585   12.802666    2.263213
Pt    31.876373   10.402166    2.263213
Pt    30.490444   12.802666    2.263213
Pt     1.385929   15.203165    2.263213
Pt     0.000000   17.603665    2.263213
Pt     4.157788   15.203165    2.263213
Pt     2.771859   17.603665    2.263213
Pt     6.929646   15.203165    2.263213
Pt     5.543717   17.603665    2.263213
Pt     9.701505   15.203165    2.263213
Pt     8.315576   17.603665    2.263213
Pt    12.473363   15.203165    2.263213
Pt    11.087434   17.603665    2.263213
Pt    15.245222   15.203165    2.263213
Pt    13.859293   17.603665    2.263213
Pt    18.017080   15.203165    2.263213
Pt    16.631151   17.603665    2.263213
Pt    20.788939   15.203165    2.263213
Pt    19.403010   17.603665    2.263213
Pt    23.560798   15.203165    2.263213
Pt    22.174868   17.603665    2.263213
Pt    26.332656   15.203165    2.263213
Pt    24.946727   17.603665    2.263213
Pt    29.104515   15.203165    2.263213
Pt    27.718585   17.603665    2.263213
Pt    31.876373   15.203165    2.263213
Pt    30.490444   17.603665    2.263213
Pt     1.385929   20.004165    2.263213
Pt     0.000000   22.404665    2.263213
Pt     4.157788   20.004165    2.263213
Pt     2.771859   22.404665    2.263213
Pt     6.929646   20.004165    2.263213
Pt     5.543717   22.404665    2.263213
Pt     9.701505   20.004165    2.263213
Pt     8.315576   22.404665    2.263213
Pt    12.473363   20.004165    2.263213
Pt    11.087434   22.404665    2.263213
Pt    15.245222   20.004165    2.263213
Pt    13.859293   22.404665    2.263213
Pt    18.017080   20.004165    2.263213
Pt    16.631151   22.404665    2.263213
Pt    20.788939   20.004165    2.263213
Pt    19.403010   22.404665    2.263213
Pt    23.560798   20.004165    2.263213
Pt    22.174868   22.404665    2.263213
Pt    26.332656   20.004165    2.263213
Pt    24.946727   22.404665    2.263213
Pt    29.104515   20.004165    2.263213
Pt    27.718585   22.404665    2.263213
Pt    31.876373   20.004165    2.263213
Pt    30.490444   22.404665    2.263213
Pt     1.385929   24.805165    2.263213
Pt     0.000000   27.205664    2.263213
Pt     4.157788   24.805165    2.263213
Pt     2.771859   27.205664    2.263213
Pt     6.929646   24.805165    2.263213
Pt     5.543717   27.205664    2.263213
Pt     9.701505   24.805165    2.263213
Pt     8.315576   27.205664    2.263213
Pt    12.473363   24.805165    2.263213
Pt    11.087434   27.205664    2.263213
Pt    15.245222   24.805165    2.263213
Pt    13.859293   27.205664    2.263213
Pt    18.017080   24.805165    2.263213
Pt    16.631151   27.205664    2.263213
Pt    20.788939   24.805165    2.263213
Pt    19.403010   27.205664    2.263213
Pt    23.560798   24.805165    2.263213
Pt    22.174868   27.205664    2.263213
Pt    26.332656   24.805165    2.263213
Pt    24.946727   27.205664    2.263213
Pt    29.104515   24.805165    2.263213
Pt    27.718585   27.205664    2.263213
Pt    31.876373   24.805165    2.263213
Pt    30.490444   27.205664    2.263213
Pt     0.000000    1.600333    4.526426
Pt     1.385929   -0.800167    4.526426
Pt     2.771859    1.600333    4.526426
Pt     4.157788   -0.800167    4.526426
Pt     5.543717    1.600333    4.526426
Pt     6.929646   -0.800167    4.526426
Pt     8.315576    1.600333    4.526426
Pt     9.701505   -0.800167    4.526426
Pt    11.087434    1.600333    4.526426
Pt    12.473363   -0.800167    4.526426
Pt    13.859293    1.600333    4.526426
Pt    15.245222   -0.800167    4.526426
Pt    16.631151    1.600333    4.526426
Pt    18.017080   -0.800167    4.526426
Pt    19.403010    1.600333    4.526426
Pt    20.788939   -0.800167    4.526426
Pt    22.174868    1.600333    4.526426
Pt    23.560798   -0.800167    4.526426
Pt    24.946727    1.600333    4.526426
Pt    26.332656   -0.800167    4.526426
Pt    27.718585    1.600333    4.526426
Pt    29.104515   -0.800167    4.526426
Pt    30.490444    1.600333    4.526426
Pt    31.876373   -0.800167    4.526426
Pt     0.000000    6.401333    4.526426
Pt     1.385929    4.000833    4.526426
Pt     2.771859    6.401333    4.526426
Pt     4.157788    4.000833    4.526426
Pt     5.543717    6.401333    4.526426
Pt     6.929646    4.000833    4.526426
Pt     8.315576    6.401333    4.526426
Pt     9.701505    4.000833    4.526426
Pt    11.087434    6.401333    4.526426
Pt    12.473363    4.000833    4.526426
Pt    13.859293    6.401333    4.526426
Pt    15.245222    4.000833    4.526426
Pt    16.631151    6.401333    4.526426
Pt    18.017080    4.000833    4.526426
Pt    19.403010    6.401333    4.526426
Pt    20.788939    4.000833    4.526426
Pt    22.174868    6.401333    4.526426
Pt    23.560798    4.000833    4.526426
Pt    24.946727    6.401333    4.526426
Pt    26.332656    4.000833    4.526426
Pt    27.718585    6.401333    4.526426
Pt    29.104515    4.000833    4.526426
Pt    30.490444    6.401333    4.526426
Pt    31.876373    4.000833    4.526426
Pt     0.000000   11.202332    4.526426
Pt     1.385929    8.801833    4.526426
Pt     2.771859   11.202332    4.526426
Pt     4.157788    8.801833    4.526426
Pt     5.543717   11.202332    4.526426
Pt     6.929646    8.801833    4.526426
Pt     8.315576   11.202332    4.526426
Pt     9.701505    8.801833    4.526426
Pt    11.087434   11.202332    4.526426
Pt    12.473363    8.801833    4.526426
Pt    13.859293   11.202332    4.526426
Pt    15.245222    8.801833    4.526426
Pt    16.631151   11.202332    4.526426
Pt    18.017080    8.801833    4.526426
Pt    19.403010   11.202332    4.526426
Pt    20.788939    8.801833    4.526426
Pt    22.174868   11.202332    4.526426
Pt    23.560798    8.801833    4.526426
Pt    24.946727   11.202332    4.526426
Pt    26.332656    8.801833    4.526426
Pt    27.718585   11.202332    4.526426
Pt    29.104515    8.801833    4.526426
Pt    30.490444   11.202332    4.526426
Pt    31.876373    8.801833    4.526426
Pt     0.000000   16.003332    4.526426
Pt     1.385929   13.602832    4.526426
Pt     2.771859   16.003332    4.526426
Pt     4.157788   13.602832    4.526426
Pt     5.543717   16.003332    4.526426
Pt     6.929646   13.602832    4.526426
Pt     8.315576   16.003332    4.526426
Pt     9.701505   13.602832    4.526426
Pt    11.087434   16.003332    4.526426
Pt    12.473363   13.602832    4.526426
Pt    13.859293   16.003332    4.526426
Pt    15.245222   13.602832    4.526426
Pt    16.631151   16.003332    4.526426
Pt    18.017080   13.602832    4.526426
Pt    19.403010   16.003332    4.526426
Pt    20.788939   13.602832    4.526426
Pt    22.174868   16.003332    4.526426
Pt    23.560798   13.602832    4.526426
Pt    24.946727   16.003332    4.526426
Pt    26.332656   13.602832    4.526426
Pt    27.718585   16.003332    4.526426
Pt    29.104515   13.602832    4.526426
Pt    30.490444   16.003332    4.526426
Pt    31.876373   13.602832    4.526426
Pt     0.000000   20.804332    4.526426
Pt     1.385929   18.403832    4.526426
Pt     2.771859   20.804332    4.526426
Pt     4.157788   18.403832    4.526426
Pt     5.543717   20.804332    4.526426
Pt     6.929646   18.403832    4.526426
Pt     8.315576   20.804332    4.526426
Pt     9.701505   18.403832    4.526426
Pt    11.087434   20.804332    4.526426
Pt    12.473363   18.403832    4.526426
Pt    13.859293   20.804332    4.526426
Pt    15.245222   18.403832    4.526426
Pt    16.631151   20.804332    4.526426
Pt    18.017080   18.403832    4.526426
Pt    19.403010   20.804332    4.526426
Pt    20.788939   18.403832    4.526426
Pt    22.174868   20.804332    4.526426
Pt    23.560798   18.403832    4.526426
Pt    24.946727   20.804332    4.526426
Pt    26.332656   18.403832    4.526426
Pt    27.718585   20.804332    4.526426
Pt    29.104515   18.403832    4.526426
Pt    30.490444   20.804332    4.526426
Pt    31.876373   18.403832    4.526426
Pt     0.000000   25.605331    4.526426
Pt     1.385929   23.204831    4.526426
Pt     2.771859   25.605331    4.526426
Pt     4.157788   23.204831    4.526426
Pt     5.543717   25.605331    4.526426
Pt     6.929646   23.204831    4.526426
Pt     8.315576   25.605331    4.526426
Pt     9.701505   23.204831    4.526426
Pt    11.087434   25.605331    4.526426
Pt    12.473363   23.204831    4.526426
Pt    13.859293   25.605331    4.526426
Pt    15.245222   23.204831    4.526426
Pt    16.631151   25.605331    4.526426
Pt    18.017080   23.204831    4.526426
Pt    19.403010   25.605331    4.526426
Pt    20.788939   23.204831    4.526426
Pt    22.174868   25.605331    4.526426
Pt    23.560798   23.204831    4.526426
Pt    24.946727   25.605331    4.526426
Pt    26.332656   23.204831    4.526426
Pt    27.718585   25.605331    4.526426
Pt    29.104515   23.204831    4.526426
Pt    30.490444   25.605331    4.526426
Pt    31.876373   23.204831    4.526426
Pt     0.000000    0.000000    6.789640
Pt     1.385929    2.400500    6.789640
Pt     2.771859    0.000000    6.789640
Pt     4.157788    2.400500    6.789640
Pt     5.543717    0.000000    6.789640
Pt     6.929646    2.400500    6.789640
Pt     8.315576    0.000000    6.789640
Pt     9.701505    2.400500    6.789640
Pt    11.087434    0.000000    6.789640
Pt    12.473363    2.400500    6.789640
Pt    13.859293    0.000000    6.789640
Pt    15.245222    2.400500    6.789640
Pt    16.631151    0.000000    6.789640
Pt    18.017080    2.400500    6.789640
Pt    19.403010    0.000000    6.789640
Pt    20.788939    2.400500    6.789640
Pt    22.174868    0.000000    6.789640
Pt    23.560798    2.400500    6.789640
Pt    24.946727    0.000000    6.789640
Pt    26.332656    2.400500    6.789640
Pt    27.718585    0.000000    6.789640
Pt    29.104515    2.400500    6.789640
Pt    30.490444    0.000000    6.789640
Pt    31.876373    2.400500    6.789640
Pt     0.000000    4.801000    6.789640
Pt     1.385929    7.201499    6.789640
Pt     2.771859    4.801000    6.789640
Pt     4.157788    7.201499    6.789640
Pt     5.543717    4.801000    6.789640
Pt     6.929646    7.201499    6.789640
Pt     8.315576    4.801000    6.789640
Pt     9.701505    7.201499    6.789640
Pt    11.087434    4.801000    6.789640
Pt    12.473363    7.201499    6.789640
Pt    13.859293    4.801000    6.789640
Pt    15.245222    7.201499    6.789640
Pt    16.631151    4.801000    6.789640
Pt    18.017080    7.201499    6.789640
Pt    19.403010    4.801000    6.789640
Pt    20.788939    7.201499    6.789640
Pt    22.174868    4.801000    6.789640
Pt    23.560798    7.201499    6.789640
Pt    24.946727    4.801000    6.789640
Pt    26.332656    7.201499    6.789640
Pt    27.718585    4.801000    6.789640
Pt    29.104515    7.201499    6.789640
Pt    30.490444    4.801000    6.789640
Pt    31.876373    7.201499    6.789640
Pt     0.000000    9.601999    6.789640
Pt     1.385929   12.002499    6.789640
Pt     2.771859    9.601999    6.789640
Pt     4.157788   12.002499    6.789640
Pt     5.543717    9.601999    6.789640
Pt     6.929646   12.002499    6.789640
Pt     8.315576    9.601999    6.789640
Pt     9.701505   12.002499    6.789640
Pt    11.087434    9.601999    6.789640
Pt    12.473363   12.002499    6.789640
Pt    13.859293    9.601999    6.789640
Pt    15.245222   12.002499    6.789640
Pt    16.631151    9.601999    6.789640
Pt    18.017080   12.002499    6.789640
Pt    19.403010    9.601999    6.789640
Pt    20.788939   12.002499    6.789640
Pt    22.174868    9.601999    6.789640
Pt    23.560798   12.002499    6.789640
Pt    24.946727    9.601999    6.789640
Pt    26.332656   12.002499    6.789640
Pt    27.718585    9.601999    6.789640
Pt    29.104515   12.002499    6.789640
Pt    30.490444    9.601999    6.789640
Pt    31.876373   12.002499    6.789640
Pt     0.000000   14.402999    6.789640
Pt     1.385929   16.803499    6.789640
Pt     2.771859   14.402999    6.789640
Pt     4.157788   16.803499    6.789640
Pt     5.543717   14.402999    6.789640
Pt     6.929646   16.803499    6.789640
Pt     8.315576   14.402999    6.789640
Pt     9.701505   16.803499    6.789640
Pt    11.087434   14.402999    6.789640
Pt    12.473363   16.803499    6.789640
Pt    13.859293   14.402999    6.789640
Pt    15.245222   16.803499    6.789640
Pt    16.631151   14.402999    6.789640
Pt    18.017080   16.803499    6.789640
Pt    19.403010   14.402999    6.789640
Pt    20.788939   16.803499    6.789640
Pt    22.174868   14.402999    6.789640
Pt    23.560798   16.803499    6.789640
Pt    24.946727   14.402999    6.789640
Pt    26.332656   16.803499    6.789640
Pt    27.718585   14.402999    6.789640
Pt    29.104515   16.803499    6.789640
Pt    30.490444   14.402999    6.789640
Pt    31.876373   16.803499    6.789640
Pt     0.000000   19.203998    6.789640
Pt     1.385929   21.604498    6.789640
Pt     2.771859   19.203998    6.789640
Pt     4.157788   21.604498    6.789640
Pt     5.543717   19.203998    6.789640
Pt     6.929646   21.604498    6.789640
Pt     8.315576   19.203998    6.789640
Pt     9.701505   21.604498    6.789640
Pt    11.087434   19.203998    6.789640
Pt    12.473363   21.604498    6.789640
Pt    13.859293   19.203998    6.789640
Pt    15.245222   21.604498    6.789640
Pt    16.631151   19.203998    6.789640
Pt    18.017080   21.604498    6.789640
Pt    19.403010   19.203998    6.789640
Pt    20.788939   21.604498    6.789640
Pt    22.174868   19.203998    6.789640
Pt    23.560798   21.604498    6.789640
Pt    24.946727   19.203998    6.789640
Pt    26.332656   21.604498    6.789640
Pt    27.718585   19.203998    6.789640
Pt    29.104515   21.604498    6.789640
Pt    30.490444   19.203998    6.789640
Pt    31.876373   21.604498    6.789640
Pt     0.000000   24.004998    6.789640
Pt     1.385929   26.405498    6.789640
Pt     2.771859   24.004998    6.789640
Pt     4.157788   26.405498    6.789640
Pt     5.543717   24.004998    6.789640
Pt     6.929646   26.405498    6.789640
Pt     8.315576   24.004998    6.789640
Pt     9.701505   26.405498    6.789640
Pt    11.087434   24.004998    6.789640
Pt    12.473363   26.405498    6.789640
Pt    13.859293   24.004998    6.789640
Pt    15.245222   26.405498    6.789640
Pt    16.631151   24.004998    6.789640
Pt    18.017080   26.405498    6.789640
Pt    19.403010   24.004998    6.789640
Pt    20.788939   26.405498    6.789640
Pt    22.174868   24.004998    6.789640
Pt    23.560798   26.405498    6.789640
Pt    24.946727   24.004998    6.789640
Pt    26.332656   26.405498    6.789640
Pt    27.718585   24.004998    6.789640
Pt    29.104515   26.405498    6.789640
Pt    30.490444   24.004998    6.789640
Pt    31.876373   26.405498    6.789640
O      19.957378864    9.601999393    9.500000000
H      20.744964864    9.070766393    9.500000000
H      19.194000864    9.036531393    9.500000000
O      16.631149054    9.601999393    9.500000000
H      17.418735054    9.070766393    9.500000000
H      15.867771054    9.036531393    9.500000000
O      13.304919243    9.601999393    9.500000000
H      14.092505243    9.070766393    9.500000000
H      12.541541243    9.036531393    9.500000000
O      18.017078348   12.002499242    9.500000000
H      18.804664348   11.471266242    9.500000000
H      17.253700348   11.437031242    9.500000000
O      14.690848537   12.002499242    9.500000000
H      13.927470537   11.437031242    9.500000000
O      11.364618727   12.002499242    9.500000000
H      12.152204727   11.471266242    9.500000000
H      10.601240727   11.437031242    9.500000000
O      19.957378864   14.402999090    9.500000000
H      20.744964864   13.871766090    9.500000000
H      19.194000864   13.837531090    9.500000000
O      16.631149054   14.402999090    9.500000000
H      17.418735054   13.871766090    9.500000000
H      15.867771054   13.837531090    9.500000000
O      13.304919243   14.402999090    9.500000000
H      14.092505243   13.871766090    9.500000000
H      12.541541243   13.837531090    9.500000000
O      18.017078348   16.803498938    9.500000000
H      18.804664348   16.272265938    9.500000000
O      14.690848537   16.803498938    9.500000000
H      15.478434537   16.272265938    9.500000000
H      13.927470537   16.238030938    9.500000000
O      11.364618727   16.803498938    9.500000000
H      12.152204727   16.272265938    9.500000000
H      10.601240727   16.238030938    9.500000000
O      10.364618727   19.803498938    9.500000000
H      11.152204727   19.272265938    9.500000000
O      10.364618727   19.803498938    14.500000000
H      11.152204727   19.272265938    14.500000000
    &END COORD
  &END SUBSYS
&END FORCE_EVAL

#GENPOT: T1+T2 part of Siepmann-Sprik potential
&FORCE_EVAL
  METHOD FIST
  &MM
    &FORCEFIELD
      &CHARGE
        ATOM Pt
        CHARGE 0
      &END CHARGE
      &CHARGE
        ATOM H
        CHARGE 0
      &END CHARGE
      &CHARGE
        ATOM O
        CHARGE 0
      &END CHARGE

      &SPLINE
       EPS_SPLINE 1.E-5
       #EMAX_SPLINE 2.0
      &END

       &NONBONDED

        &GENPOT
           atoms O Pt
           FUNCTION A/r^alpha-C/r^6
           VARIABLES r
           PARAMETERS A alpha C 
           VALUES 71059.888 11.0 29.48697
           RCUT  12
        &END GENPOT

        &LENNARD-JONES
          atoms O O
          EPSILON 0.0
          SIGMA 3.166
          RCUT 12
        &END LENNARD-JONES
        &LENNARD-JONES
          atoms Pt Pt
          EPSILON 0.0
          SIGMA 3.166
          RCUT 12
        &END LENNARD-JONES
        &LENNARD-JONES
          atoms H H
          EPSILON 0.0
          SIGMA 3.166
          RCUT 12
        &END LENNARD-JONES
        &LENNARD-JONES
          atoms H O
          EPSILON 0.0
          SIGMA 3.166
          RCUT 12
        &END LENNARD-JONES
        &LENNARD-JONES
          atoms H Pt
          EPSILON 0.0
          SIGMA 3.166
          RCUT 12
        &END LENNARD-JONES
      &END

    &END FORCEFIELD

    &POISSON
      &EWALD
        EWALD_TYPE ewald
        ALPHA .44
        GMAX 21
      &END EWALD
    &END POISSON
  &END MM

  &SUBSYS
    &CELL
      ABC [angstrom]  33.2623 28.8060  35.0
      PERIODIC XYZ
    &END CELL
    &COORD
Pt     0.000000    0.000000    0.000000
Pt     1.385929    2.400500    0.000000
Pt     2.771859    0.000000    0.000000
Pt     4.157788    2.400500    0.000000
Pt     5.543717    0.000000    0.000000
Pt     6.929646    2.400500    0.000000
Pt     8.315576    0.000000    0.000000
Pt     9.701505    2.400500    0.000000
Pt    11.087434    0.000000    0.000000
Pt    12.473363    2.400500    0.000000
Pt    13.859293    0.000000    0.000000
Pt    15.245222    2.400500    0.000000
Pt    16.631151    0.000000    0.000000
Pt    18.017080    2.400500    0.000000
Pt    19.403010    0.000000    0.000000
Pt    20.788939    2.400500    0.000000
Pt    22.174868    0.000000    0.000000
Pt    23.560798    2.400500    0.000000
Pt    24.946727    0.000000    0.000000
Pt    26.332656    2.400500    0.000000
Pt    27.718585    0.000000    0.000000
Pt    29.104515    2.400500    0.000000
Pt    30.490444    0.000000    0.000000
Pt    31.876373    2.400500    0.000000
Pt     0.000000    4.801000    0.000000
Pt     1.385929    7.201499    0.000000
Pt     2.771859    4.801000    0.000000
Pt     4.157788    7.201499    0.000000
Pt     5.543717    4.801000    0.000000
Pt     6.929646    7.201499    0.000000
Pt     8.315576    4.801000    0.000000
Pt     9.701505    7.201499    0.000000
Pt    11.087434    4.801000    0.000000
Pt    12.473363    7.201499    0.000000
Pt    13.859293    4.801000    0.000000
Pt    15.245222    7.201499    0.000000
Pt    16.631151    4.801000    0.000000
Pt    18.017080    7.201499    0.000000
Pt    19.403010    4.801000    0.000000
Pt    20.788939    7.201499    0.000000
Pt    22.174868    4.801000    0.000000
Pt    23.560798    7.201499    0.000000
Pt    24.946727    4.801000    0.000000
Pt    26.332656    7.201499    0.000000
Pt    27.718585    4.801000    0.000000
Pt    29.104515    7.201499    0.000000
Pt    30.490444    4.801000    0.000000
Pt    31.876373    7.201499    0.000000
Pt     0.000000    9.601999    0.000000
Pt     1.385929   12.002499    0.000000
Pt     2.771859    9.601999    0.000000
Pt     4.157788   12.002499    0.000000
Pt     5.543717    9.601999    0.000000
Pt     6.929646   12.002499    0.000000
Pt     8.315576    9.601999    0.000000
Pt     9.701505   12.002499    0.000000
Pt    11.087434    9.601999    0.000000
Pt    12.473363   12.002499    0.000000
Pt    13.859293    9.601999    0.000000
Pt    15.245222   12.002499    0.000000
Pt    16.631151    9.601999    0.000000
Pt    18.017080   12.002499    0.000000
Pt    19.403010    9.601999    0.000000
Pt    20.788939   12.002499    0.000000
Pt    22.174868    9.601999    0.000000
Pt    23.560798   12.002499    0.000000
Pt    24.946727    9.601999    0.000000
Pt    26.332656   12.002499    0.000000
Pt    27.718585    9.601999    0.000000
Pt    29.104515   12.002499    0.000000
Pt    30.490444    9.601999    0.000000