&GLOBAL
  PROJECT SiH_tersoff
  RUN_TYPE md
&END GLOBAL

&MOTION
  &MD
    ENSEMBLE NVE
    STEPS 2
    TEMPERATURE 1000.0
    TIMESTEP 0.1
  &END MD
&END MOTION

&FORCE_EVAL
  METHOD FIST
  &MM
    &FORCEFIELD
      &NONBONDED
        &TERSOFF
          A 1.8308E3
          ALPHA 0.00
          ATOMS Si Si
          B 4.7118E2
          BETA 1.0999E-6
          BIGD 0.15
          BIGR 2.85
          C 1.0039E5
          D 1.6218E1
          H -5.9826E-1
          LAMBDA1 2.4799
          LAMBDA2 1.7322
          LAMBDA3 1.7322
          N 7.8734E-1
          RCUT 8.0
        &END TERSOFF
        &TERSOFF
          A 86.7120
          ALPHA 0.00
          ATOMS H H
          B 43.5310
          BETA 4.0
          BIGD 0.1
          BIGR 0.9
          C 0.0
          D 1.0
          H 1.0
          LAMBDA1 3.7879
          LAMBDA2 1.9800
          LAMBDA3 0.0
          N 1.0
          RCUT 8.0
        &END TERSOFF
        &TERSOFF
          A 398.4373596941
          ALPHA 0.00
          ATOMS Si H
          B 111.7087902328
          BETA 1.0999E-6
          BIGD 0.1224744871
          BIGR 1.6015617378
          C 1.0039E5
          D 1.6218E1
          H -5.9826E-1
          LAMBDA1 3.1339
          LAMBDA2 1.8561
          LAMBDA3 0.0
          N 7.8734E-1
          RCUT 8.0
        &END TERSOFF
      &END NONBONDED
      &SPLINE
        EPS_SPLINE 1.E-6
      &END SPLINE
    &END FORCEFIELD
    &POISSON
      &EWALD
        EWALD_TYPE none
      &END EWALD
    &END POISSON
    &PRINT
      &FF_INFO
      &END FF_INFO
      &NEIGHBOR_LISTS
      &END NEIGHBOR_LISTS
    &END PRINT
  &END MM
  &SUBSYS
    &CELL
      ABC 7.73 7.73 7.73
    &END CELL
    &COORD
      Si 0 0 0
      Si 1.9325 1.9325 0
      Si 1.9325 0 1.9325
      Si 0 1.9325 1.9325
      H  3.865 0 0
      Si 5.7975 1.9325 0
      H  5.7975 0 1.9325
      Si 3.865 1.9325 1.9325
      H  0 3.865 0
      Si 1.9325 5.7975 0
      H  1.9325 3.865 1.9325
      Si 0 5.7975 1.9325
      Si 3.865 3.865 0
      Si 5.7975 5.7975 0
      Si 5.7975 3.865 1.9325
      Si 3.865 5.7975 1.9325
      Si 0 0 3.865
      Si 1.9325 1.9325 3.865
      Si 1.9325 0 5.7975
      Si 0 1.9325 5.7975
      Si 3.865 0 3.865
      Si 5.7975 1.9325 3.865
      Si 5.7975 0 5.7975
      Si 3.865 1.9325 5.7975
      Si 0 3.865 3.865
      Si 1.9325 5.7975 3.865
      Si 1.9325 3.865 5.7975
      Si 0 5.7975 5.7975
      Si 3.865 3.865 3.865
      Si 5.7975 5.7975 3.865
      Si 5.7975 3.865 5.7975
      Si 3.865 5.7975 5.7975
    &END COORD
    &TOPOLOGY
    &END TOPOLOGY
  &END SUBSYS
&END FORCE_EVAL
