&GLOBAL
  PRINT_LEVEL LOW
  PROJECT acetone
  RUN_TYPE ENERGY_FORCE
&END GLOBAL

&FORCE_EVAL
  METHOD FIST
  &MM
    &FORCEFIELD
      &BOND
        ATOMS CGO RES
        K [angstrom^-2kcalmol] 0.0
        KIND AMBER
        R0 [angstrom] 1.800
      &END BOND
      &NONBONDED
        &TABPOT
          ATOMS CGO CGO
          PARM_FILE_NAME Pair_none.table
        &END TABPOT
        &TABPOT
          ATOMS RES RES
          PARM_FILE_NAME Pair_none.table
        &END TABPOT
        &TABPOT
          ATOMS CGO RES
          PARM_FILE_NAME Pair_CGO-RES.table
        &END TABPOT
      &END NONBONDED
      &SPLINE
        EMAX_SPLINE 1E9
        EPS_SPLINE 1E-6
        R0_NB 1.0
        RCUT_NB 20.0
      &END SPLINE
    &END FORCEFIELD
    &NEIGHBOR_LISTS
      VERLET_SKIN [angstrom] 2.0
    &END NEIGHBOR_LISTS
    &POISSON
      &EWALD
        EWALD_TYPE NONE
      &END EWALD
    &END POISSON
  &END MM
  &SUBSYS
    &CELL
      ABC [angstrom] 41.5 41.5 41.5
      PERIODIC XYZ
    &END CELL
    &KIND CGO
      ELEMENT O
    &END KIND
    &KIND RES
      ELEMENT H
      MASS 42.08
    &END KIND
    &TOPOLOGY
      CONN_FILE_FORMAT PSF
      CONN_FILE_NAME ../sample_psf/acetone_cg.psf
      COORD_FILE_FORMAT XYZ
      COORD_FILE_NAME ../sample_xyz/acetone_cg.xyz
      MOL_CHECK TRUE
    &END TOPOLOGY
  &END SUBSYS
&END FORCE_EVAL
