&FORCE_EVAL
  METHOD FIST
  &MM
    &FORCEFIELD
      parm_file_name ../sample_pot/water.pot
      parmtype CHM
      &CHARGE
        ATOM OT
        CHARGE -0.8476
      &END CHARGE
      &CHARGE
        ATOM HT
        CHARGE 0.4238
      &END CHARGE
    &END FORCEFIELD
    &POISSON
      &EWALD
        EWALD_TYPE pme
        ALPHA .44
        NS_MAX 25
      &END EWALD
    &END POISSON
  &END MM
  &SUBSYS
    &CELL
      ABC 24.955 24.955 24.955
    &END CELL
    &COLVAR
      &DISTANCE
        ATOMS 1 2
      &END DISTANCE
    &END COLVAR
    &COLVAR
      &DISTANCE
        &POINT
    TYPE GEO_CENTER
          ATOMS 1
        &END
        &POINT
    TYPE GEO_CENTER
          ATOMS 3
        &END
        ATOMS 1 2
      &END DISTANCE
    &END COLVAR
    &COLVAR
      &DISTANCE
        &POINT
    TYPE GEO_CENTER
          ATOMS 2
        &END
        &POINT
    TYPE GEO_CENTER
          ATOMS 3
        &END
        ATOMS 1 2
      &END DISTANCE
    &END COLVAR
    &TOPOLOGY
      COORD_FILE_NAME ../sample_pdb/water_2.pdb
      COORDINATE pdb
    &END TOPOLOGY
  &END SUBSYS
&END FORCE_EVAL
&GLOBAL
  PROJECT water_3_dist_g
  RUN_TYPE MD
&END GLOBAL
&MOTION
  &CONSTRAINT
    &COLLECTIVE
      TARGET 1.8897268
      MOLECULE 1
      COLVAR 1
    &END COLLECTIVE
    &COLLECTIVE
      TARGET 1.8897268
      MOLECULE 1
      COLVAR 2
    &END COLLECTIVE
    &COLLECTIVE
      TARGET 3.0859239
      MOLECULE 1
      COLVAR 3
    &END COLLECTIVE
  &END CONSTRAINT
  &MD
    ENSEMBLE NVE
    STEPS 10
    TIMESTEP 2.5
    TEMPERATURE 298
  &END MD
&END MOTION
