# analysis of a TMC parallel tempering run without analysis output
# calculates the radial distribution function ( g(r) )
# if the amount of bins are not specified, the bin size is 0.03A
&GLOBAL
  PRINT_LEVEL LOW
  PROGRAM MC_ANALYSIS
  PROJECT H2O_TMC
  RUN_TYPE TMC
&END GLOBAL

&MOTION
  &TMC
    PRINT_TEST_OUTPUT
    &TMC_ANALYSIS_FILES
      FORCE_ENV_FILE H2O.inp
      G_R
      NR_TEMPERATURE 3
      RESTART .FALSE.
      TEMPERATURE 300 460
    &END TMC_ANALYSIS_FILES
  &END TMC
&END MOTION
