# analysis of TMC parallel tempering run without analysis output
# calculating the density in the cell. Can be done with or within sub boxes within the cell
&GLOBAL
  PRINT_LEVEL LOW
  PROGRAM MC_ANALYSIS
  PROJECT H2O_TMC
  RUN_TYPE TMC
&END GLOBAL

&MOTION
  &TMC
    PRINT_TEST_OUTPUT
    &TMC_ANALYSIS_FILES
      DENSITY 2 1 1
      FORCE_ENV_FILE H2O.inp
      NR_TEMPERATURE 3
      RESTART .FALSE.
      TEMPERATURE 300 460
    &END TMC_ANALYSIS_FILES
  &END TMC
&END MOTION
