# analysis of a TMC parallel tempering run without analysis output
# calculating the root mean squared deviation from the last cell and the average

&GLOBAL
  PROJECT H2O_TMC
  PROGRAM MC_ANALYSIS
  RUN_TYPE TMC
  PRINT_LEVEL LOW
&END GLOBAL
&MOTION
  &TMC
    PRINT_TEST_OUTPUT
    &TMC_ANALYSIS_FILES
      RESTART           .FALSE.
      NR_TEMPERATURE    3
      TEMPERATURE       300 460
      FORCE_ENV_FILE    H2O.inp
      DEVIATION
    &END TMC_ANALYSIS_FILES
  &END TMC
&END MOTION
