# analysis of TMC parallel tempering run without analysis output
# calculating the density in the cell. Can be done with or within sub boxes within the cell

&GLOBAL
  PROJECT H2O_TMC
  PROGRAM MC_ANALYSIS
  RUN_TYPE TMC
  PRINT_LEVEL LOW
&END GLOBAL
&MOTION
  &TMC
    PRINT_TEST_OUTPUT
    &TMC_ANALYSIS_FILES
      RESTART           .FALSE.
      NR_TEMPERATURE    3
      TEMPERATURE       300 460
      FORCE_ENV_FILE    H2O.inp
      DENSITY           2 1 1
    &END TMC_ANALYSIS_FILES
  &END TMC
&END MOTION
