# analysis of a TMC parallel tempering run without analysis output
# calculating the classical dipole moment
&GLOBAL
  PRINT_LEVEL LOW
  PROGRAM MC_ANALYSIS
  PROJECT H2O_TMC
  RUN_TYPE TMC
&END GLOBAL

&MOTION
  &TMC
    PRINT_TEST_OUTPUT
    &TMC_ANALYSIS_FILES
      CLASSICAL_DIPOLE_MOMENTS
      FORCE_ENV_FILE H2O.inp
      NR_TEMPERATURE 3
      RESTART .FALSE.
      TEMPERATURE 300 460
      &CHARGE
        ATOM O
        CHARGE -0.834
      &END CHARGE
      &CHARGE
        ATOM H
        CHARGE 0.417
      &END CHARGE
    &END TMC_ANALYSIS_FILES
  &END TMC
&END MOTION
