# analysis of a TMC parallel tempering run without analysis output
# calculating the root mean squared deviation from the last cell and the average
&GLOBAL
  PRINT_LEVEL LOW
  PROGRAM MC_ANALYSIS
  PROJECT H2O_TMC
  RUN_TYPE TMC
&END GLOBAL

&MOTION
  &TMC
    PRINT_TEST_OUTPUT
    &TMC_ANALYSIS_FILES
      DEVIATION
      FORCE_ENV_FILE H2O.inp
      NR_TEMPERATURE 3
      RESTART .FALSE.
      TEMPERATURE 300 460
    &END TMC_ANALYSIS_FILES
  &END TMC
&END MOTION
