&GLOBAL
  PRINT_LEVEL MEDIUM
  PROJECT H2O_allelec
  RUN_TYPE ENERGY
  &TIMINGS
    THRESHOLD 0.01
  &END TIMINGS
&END GLOBAL

&FORCE_EVAL
  METHOD Quickstep
  &DFT
    BASIS_SET_FILE_NAME EMSL_BASIS_SETS
    POTENTIAL_FILE_NAME POTENTIAL
    &MGRID
      CUTOFF 100
    &END MGRID
    &POISSON
      PERIODIC NONE
      ! POISSON_SOLVER MT
      POISSON_SOLVER WAVELET
    &END POISSON
    &QS
      EPS_DEFAULT 1.0E-15
      EPS_PGF_ORB 1.0E-30
      METHOD GAPW
    &END QS
    &SCF
      ADDED_MOS -1 -1
      EPS_SCF 1.0E-4
      IGNORE_CONVERGENCE_FAILURE
      MAX_SCF 100
      SCF_GUESS ATOMIC
    &END SCF
    ! Parameters for the DSD-BLYP double hybrid functional (ax=0.69  ac=0.54  cOS=0.46  cSS=0.37)
    &XC
      &HF
        FRACTION 0.69
        &SCREENING
          EPS_SCHWARZ 1.0E-8
          SCREEN_ON_INITIAL_P FALSE
        &END SCREENING
      &END HF
      &WF_CORRELATION
        MEMORY 1500.
        NUMBER_PROC 1
        SCALE_S 0.46
        SCALE_T 0.37
        &MP2
          BIG_SEND
          METHOD DIRECT_CANONICAL
        &END MP2
      &END WF_CORRELATION
      &XC_FUNCTIONAL
        &BECKE88
          SCALE_X 0.31
        &END BECKE88
        &LYP
          SCALE_C 0.69
        &END LYP
      &END XC_FUNCTIONAL
    &END XC
  &END DFT
  &SUBSYS
    &CELL
      ABC [angstrom] 6.000 6.000 6.000
      PERIODIC NONE
    &END CELL
    &KIND H
      BASIS_SET aug-cc-pVDZ
      POTENTIAL ALL
    &END KIND
    &KIND O
      BASIS_SET aug-cc-pVDZ
      POTENTIAL ALL
    &END KIND
    &TOPOLOGY
      COORD_FILE_FORMAT xyz
      COORD_FILE_NAME H2O_gas.xyz
      &CENTER_COORDINATES
      &END CENTER_COORDINATES
    &END TOPOLOGY
  &END SUBSYS
&END FORCE_EVAL
