&GLOBAL                                                                                           
  PROJECT  H2O_allelec
  PRINT_LEVEL MEDIUM
  RUN_TYPE ENERGY
  &TIMINGS
     THRESHOLD 0.01
  &END
&END GLOBAL
&FORCE_EVAL
  METHOD Quickstep
  &DFT
    BASIS_SET_FILE_NAME  EMSL_BASIS_SETS
    POTENTIAL_FILE_NAME  POTENTIAL
    &MGRID
      CUTOFF  200
    &END MGRID
    &POISSON
      PERIODIC NONE
      ! POISSON_SOLVER MT
      POISSON_SOLVER WAVELET
    &END POISSON
    &QS
      METHOD GAPW
      EPS_DEFAULT 1.0E-15
      EPS_PGF_ORB 1.0E-30
    &END QS
    &SCF
      SCF_GUESS ATOMIC
      EPS_SCF 1.0E-4
      MAX_SCF 100
      ADDED_MOS 15000 15000
    &END SCF
! Parameters for the B2GPPLYP double hybrid functional (ax=0.65  ac=0.36)
    &XC
      &XC_FUNCTIONAL
       &LYP
         SCALE_C  0.64
       &END
       &BECKE88
         SCALE_X   0.35
       &END
      &END XC_FUNCTIONAL
      &HF
        FRACTION   0.65
        &SCREENING
          EPS_SCHWARZ 1.0E-8
          SCREEN_ON_INITIAL_P FALSE 
        &END SCREENING
      &END HF
      &WF_CORRELATION
        METHOD DIRECT_CANONICAL
        &DIRECT_CANONICAL
          BIG_SEND
        &END
        SCALE_T  0.36
        SCALE_S  0.36
        MEMORY  1500.
        NUMBER_PROC  1
      &END
    &END XC
  &END DFT
  &SUBSYS
    &CELL
      ABC [angstrom]  10.000   10.000   10.000
      PERIODIC NONE
    &END CELL
    &KIND H
      BASIS_SET aug-cc-pVTZ
      POTENTIAL ALL
    &END KIND
    &KIND O
      BASIS_SET aug-cc-pVTZ
      POTENTIAL ALL
    &END KIND
    &TOPOLOGY
      COORD_FILE_NAME  H2O_gas.xyz
      COORD_FILE_FORMAT xyz
      &CENTER_COORDINATES
      &END
    &END TOPOLOGY
  &END SUBSYS
&END FORCE_EVAL

