&GLOBAL
  PROJECT O2
  RUN_TYPE ENERGY
  PRINT_LEVEL MEDIUM
&END GLOBAL
&MOTION
  &MD
    ENSEMBLE NVE
    STEPS 50
    TIMESTEP 0.5
    TEMPERATURE 300.0
  &END MD
&END MOTION
&FORCE_EVAL
  METHOD Quickstep
  &DFT
    BASIS_SET_FILE_NAME ../../../data/GTH_BASIS_SETS
    POTENTIAL_FILE_NAME ../../../data/GTH_POTENTIALS
    MULTIP 3
    ROKS
    &LOW_SPIN_ROKS
       ENERGY_SCALING 1.0 -1.0
       SPIN_CONFIGURATION 1 1
       SPIN_CONFIGURATION 1 2
    &END
    &MGRID
      CUTOFF 280
    &END MGRID
    &QS
    &END QS
    &SCF
       SCF_GUESS ATOMIC
       EPS_SCF 1.0E-6
       MAX_SCF 3
       &OT
         ROTATION
       &END
       &OUTER_SCF
          EPS_SCF 1.0E-6
          MAX_SCF 1
       &END
    &END SCF
    &XC
      &XC_FUNCTIONAL PADE
      &END XC_FUNCTIONAL
    &END XC
  &END DFT
  &SUBSYS
    &CELL
      ABC 4.0 4.0 6.0
    &END CELL
    &KIND O
      BASIS_SET DZVP-GTH
      POTENTIAL GTH-PADE-q6
    &END KIND
    &COORD
      O  0.000000  0.000000  0.608000
      O  0.000000  0.000000 -0.608000
    &END COORD
  &END SUBSYS
&END FORCE_EVAL
