&GLOBAL
  PRINT_LEVEL MEDIUM
  PROJECT Ar-13
&END GLOBAL

&FORCE_EVAL
  METHOD Quickstep
  &DFT
    BASIS_SET_FILE_NAME BASIS_SET
    POTENTIAL_FILE_NAME POTENTIAL
    &MGRID
      CUTOFF 200
      REL_CUTOFF 40
    &END MGRID
    &PRINT
      &KINETIC_ENERGY
      &END KINETIC_ENERGY
    &END PRINT
    &QS
      EPS_DEFAULT 1.0E-12
      EPS_GVG 1.0E-6
      EPS_RHO 1.0E-8
    &END QS
    &SCF
      EPS_DIIS 0.1
      EPS_SCF 1.0E-6
      MAX_DIIS 4
      MAX_SCF 20
      SCF_GUESS atomic
    &END SCF
    &XC
      &VDW_POTENTIAL
        POTENTIAL_TYPE PAIR_POTENTIAL
        &PAIR_POTENTIAL
          SCALING 1.0e0
          TYPE DFTD2
        &END PAIR_POTENTIAL
      &END VDW_POTENTIAL
      &XC_FUNCTIONAL
        &BECKE97
          PARAMETRIZATION B97GRIMME
        &END BECKE97
      &END XC_FUNCTIONAL
    &END XC
  &END DFT
  &SUBSYS
    &CELL
      ABC 6.0 6.0 6.0
    &END CELL
    &COORD
      Ar     0.000000  0.000000  0.000000
    &END COORD
    &KIND Ar
      BASIS_SET DZVP-GTH-PADE
      POTENTIAL GTH-PADE-q8
    &END KIND
  &END SUBSYS
&END FORCE_EVAL
