&GLOBAL
  PRINT_LEVEL LOW
  PROJECT Ar-12
&END GLOBAL

&FORCE_EVAL
  METHOD Quickstep
  &DFT
    BASIS_SET_FILE_NAME BASIS_SET
    POTENTIAL_FILE_NAME POTENTIAL
    &MGRID
      CUTOFF 50
    &END MGRID
    &QS
    &END QS
    &SCF
      EPS_DIIS 1.0
      IGNORE_CONVERGENCE_FAILURE
      MAX_SCF 2
      SCF_GUESS atomic
      &MIXING
        ALPHA 0.4
        METHOD DIRECT_P_MIXING
        NMIXING 1
      &END MIXING
    &END SCF
    &XC
      &XC_FUNCTIONAL Pade
      &END XC_FUNCTIONAL
    &END XC
  &END DFT
  &SUBSYS
    &CELL
      ABC 3.0 3.0 3.0
    &END CELL
    &COORD
      Ar     0.000000  0.000000  0.000000
    &END COORD
    &KIND Ar
      BASIS_SET ORB DZVP-GTH-PADE
      POTENTIAL GTH-PADE-q8
    &END KIND
  &END SUBSYS
&END FORCE_EVAL
