&FORCE_EVAL
  METHOD Quickstep
  &DFT
    BASIS_SET_FILE_NAME BASIS_SET
    POTENTIAL_FILE_NAME POTENTIAL
    &MGRID
      CUTOFF 200
    &END MGRID
    &QS
      EPS_DEFAULT 1.0E-12
    &END QS
    &SCF
      EPS_DIIS 0.1
      EPS_SCF 1.0E-8
      MAX_DIIS 4
      MAX_SCF 3
       
      SCF_GUESS atomic
    &END SCF
    &XC
      &XC_FUNCTIONAL PBE
      &END XC_FUNCTIONAL
      &XC_GRID
        XC_DERIV SPLINE2_smooth
        XC_SMOOTH_RHO NN10
      &END XC_GRID
    &END XC
  &END DFT
  &SUBSYS
    &CELL
      ABC 12.0 4.0 4.0
    &END CELL
    &COORD
    Ar     0.000000  0.000000  0.000000
    Ar     4.000000  0.000000  0.000000
    Ar     8.000000  0.000000  0.000000
    &END COORD
    &KIND Ar
      BASIS_SET DZVP-GTH-PADE
      POTENTIAL GTH-PADE-q8
    &END KIND
  &END SUBSYS
&END FORCE_EVAL
&GLOBAL
  PROJECT Ar-9
  PRINT_LEVEL MEDIUM
&END GLOBAL
