&GLOBAL
  PROJECT core_pp_2
  RUN_TYPE ENERGY_FORCE
  PRINT_LEVEL LOW
&END GLOBAL
&FORCE_EVAL
  METHOD Quickstep
  &DFT
    BASIS_SET_FILE_NAME ../../../data/BASIS_SET
    POTENTIAL_FILE_NAME ../../../data/POTENTIAL
    LSD
    CHARGE 1
    &MGRID
      CUTOFF 200
    &END MGRID
    &QS
      EPS_DEFAULT 1.0E-8
      CORE_PPL GRID
    &END QS
    &SCF
      EPS_SCF 1.0E-5
      MAX_SCF 2
      SCF_GUESS ATOMIC
    &END SCF
    &XC
      &XC_FUNCTIONAL Pade
      &END XC_FUNCTIONAL
    &END XC
  &END DFT
  &SUBSYS
    &CELL
      ABC 5.0 5.0 5.0
    &END CELL
    &COORD
    O   0.000000    0.000000   -0.065587
    H   0.000000   -0.757136    0.520545
    H   0.000000    0.757136    0.520545
    &END COORD
    &KIND H
      BASIS_SET DZV-GTH-PADE
      POTENTIAL GTH-PADE-q1
    &END KIND
    &KIND O
      BASIS_SET DZVP-GTH-PADE
      POTENTIAL GTH-PADE-q6
    &END KIND
  &END SUBSYS
&END FORCE_EVAL
