&FORCE_EVAL
  METHOD Quickstep
  &DFT
    BASIS_SET_FILE_NAME ../../../data/BASIS_SET
    POTENTIAL_FILE_NAME ../../../data/POTENTIAL
    &MGRID
      CUTOFF 30
    &END MGRID
    &QS
      EPS_DEFAULT 1.0E-16
      EXTRAPOLATION USE_GUESS
      &HARRIS
        ACTIVATE TRUE
         HARRIS_ENERGY
      &END HARRIS
    &END QS
    &SCF
      EPS_SCF 1.0E-4
      MAX_SCF 1
      SCF_GUESS ATOMIC
    &END SCF
    &XC
      &XC_FUNCTIONAL Pade
      &END XC_FUNCTIONAL
    &END XC
  &END DFT
  &SUBSYS
    &CELL
      ABC 4.0 4.0 4.0
    &END CELL
    &COORD
    O   0.000000    0.000000   -0.065587
    H   0.000000   -0.757136    0.520545
    H   0.000000    0.757136    0.520545
    &END COORD
    &KIND H
      BASIS_SET SZV-GTH-PADE
      POTENTIAL GTH-PADE-q1
    &END KIND
    &KIND O
      BASIS_SET SZV-GTH-PADE
      POTENTIAL GTH-PADE-q6
    &END KIND
  &END SUBSYS
&END FORCE_EVAL
&GLOBAL
  PROJECT H2O-Harris-Debug-NoSCF
  RUN_TYPE DEBUG
  PRINT_LEVEL LOW
&END GLOBAL
&DEBUG
&END
