&GLOBAL
  FFTLIB FFTSG
  PROGRAM Quickstep
  PROJECT H2O
  RUN_TYPE GEO_OPT
  PRINT_LEVEL LOW
&END GLOBAL

&MOTION
  &GEOOPT
    OPTIMIZER BFGS
    MAX_ITER 3
    MAX_DR 0.001
    RMS_DR 0.0005
    MAX_FORCE 0.00015
    RMS_FORCE 0.0001
  &END GEOOPT
&END MOTION

&FORCE_EVAL
  &DFT
    &MGRID
      CUTOFF 200
    &END MGRID
    &QS
      EPS_DEFAULT 1.0E-4
    &END QS
    &SCF
      EPS_SCF 1.0E-4
      SCF_GUESS ATOMIC
    &END SCF
    &XC
      &XC_FUNCTIONAL Pade
      &END XC_FUNCTIONAL
    &END XC
  &END DFT
  &SUBSYS
    &CELL
      ABC 5.0 5.0 5.0
      UNIT ANGSTROM
    &END CELL
    &COORD
    O   0.000000    0.000000   -0.065587
    H   0.000000   -0.757136    0.520545
    H   0.000000    0.757136    0.520545
    &END COORD
    &KIND H
      BASIS_SET DZV-GTH-PADE
      POTENTIAL GTH-PADE-q1
    &END KIND
    &KIND O
      BASIS_SET DZVP-GTH-PADE
      POTENTIAL GTH-PADE-q6
    &END KIND
    &PRINT
      &STRUCTURE_DATA
        POSITION 2
        DISTANCE 1 2
        DISTANCE 2 3
        ANGLE 2 1 3
        DIHEDRAL 1 2 3 4 # this should result in a error message
        ANGLE 2 1 2      # as well as this
        DIHEDRAL 1 2 3 1 # as well as this
      &END STRUCTURE_DATA
    &END PRINT
  &END SUBSYS
&END FORCE_EVAL

