&GLOBAL
  PROJECT H2O-none
  RUN_TYPE ENERGY
  PRINT_LEVEL LOW
&END GLOBAL
&FORCE_EVAL
  METHOD QS
  &DFT
    BASIS_SET_FILE_NAME BASIS_SET
    POTENTIAL_FILE_NAME POTENTIAL
    &MGRID
      CUTOFF 200
    &END MGRID
    &PRINT
     &AO_MATRICES
      CORE_HAMILTONIAN
      DENSITY
      DERIVATIVES
      KINETIC_ENERGY
      KOHN_SHAM_MATRIX
      # MATRIX_VXC 
      NDIGITS 12
      ORTHO
      OVERLAP
      POTENTIAL_ENERGY
     &END AO_MATRICES
    &END PRINT
    &QS
      EPS_DEFAULT 1.0E-8
    &END QS
    &SCF
      MAX_SCF 1
      SCF_GUESS ATOMIC
    &END SCF
    &XC
      &XC_FUNCTIONAL Pade
      &END XC_FUNCTIONAL
    &END XC
  &END DFT
  &SUBSYS
    &CELL
      ABC 5.0 5.0 5.0
    &END CELL
    &COORD
    Hx  3.0 0.0 0.0
    Hx  3.0 1.0 0.0
    O   0.000000    0.000000   -0.065587
    H   0.000000   -0.757136    0.520545
    H   0.000000    0.757136    0.520545
    &END COORD
    &KIND Hx
      ELEMENT H
      BASIS_SET NONE
      POTENTIAL GTH-PADE-q1
    &END KIND
    &KIND H
      BASIS_SET DZV-GTH-PADE
      POTENTIAL GTH-PADE-q1
    &END KIND
    &KIND O
      BASIS_SET DZVP-GTH-PADE
      POTENTIAL GTH-PADE-q6
    &END KIND
  &END SUBSYS
&END FORCE_EVAL
