&FORCE_EVAL
  METHOD Quickstep
  &DFT
    EXCITATIONS tddfpt
    BASIS_SET_FILE_NAME BASIS_SET
    POTENTIAL_FILE_NAME POTENTIAL
    &MGRID
      CUTOFF 160
    &END MGRID
    &QS
    &END QS
    &SCF
      EPS_SCF 1.0E-5
       
      SCF_GUESS atomic
    &END SCF
    &TDDFPT
      INVERT_S Y
      KERNEL Y
      MAX_KV 60
      METHOD DAVIDSON
      NEV 2
      OE_CORR NONE
      PRECOND N
      REORTHO 2
      RES_ETYPE SINGLETS
      RESTARTS 2
      &XC
        DENSITY_CUTOFF 1.0E-10
        GRADIENT_CUTOFF 1.0E-10
        &XC_FUNCTIONAL
          &PADE
          &END PADE
        &END XC_FUNCTIONAL
        &XC_GRID
          XC_DERIV NN10_SMOOTH
        &END XC_GRID
      &END XC
    &END TDDFPT
    &XC
      &XC_FUNCTIONAL PADE
      &END XC_FUNCTIONAL
    &END XC
  &END DFT
  &SUBSYS
    &CELL
      ABC 4.0 4.0 4.0
    &END CELL
    &COORD
    O   0.000000    0.000000   -0.065587 H2O
    H   0.000000   -0.757136    0.520545 H2O
    H   0.000000    0.757136    0.520545 H2O
    &END COORD
    &KIND H
      BASIS_SET DZVP-GTH-PADE
      POTENTIAL GTH-PADE-q1
    &END KIND
    &KIND O
      BASIS_SET DZVP-GTH-PADE
      POTENTIAL GTH-PADE-q6
    &END KIND
  &END SUBSYS
&END FORCE_EVAL
&GLOBAL
  PROJECT H2O_tddfpt
  RUN_TYPE ELECTRONIC_SPECTRA
  PRINT_LEVEL LOW
&END GLOBAL
