&FORCE_EVAL
  METHOD Quickstep
  &DFT
   BASIS_SET_FILE_NAME BASIS_SET_TEST
   POTENTIAL_FILE_NAME POTENTIAL
   &MGRID
     CUTOFF 100
   &END MGRID
    &QS
      METHOD GPW
    &END QS
    &SCF
      SCF_GUESS ATOMIC
      MAX_SCF 2
    &END SCF
   &XC
     &XC_FUNCTIONAL PADE
     &END XC_FUNCTIONAL
   &END XC
 &END DFT
 &SUBSYS
   &CELL
     ABC 6.000000 6.000000 6.000000
     PERIODIC NONE
   &END CELL
   &COORD
      H 0.0 0.0 0.0
      H 0.0 0.72 0.00
   &END COORD
   &KIND H
     BASIS_SET TEST-GTH-PADE-q-q-q1
     POTENTIAL GTH-PADE-q1
   &END KIND
  &END SUBSYS
&END FORCE_EVAL
&GLOBAL
  PROJECT test1
  RUN_TYPE ENERGY
  PRINT_LEVEL LOW
&END GLOBAL
