&GLOBAL
  PRINT_LEVEL MEDIUM
  PROJECT h2
  RUN_TYPE ENERGY
&END GLOBAL

&FORCE_EVAL
  METHOD Quickstep
  &DFT
    BASIS_SET_FILE_NAME BASIS_MOLOPT
    BASIS_SET_FILE_NAME EMSL_BASIS_SETS
    BASIS_SET_FILE_NAME BASIS_MOLOPT_UCL
    &MGRID
      CUTOFF 400
      REL_CUTOFF 60
    &END MGRID
    &POISSON
      PERIODIC NONE
      PSOLVER WAVELET
    &END POISSON
    &PRINT
      &AO_MATRICES
        OVERLAP
      &END AO_MATRICES
      &MO
        CARTESIAN .TRUE.
        CARTESIAN_OVERLAP .TRUE.
        COEFFICIENTS .True.
        FILENAME ./mos
        MO_INDEX_RANGE 0 200
      &END MO
    &END PRINT
    &QS
      EPS_DEFAULT 1.0E-14
      LMAXN0 4
      METHOD gapw
    &END QS
    &SCF
      ADDED_MOS -1
      EPS_SCF 1.0E-6
      MAX_SCF 300
      SCF_GUESS RESTART
      &DIAGONALIZATION
      &END DIAGONALIZATION
    &END SCF
    &XC
      &XC_FUNCTIONAL pbe
      &END XC_FUNCTIONAL
    &END XC
  &END DFT
  &SUBSYS
    &CELL
      ABC 6. 6. 6.
      PERIODIC NONE
    &END CELL
    &COORD
      h     0.00000000000000    0.00000000000000    0.58312867712598
      h     0.00000000000000    0.00000000000000    0.08687132338553
    &END COORD
    &KIND H
      BASIS_SET Ahlrichs-VDZ
      ELEMENT H
      HARD_EXP_RADIUS 1.00
      LEBEDEV_GRID 50
      POTENTIAL ALL
      RADIAL_GRID 50
    &END KIND
    &TOPOLOGY
      &CENTER_COORDINATES T
      &END CENTER_COORDINATES
    &END TOPOLOGY
  &END SUBSYS
&END FORCE_EVAL
