&FORCE_EVAL
  METHOD Quickstep
  &DFT
   BASIS_SET_FILE_NAME GTH_BASIS_SETS
   POTENTIAL_FILE_NAME DUMMY_POTENTIAL
   &MGRID
     CUTOFF 200
   &END MGRID
    &QS
      METHOD GPW
    &END QS
    &SCF
      SCF_GUESS ATOMIC
      MAX_SCF 2
    &END SCF
   &XC
     &XC_FUNCTIONAL PADE
     &END XC_FUNCTIONAL
   &END XC
 &END DFT
 &SUBSYS
   &CELL
     ABC 6.000000 6.000000 6.000000
     PERIODIC NONE
   &END CELL
   &COORD
      H 0.0 0.0 0.0
      H 0.0 0.72 0.00
      H 0.1 0.0 0.8
      H 0.1 0.72 0.80
   &END COORD
   &KIND H
     BASIS_SET aug-QZV3P-GTH
     POTENTIAL GTH-pot4
   &END KIND
  &END SUBSYS
&END FORCE_EVAL
&GLOBAL
  PROJECT test1
  RUN_TYPE ENERGY_FORCE
  PRINT_LEVEL LOW
&END GLOBAL
