&GLOBAL
  PRINT_LEVEL MEDIUM
  PROJECT HF
  RUN_TYPE ENERGY
&END GLOBAL

&FORCE_EVAL
  METHOD Quickstep
  &DFT
    BASIS_SET_FILE_NAME BASIS_SET
    MULTIPLICITY 7
    POTENTIAL_FILE_NAME POTENTIAL
    UKS
    &MGRID
      CUTOFF 100
    &END MGRID
    &QS
      METHOD GPW
    &END QS
    &SCF
      EPS_SCF 1.0E-5
      IGNORE_CONVERGENCE_FAILURE
      MAX_SCF 1
      SCF_GUESS ATOMIC
      &OT
        MINIMIZER DIIS
        PRECONDITIONER FULL_SINGLE_INVERSE
      &END OT
    &END SCF
    &XC
      &XC_FUNCTIONAL Pade
      &END XC_FUNCTIONAL
    &END XC
  &END DFT
  &SUBSYS
    &CELL
      ABC 5.0 5.0 5.0
    &END CELL
    &COORD
      H      1.0 0.0 0.0
      F      0.0 0.0 0.0
    &END COORD
    &KIND F
      BASIS_SET DZVP-GTH-PADE
      POTENTIAL GTH-PADE-q7
      #       MAGNETIZATION 0.5
    &END KIND
    &KIND H
      BASIS_SET DZVP-GTH-PADE
      POTENTIAL GTH-PADE-q1
    &END KIND
  &END SUBSYS
&END FORCE_EVAL
