&FORCE_EVAL
  METHOD Quickstep
  &DFT

    UKS
    MULTIPLICITY 7

    BASIS_SET_FILE_NAME BASIS_SET
    POTENTIAL_FILE_NAME POTENTIAL
    &MGRID
      CUTOFF 100
    &END MGRID
    &QS
      METHOD GPW
    &END QS
    &SCF
      EPS_SCF 1.0E-5
      SCF_GUESS ATOMIC
      MAX_SCF 1
      &OT
         MINIMIZER DIIS
         PRECONDITIONER  FULL_SINGLE_INVERSE
      &END
    &END SCF
    &XC
      &XC_FUNCTIONAL Pade
      &END XC_FUNCTIONAL
    &END XC
  &END DFT
  &SUBSYS
    &CELL
      ABC 5.0 5.0 5.0
    &END CELL
    &COORD
   H      1.0 0.0 0.0
   F      0.0 0.0 0.0
    &END COORD
    &KIND F
       BASIS_SET DZVP-GTH-PADE
       POTENTIAL GTH-PADE-q7
#       MAGNETIZATION 0.5
    &END
    &KIND H
       BASIS_SET  DZVP-GTH-PADE
       POTENTIAL  GTH-PADE-q1
    &END
  &END SUBSYS
&END FORCE_EVAL
&GLOBAL
  PROJECT HF
  RUN_TYPE ENERGY
  PRINT_LEVEL MEDIUM
&END GLOBAL
