&GLOBAL
  PRINT_LEVEL LOW
  PROJECT Li2
  RUN_TYPE ENERGY
&END GLOBAL

&FORCE_EVAL
  METHOD Quickstep
  &DFT
    BASIS_SET_FILE_NAME BASIS_SET
    POTENTIAL_FILE_NAME POTENTIAL
    &MGRID
      CUTOFF 240
    &END MGRID
    &PRINT
      &DFT_CONTROL_PARAMETERS
      &END DFT_CONTROL_PARAMETERS
      &MO
        EIGENVALUES TRUE
        EIGENVECTORS TRUE
        FILENAME __STD_OUT__
        NDIGITS 12
        OCCUPATION_NUMBERS TRUE
        &EACH
          QS_SCF 0
        &END EACH
      &END MO
    &END PRINT
    &QS
    &END QS
    &SCF
      ADDED_MOS 10
      EPS_DIIS 1.E-6
      EPS_SCF 1.0e-10
      IGNORE_CONVERGENCE_FAILURE
      MAX_SCF 1
      SCF_GUESS RESTART
      &PRINT
        &RESTART OFF
          BACKUP_COPIES 0
          &EACH
            QS_SCF -1
          &END EACH
        &END RESTART
        &RESTART_HISTORY OFF
          BACKUP_COPIES 0
          &EACH
            QS_SCF -1
          &END EACH
        &END RESTART_HISTORY
      &END PRINT
    &END SCF
    &XC
      &XC_FUNCTIONAL
        &PW92
        &END PW92
        &XGGA
          FUNCTIONAL EV93
        &END XGGA
      &END XC_FUNCTIONAL
    &END XC
  &END DFT
  &SUBSYS
    &CELL
      ABC [bohr] 10 10 20
    &END CELL
    &COORD
      UNIT bohr
      Li 0.0 0.0 -2.67732437187761072041
      Li 0.0 0.0  2.67732437187761072041
    &END COORD
    &KIND Li
      BASIS_SET DZVP-GTH-PADE
      POTENTIAL GTH-PBE-q3
    &END KIND
    &PRINT
      &CELL
      &END CELL
      &KINDS
      &END KINDS
    &END PRINT
  &END SUBSYS
&END FORCE_EVAL
