&GLOBAL
  PROJECT moldip
  RUN_TYPE ENERGY
  PRINT_LEVEL LOW
&END GLOBAL
&FORCE_EVAL
  METHOD QS
  &DFT
    BASIS_SET_FILE_NAME GTH_BASIS_SETS
    POTENTIAL_FILE_NAME POTENTIAL
    &MGRID
      CUTOFF 150
    &END MGRID
    &QS
      EPS_DEFAULT 1.0E-8
    &END QS
    &SCF
      EPS_SCF 1.0E-5
      MAX_SCF 20
      &OT
        MINIMIZER DIIS
        PRECONDITIONER FULL_ALL
      &END
    &END SCF
    &XC
      &XC_FUNCTIONAL Pade
      &END XC_FUNCTIONAL
    &END XC
    &PRINT
      &MOMENTS
        MAX_MOMENT 1
        PERIODIC   F
        REFERENCE  USER_DEFINED
        REF_POINT  [angstrom] 2. 0. 0.
      &END MOMENTS
      &VORONOI
        MOLECULAR_PROPERTIES
      &END
    &END PRINT
  &END DFT
  &SUBSYS
    &CELL
      ABC 10.58 10.58 10.58
    &END CELL
    &COORD
    O         0.000000    0.000000    0.119040  H2O
    H         0.000000    0.768000   -0.476160  H2O
    H         0.000000   -0.768000   -0.476160  H2O
    H         4.000000    0.000000    0.000000  HF
    F         5.050000    0.000000    0.000000  HF
    &END COORD
    &KIND H
      BASIS_SET ORB DZVP-GTH
      POTENTIAL GTH-PADE-q1
    &END KIND
    &KIND O
      BASIS_SET ORB DZVP-GTH
      POTENTIAL GTH-PADE-q6
    &END KIND
    &KIND F
      BASIS_SET ORB DZVP-GTH
      POTENTIAL GTH-PADE-q7
    &END KIND
  &END SUBSYS
&END FORCE_EVAL
