&GLOBAL
  PROJECT vdW_PP_GRIMME_p2
  PRINT_LEVEL MEDIUM
  RUN_TYPE ENERGY_FORCE
&END GLOBAL
&FORCE_EVAL
  METHOD QS
  &PRINT
    &FORCES ON
    &END
  &END
  &DFT
    BASIS_SET_FILE_NAME ../../../data/GTH_BASIS_SETS
    POTENTIAL_FILE_NAME ../../../data/POTENTIAL
    &MGRID
      NGRIDS 1
      CUTOFF 100
    &END MGRID
    &QS
      METHOD GPW
    &END QS
    &SCF
      SCF_GUESS ATOMIC
      MAX_SCF 2
      EPS_SCF 1.0e-0
    &END SCF
    &XC
      &XC_FUNCTIONAL PADE
      &END XC_FUNCTIONAL
      &vdW_POTENTIAL
         DISPERSION_FUNCTIONAL PAIR_POTENTIAL
         &PAIR_POTENTIAL
            TYPE DFTD2
            SCALING 1.0e0
         &END PAIR_POTENTIAL
      &END vdW_POTENTIAL
    &END XC
  &END DFT
  &SUBSYS
    &CELL
      ABC 3.0 3.0 3.0
      MULTIPLE_UNIT_CELL 3 3 3
    &END
    &TOPOLOGY
      MULTIPLE_UNIT_CELL 3 3 3
    &END
    &COORD
 Ne  0.0 0.0 0.0
    &END COORD
    &KIND Ne
      BASIS_SET SZV-GTH
      POTENTIAL GTH-PADE-q8
    &END
  &END SUBSYS
&END
