&GLOBAL
  PRINT_LEVEL LOW
  PROJECT wat
  RUN_TYPE ENERGY
&END GLOBAL

&FORCE_EVAL
  METHOD Quickstep
  &DFT
    BASIS_SET_FILE_NAME BASIS_SET
    POTENTIAL_FILE_NAME GTH_POTENTIALS
    &MGRID
      CUTOFF 200
    &END MGRID
    &PRINT
      &ENERGY_DECOMPOSITION_ANALYSIS
        REFERENCE_ORB_CANONICAL
        SKIP_LOCALIZATION
      &END ENERGY_DECOMPOSITION_ANALYSIS
    &END PRINT
    &QS
      EPS_DEFAULT 1.E-10
    &END QS
    &SCF
      EPS_SCF 1.0E-7
      MAX_SCF 10
      SCF_GUESS ATOMIC
      &OT
        MINIMIZER DIIS
        PRECONDITIONER FULL_SINGLE_INVERSE
      &END OT
      &OUTER_SCF
        EPS_SCF 1.0E-7
        MAX_SCF 10
      &END OUTER_SCF
    &END SCF
    &XC
      &XC_FUNCTIONAL PADE
      &END XC_FUNCTIONAL
    &END XC
  &END DFT
  &SUBSYS
    &CELL
      ABC 5.0 5.0 5.0
    &END CELL
    &COORD
      O     0.000000     0.000000     0.000000    H2O1
      H     0.000000     0.000000     1.000000    H2O1
      H     0.942809     0.000000    -0.333333    H2O1
    &END COORD
    &KIND H
      BASIS_SET ORB DZVP-GTH-BLYP
      POTENTIAL GTH-PADE-q1
    &END KIND
    &KIND O
      BASIS_SET ORB DZVP-GTH-BLYP
      POTENTIAL GTH-PADE-q6
    &END KIND
  &END SUBSYS
&END FORCE_EVAL
