&FORCE_EVAL
  METHOD Quickstep
  &DFT
    BASIS_SET_FILE_NAME BASIS_SET
    POTENTIAL_FILE_NAME GTH_POTENTIALS
    &MGRID
      CUTOFF 200
    &END MGRID
    &QS
      EPS_DEFAULT 1.E-10
    &END QS
    &SCF
      EPS_SCF 1.0E-7
      SCF_GUESS ATOMIC  
      MAX_SCF 10
      &OT 
         MINIMIZER DIIS
         PRECONDITIONER FULL_SINGLE_INVERSE
      &END
      &OUTER_SCF
         EPS_SCF 1.0E-7
         MAX_SCF 10
      &END
    &END
    &XC
      &XC_FUNCTIONAL PADE
      &END
    &END XC
    &PRINT
      &ENERGY_DECOMPOSITION_ANALYSIS
         REFERENCE_ORB_CANONICAL
         SKIP_LOCALIZATION
      &END ENERGY_DECOMPOSITION_ANALYSIS
    &END PRINT
  &END DFT
  &SUBSYS
    &CELL
      ABC 5.0 5.0 5.0
    &END CELL
    &COORD
    O     0.000000     0.000000     0.000000    H2O1
    H     0.000000     0.000000     1.000000    H2O1
    H     0.942809     0.000000    -0.333333    H2O1
    &END COORD
    &KIND H
      BASIS_SET ORB DZVP-GTH-BLYP
      POTENTIAL GTH-PADE-q1
    &END KIND
    &KIND O
      BASIS_SET ORB DZVP-GTH-BLYP
      POTENTIAL GTH-PADE-q6
    &END KIND
  &END SUBSYS
&END FORCE_EVAL
&GLOBAL
  PROJECT wat
  RUN_TYPE ENERGY
  PRINT_LEVEL LOW
&END GLOBAL
