&FORCE_EVAL
  METHOD Quickstep
  &PROPERTIES
   &ATOMIC
     ENERGY T
   &END
  &END PROPERTIES
  &DFT
    BASIS_SET_FILE_NAME BASIS_SET
    POTENTIAL_FILE_NAME POTENTIAL
    &MGRID
      CUTOFF 200
    &END MGRID
    &QS
      METHOD GAPW
      EPS_DEFAULT 1.E-10
    &END QS
    &SCF
      EPS_SCF 1.0E-8
      SCF_GUESS ATOMIC  
    &END
    &XC
      &XC_FUNCTIONAL PADE
      &END
    &END XC
    &PRINT
      &ENERGY_DECOMPOSITION_ANALYSIS
      &END ENERGY_DECOMPOSITION_ANALYSIS
    &END PRINT
  &END DFT
  &SUBSYS
    &CELL
      ABC 5.0 5.0 5.0
    &END CELL
    &COORD
    O   0.000000    0.000000   -0.065587
    H   0.000000   -0.757136    0.520545
    H   0.000000    0.757136    0.520545
    &END COORD
    &KIND H
      BASIS_SET ORB DZVP-ALL
      POTENTIAL ALL
    &END KIND
    &KIND O
      BASIS_SET ORB DZVP-ALL
      POTENTIAL ALL
    &END KIND
  &END SUBSYS
&END FORCE_EVAL
&GLOBAL
  PROJECT wat
  RUN_TYPE ENERGY
  PRINT_LEVEL LOW
&END GLOBAL
