&FORCE_EVAL
  METHOD Quickstep
  &PROPERTIES
    &ATOMIC
      ENERGY T
    &END
  &END PROPERTIES
  &DFT
    BASIS_SET_FILE_NAME BASIS_SET
    POTENTIAL_FILE_NAME GTH_POTENTIALS
    &MGRID
      CUTOFF 200
    &END MGRID
    &QS
      METHOD GAPW
      EPS_DEFAULT 1.E-10
    &END QS
    &SCF
      SCF_GUESS ATOMIC
      &OT
         PRECONDITIONER FULL_SINGLE_INVERSE
         MINIMIZER DIIS
         STEPSIZE 0.01
      &END
      &OUTER_SCF
         MAX_SCF  10
         EPS_SCF 1.0E-7
      &END
      MAX_SCF  10
      EPS_SCF 1.0E-7
    &END SCF
    &XC
      &XC_FUNCTIONAL TPSS
      &END XC_FUNCTIONAL
    &END XC
    &PRINT
      &ENERGY_DECOMPOSITION_ANALYSIS
      &END ENERGY_DECOMPOSITION_ANALYSIS
    &END PRINT
  &END DFT
  &SUBSYS
    &CELL
      ABC [angstrom] 5.0 5.0 5.0
    &END
    &COORD
    O   0.000000    0.000000   -0.065587
    H   0.000000   -0.757136    0.520545
    H   0.000000    0.757136    0.520545
    &END COORD
    &TOPOLOGY
     &CENTER_COORDINATES
     &END
    &END
    &KIND H
      BASIS_SET DZV-GTH-PADE
      POTENTIAL GTH-PADE-q1
    &END KIND
    &KIND O
      BASIS_SET DZVP-GTH-PADE
      POTENTIAL GTH-PADE-q6
    &END KIND
  &END SUBSYS
&END FORCE_EVAL
&GLOBAL
  PRINT_LEVEL LOW
  PROJECT at
  RUN_TYPE ENERGY
&END GLOBAL
