&GLOBAL
  PRINT_LEVEL LOW
  PROJECT si8_pmix
  RUN_TYPE ENERGY
&END GLOBAL

&FORCE_EVAL
  METHOD QS
  &DFT
    BASIS_SET_FILE_NAME GTH_BASIS_SETS
    POTENTIAL_FILE_NAME GTH_POTENTIALS
    &MGRID
      CUTOFF 120
    &END MGRID
    &PRINT
      &ENERGY_DECOMPOSITION_ANALYSIS
      &END ENERGY_DECOMPOSITION_ANALYSIS
      &MO
        EIGENVALUES
        OCCUPATION_NUMBERS
        &EACH
          QS_SCF 100
        &END EACH
      &END MO
    &END PRINT
    &QS
      METHOD GPW
    &END QS
    &SCF
      ADDED_MOS 10
      EPS_DIIS 1.0e-2
      EPS_SCF 1.0e-7
      MAX_SCF 50
      SCF_GUESS ATOMIC
      &MIXING
        ALPHA 0.6
        BETA 1.0
        METHOD BROYDEN_MIXING
        NBROYDEN 15
      &END MIXING
      &SMEAR
        ELECTRONIC_TEMPERATURE 1000.
        METHOD FERMI_DIRAC
      &END SMEAR
    &END SCF
    &XC
      &XC_FUNCTIONAL PADE
      &END XC_FUNCTIONAL
    &END XC
  &END DFT
  &SUBSYS
    &CELL
      ABC 5.42858871335 5.42858871335 5.42858871335
    &END CELL
    &COORD
      Si       0.00000       0.00000       0.00000
      Si       1.35715       1.35715       1.35715
      Si       0.00000       2.71429       2.71429
      Si       1.35715       4.07144       4.07144
      Si       2.71429       0.00000       2.71429
      Si       4.07144       1.35715       4.07144
      Si       2.71429       2.71429       0.00000
      Si       4.07144       4.07144       1.35715
    &END COORD
    &KIND Si
      BASIS_SET DZVP-GTH
      POTENTIAL GTH-PBE-q4
    &END KIND
  &END SUBSYS
&END FORCE_EVAL
