&CP2K
 PROGRAM      Quickstep
 PROJECT      H2O
 IOLEVEL      10
 FFTLIB       FFTSG
 RUN_TYPE     BSSE
&END

&DFT
 FUNCTIONAL   Pade
&END

&QS
 CUTOFF       50
 EPS_DEFAULT  1.0E-8
&END

&SCF
 GUESS        ATOMIC
 EPS_SCF      1.0E-4
 MAX_SCF 3
&END

&PRINT LOW
&END

&KIND H_ghost
 BASIS_SET    DZVP-GTH-PADE
 POTENTIAL    ghost
&END

&KIND O_ghost
 BASIS_SET    DZVP-GTH-PADE
 POTENTIAL    ghost
&END

&KIND H
 BASIS_SET    DZVP-GTH-PADE
 POTENTIAL    GTH-PADE-q1
&END

&KIND O
 BASIS_SET    DZVP-GTH-PADE
 POTENTIAL    GTH-PADE-q6
&END

&CELL
 UNIT         ANGSTROM
 ABC          10.0  10.0  10.0
&END

&COORD
O     0.000000     0.000000     0.000000    H2O1
H     0.000000     0.000000     1.000000    H2O1
H     0.942809     0.000000    -0.333333    H2O1
O    -1.617979    -0.948062    -2.341650    H2O2
H    -2.529195    -1.296822    -2.122437    H2O2
H    -1.534288    -0.833088    -3.331486    H2O2
&END

&FORCE_EVAL
  &BSSE
    &FRAGMENT
      LIST 1 2 3
    &END FRAGMENT
    &FRAGMENT
      LIST 4 5 6
    &END FRAGMENT
  &END BSSE
&END FORCE_EVAL


