
&FORCE_EVAL
  &DFT
    &MGRID
      CUTOFF 200
      REL_CUTOFF 20
    &END MGRID
    &QS
      EPS_DEFAULT 1.0E-9
    &END QS
    &SCF
      EPS_DIIS 0.1
      EPS_SCF 1.0E-4
      MAX_DIIS 4
      MAX_SCF 20
      MIXING 0.4
      SCF_GUESS RESTART
    &END SCF
    &XC
      &XC_FUNCTIONAL Pade
      &END XC_FUNCTIONAL
    &END XC
  &END DFT
  &SUBSYS
    &CELL
      ABC 6.0 6.0 6.0
      UNIT ANGSTROM
    &END CELL
    &COORD
    Ar     0.000000  0.000000  0.000000
    &END COORD
    &KIND Ar
      BASIS_SET TEST-highangular-GTH-PADE
      POTENTIAL GTH-PADE-q8
    &END KIND
  &END SUBSYS
&END FORCE_EVAL
&GLOBAL
  FFTLIB FFTSG
  PROGRAM Quickstep
  PRINT_LEVEL MEDIUM
&END GLOBAL
