&CP2K  
  PROGRAM   QMMM
  PROJECT   butane
  IOLEVEL   1
  FFTLIB    FFTSG
  RUN_TYPE  GEO_OPT
&END

&PRINT MEDIUM
V_QMMM
&END

&GEOOPT
 OPTIMIZER BFGS
 MAX_ITER  1
&END

&FORCE_EVAL
        &QMMM
         ECOUPL GAUSS
         ABC_QM  7.0 7.0 7.0
         #
         # QM_KINDS
         #
         &QM_KIND C
          mm_index   5 8 
         &END QM_KIND
         &QM_KIND H
          mm_index  6 7 9 10 
         &END QM_KIND
         #
         # MM_KINDS
         #
         &MM_KIND CTL3
          radius 0.78
         &END MM_KIND
         &MM_KIND HAL3
          radius 0.78
         &END MM_KIND
         #
         # LINKS
         # 
         &LINK
          LINK_TYPE IMOMM
          QM_INDEX 5
          MM_INDEX 1
          ALPHA  1.50
          FIST_SCALE_FACTOR 0.0
         &END LINK
         &LINK
          LINK_TYPE IMOMM
          QM_INDEX 8
          MM_INDEX 11
          ALPHA  1.50
          FIST_SCALE_FACTOR 0.0
         &END LINK
         #
        &END QMMM
&END FORCE_EVAL

&TOPOLOGY
 coord_file     ../../Fist/sample_pdb/butane.pdb
 coordinate     pdb
 CHARGE_BETA
&END

&EWALD
 units angstrom
 ewald_type spme
 ewald_param .44 24 6
&END

&FORCE_FIELD
 PARMFILE CHM ../../Fist/sample_pot/butane.pot
&END

&CELL
 UNIT         ANGSTROM
 ABC          15.0 15.0 15.0
&END

&IO
 BASIS_SET_FILE GTH_BASIS_SETS
 POTENTIAL_FILE POTENTIAL
&END

&DFT
 FUNCTIONAL  pade
&END

&QS
 CUTOFF       50
 COMMENSURATE
&END

&SCF
 GUESS        atomic
&END

&KIND H
 BASIS_SET    SZV-GTH
 POTENTIAL    GTH-PADE-q1
&END

&KIND C
 BASIS_SET    SZV-GTH
 POTENTIAL    GTH-PADE-q4
&END

