&GLOBAL
 PROGRAM      Quickstep
 PROJECT      gapw_all_pade
 IOLEVEL      HIGH
 FFTLIB       FFTSG
 RUN_TYPE     ENERGY
&END

&SCF
 GUESS        ATOMIC
 EPS_SCF      1.0E-4
 MAX_SCF      2
&END

&FORCE_EVAL
  &DFT
    LSD
    BASIS_SET_FILE_NAME BASIS_SET
    POTENTIAL_FILE_NAME POTENTIAL
    &XC
      &XC_FUNCTIONAL
        &BECKE88
        &END
        &LYP
        &END
      &END
    &END SECTION XC
    &QS
       METHOD       GAPW
       EPS_GVG      1.0E-6
       EPS_PGF_ORB  1.0E-6
       QUADRATURE   GC_LOG
       EPSFIT       1.E-4
       EPSISO       1.0E-12
       EPSRHO0      1.E-8
       LMAXN0       2
       LMAXN1       6
       ALPHA0_HARD     10
       ALPHA0_SOFT     10
    &END SECTION QS
    &MGRID
       NGRIDS        1
       CUTOFF       150
    &END SECTION MGRID
  &END SECTION DFT
  &SUBSYS
    &CELL
       UNIT   ANGSTROM
       ABC          6.0  6.0  6.0
    &END CELL
  &END SUBSYS
&END FORCE_EVAL


&PRINT MEDIUM
&END

&KIND H
 BASIS_SET    DZVP-ALL-PADE
 POTENTIAL    ALL
 LEBEDEV_GRID 50
 RADIAL_GRID  50
&END

&COORD
 H   0.0 0.0 0.0
&END

