&GLOBAL
 PROGRAM      Quickstep
 PROJECT      H2O
 IOLEVEL      MEDIUM
 FFTLIB       FFTSG
 RUN_TYPE     ENERGY
&END

&QS
 CUTOFF       200
&END

&SCF
 GUESS        atomic
&END

&FORCE_EVAL
  &DFT
    BASIS_SET_FILE_NAME GTH_BASIS_SETS
    POTENTIAL_FILE_NAME POTENTIAL
    &XC
      density_cutoff 1.0e-9 
      DENSITY_SMOOTH_CUTOFF_RANGE 0
      FUNCTIONAL_ROUTINE NEW
      &XC_FUNCTIONAL
        &TPSS
        &END
      &END
      &XC_GRID
        XC_DERIV      NN50_SMOOTH
        XC_SMOOTH_RHO NONE
      &END
    &END
  &END SECTION DFT
  &SUBSYS
    &CELL
       UNIT   ANGSTROM
       ABC          5.0  5.0  5.0
    &END CELL
  &END SUBSYS

&END FORCE_EVAL

&PRINT MEDIUM
 FORCES 
 DISTANCES 
 PRECISION 10 
&END

&KIND H
 BASIS_SET    DZVP-GTH
 POTENTIAL    GTH-PADE-q1
&END

&KIND O
 BASIS_SET    DZVP-GTH
 POTENTIAL    GTH-PADE-q6
&END

&COORD
 O   0.000000    2.000000    1.934413
 H   0.000000    1.242864    2.520545
 H   0.000000    2.757136    2.520545
 O   2.500000    2.000000    1.934413
 H   2.500000    1.242864    2.520545
 H   2.500000    2.757136    2.520545
&END
