&CP2K
 PROGRAM      QMMM
 PROJECT      2H2O
 IOLEVEL      10
 FFTLIB       FFTSG
 RUN_TYPE     GEO_OPT
&END

&GEOOPT
 OPTIMIZER BFGS
 MAX_ITER  1
&END

&PRINT
&END

&TOPOLOGY
 coord_file     2H2O.pdb
 coordinate     pdb
 connectivity   PSF
 CONN_FILE      2H2O.psf
&END

&EWALD
 units angstrom
 ewald_type spme
 ewald_param .44 64 6
&END

&FORCE_FIELD
 PARMFILE CHM 2H2O.pot
 RCUT_NB 5.2917720830
&END

&CELL
 UNIT         ANGSTROM
 ABC          20.00 20.00 20.00 
&END

&IO
 BASIS_SET_FILE BASIS_SET
 POTENTIAL_FILE POTENTIAL
 MM_POTENTIAL_FILE MM_POTENTIAL
&END

&DFT
 FUNCTIONAL   BLYP
 XC_SMOOTH_RHO NN10
 XC_DERIV SPLINE2_smooth
&END
 
&QS
 CUTOFF       50
 COMMENSURATE
 EPS_DEFAULT  1.0E-10
&END
 
&SCF
 GUESS        atomic
&END
 
&KIND H
 BASIS_SET    DZVP-GTH-BLYP
 POTENTIAL    GTH-BLYP-q1
&END
 
&KIND O
 BASIS_SET    DZVP-GTH-BLYP
 POTENTIAL    GTH-BLYP-q6
&END

&FORCE_EVAL
        &DFT
          &POISSON_DFT
           POISSON_SOLVER MT
           &MT
            ALPHA 7.0
            REL_CUTOFF 1.0
           &END
           PERIODIC NONE
          &END POISSON_DFT
        &END
        &QMMM
         &INTERPOLATOR
	    EPS_R 1.0e-14
	    EPS_X 1.0e-14
            MAXITER 100
	 &END INTERPOLATOR
         ECOUPL GAUSS
         ABC_QM  6.0 6.0 6.0
         #
         # QM_KINDS
         #
         &QM_KIND H
          mm_index 2 3
         &END QM_KIND
         &QM_KIND O
          mm_index 1
         &END QM_KIND
         #
         # MM_KINDS
         #
         &MM_KIND HW
          radius 0.44
         &END MM_KIND
         &MM_KIND OW
          radius 0.80
          corr_radius 1.0583544166
         &END MM_KIND
         &PRINT
          &MM_POTENTIAL
            PRINT SILENT
          &END 
         &END PRINT
         #
        &END QMMM
&END FORCE_EVAL
