&FORCE_EVAL
  &DFT
    &MGRID
      CUTOFF 400
      MULTIGRID_SET T
      CUTOFF_LIST 200.0 100.000 46. 34.
    &END MGRID
    &QS
      EPS_DEFAULT 1.0E-8
    &END QS
    &SCF
      EPS_SCF 1.0E-4
      SCF_GUESS ATOMIC
      &OT OFF
      &END OT
    &END SCF
    &XC
      &XC_FUNCTIONAL Pade
      &END XC_FUNCTIONAL
    &END XC
  &END DFT
  &SUBSYS
    &CELL
      ABC 4.0 4.0 4.0
      UNIT ANGSTROM
      &CELL_REF
        ABC 4.0 4.0 4.0
        UNIT ANGSTROM
      &END CELL_REF
    &END CELL
    &CONSTRAINT
      SHAKE 1.0E-10
    &END CONSTRAINT
    &COORD
    O   0.000000    0.000000   -0.065587
    H   0.000000   -0.757136    0.520545
    H   0.000000    0.757136    0.520545
    &END COORD
    &KIND H
      BASIS_SET DZVP-GTH-PADE
      POTENTIAL GTH-PADE-q1
    &END KIND
    &KIND O
      BASIS_SET DZVP-GTH-PADE
      POTENTIAL GTH-PADE-q6
    &END KIND
  &END SUBSYS
&END FORCE_EVAL
&GLOBAL
  FFTLIB FFTSG
  PROGRAM Quickstep
  PROJECT H2O
  RUN_TYPE MD
  PRINT_LEVEL LOW
&END GLOBAL
&MOTION
  &MD
    ENSEMBLE NVE
    STEPS 1
    TIMESTEP 0.1
    TEMPERATURE 300.0
    RESTART INIT
    &NOSE
      LENGTH 3
      YOSHIDA 3
      TIMECON 100.0
      MTS 2
    &END NOSE
  &END MD
&END MOTION
