
&FORCE_EVAL
  &DFT
    &MGRID
      CUTOFF 200
    &END MGRID
    &QS
    &END QS
    &SCF
      SCF_GUESS ATOMIC
    &END SCF
    &XC
      &XC_FUNCTIONAL Pade
      &END XC_FUNCTIONAL
    &END XC
  &END DFT
  &SUBSYS
    &CELL
      ABC 5.0 5.0 5.0
      UNIT ANGSTROM
    &END CELL
    &CONSTRAINT
      SHAKE 1.0E-10
    &END CONSTRAINT
    &COORD
    O   0.000000    0.000000   -0.065587
    H   0.000000   -0.757136    0.520545
    H   0.000000    0.757136    0.520545
    &END COORD
    &KIND H
      BASIS_SET DZVP-GTH-PADE
      POTENTIAL GTH-PADE-q1
    &END KIND
    &KIND O
      BASIS_SET DZVP-GTH-PADE
      POTENTIAL GTH-PADE-q6
    &END KIND
  &END SUBSYS
&END FORCE_EVAL
&GLOBAL
  FFTLIB FFTSG
  PROGRAM Quickstep
  PROJECT H2O
  RUN_TYPE MD
  PRINT_LEVEL LOW
&END GLOBAL
&MOTION
  &MD
    ENSEMBLE NVT
    STEPS 9
    TIMESTEP 0.5
    TEMPERATURE 300.0
    RESTART INIT
    &NOSE
      LENGTH 3
      YOSHIDA 3
      TIMECON 100.0
      MTS 2
    &END NOSE
  &END MD
  &METADYN
    DO_HILLS
    LAGRANGE
    NCOLVAR 2
    NT_HILLS 3
    WW 1.0e-3
    &COLVAR
      LAMBDA 0.1
      MASS 10.0
      SCALE 0.02
      &COORDINATION
        ATOMS_FROM 1 1
        ATOMS_TO 2 2 3
        R_0 2.3
      &END COORDINATION
    &END COLVAR
    &COLVAR
      LAMBDA 0.1
      MASS 10.0
      SCALE 0.02
      &COORDINATION
        ATOMS_FROM 1 2
        ATOMS_TO 1 3
        R_0 2.3
      &END COORDINATION
    &END COLVAR
  &END METADYN
&END MOTION
