&GLOBAL
 PROGRAM      Quickstep
 PROJECT      gapw_all_pade
 IOLEVEL      HIGH
 FFTLIB       FFTSG
 RUN_TYPE     ENERGY
&END

&QS
 METHOD       GAPW
 CUTOFF       150
 NGRID        1
 EPS_GVG      1.0E-6
 EPS_PGF_ORB  1.0E-6
 QUADRATURE   GC_LOG
 EPSFIT       1.E-4
 EPSISO       1.0E-12
 EPSRHO0      1.E-8
 LMAXN0       2
 LMAXN1       6
 ALPHA0_H     10
&END
 ALPHA0_S     

&SCF
 GUESS        ATOMIC
 EPS_SCF      1.0E-4
&END

&FORCE_EVAL
  &DFT
    BASIS_SET_FILE_NAME BASIS_SET
    POTENTIAL_FILE_NAME POTENTIAL
    &XC
      &XC_FUNCTIONAL
        &PADE
        &END
      &END
    &END
  &END SECTION DFT
  &SUBSYS
    &CELL
       UNIT   ANGSTROM
       ABC          6.0  6.0  6.0
    &END CELL
  &END SUBSYS
&END FORCE_EVAL


&PRINT MEDIUM
&END

&KIND H
 BASIS_SET    DZVP-ALL-PADE
 POTENTIAL    ALL
 LEBEDEV_GRID 50
 RADIAL_GRID  50
&END

&KIND O
 BASIS_SET    TZVP-ALL-PADE
 POTENTIAL    ALL
 LEBEDEV_GRID 50
 RADIAL_GRID  50
&END

&COORD
 O   0.000000    0.000000   -0.065587
 H   0.000000   -0.757136    0.520545
 H   0.000000    0.757136    0.520545
&END

