&CP2K
 PROGRAM      Quickstep
 PROJECT      H2O
 IOLEVEL      0
 FFTLIB       FFTSG
 RUN_TYPE     ELECTRONIC_SPECTRA
&END

&IO
 BASIS_SET_FILE BASIS_SET
&END

&DFT
 FUNCTIONAL   PADE
 EXCITATIONS  tddfpt
&END

&QS
 CUTOFF       160
&END

&SCF
 GUESS        atomic
 MIXING       0.4
 EPS_SCF      1.0E-5
&END

&PRINT LOW
 LUMOS 2
 HOMOS
 NO_CUBE
&END

&KIND H
 BASIS_SET    DZVP-GTH-PADE
 POTENTIAL    GTH-PADE-q1
&END

&KIND O
 BASIS_SET    DZVP-GTH-PADE
 POTENTIAL    GTH-PADE-q6
&END

&CELL
 UNIT         ANGSTROM
 ABC          4.0  4.0  4.0
&END

&COORD 
 O   0.000000    0.000000   -0.065587 H2O
 H   0.000000   -0.757136    0.520545 H2O
 H   0.000000    0.757136    0.520545 H2O
&END

&FORCE_EVAL
  &DFT
    &TDDFPT
      RES_ETYPE  SINGLETS
      METHOD     DAVIDSON
      NEV        2
      REORTHO    2
      KERNEL     Y
      INVERT_S   Y
      PRECOND    N
      MAX_KV     60
      RESTARTS   2
      OE_CORR    NONE
      &XC
        DENSITY_CUTOFF  1.0E-10
        GRADIENT_CUTOFF 1.0E-10
        &XC_GRID
          XC_DERIV NN10_SMOOTH
        &END
        &XC_FUNCTIONAL
          &PADE
          &END
        &END
      &END
    &END TDDFPT
  &END DFT
&END FORCE_EVAL
