
&FORCE_EVAL
  &DFT
    BASIS_SET_FILE_NAME BASIS_SET
    POTENTIAL_FILE_NAME fitPOTENTIAL
    &MGRID
      CUTOFF 200
    &END MGRID
    &QS
      EPS_DEFAULT 1.0e-6
      &HARRIS
        ACTIVATE TRUE
      &END HARRIS
    &END QS
    &SCF
      EPS_SCF 1.0e-3
      MAX_SCF 2
      SCF_GUESS ATOMIC
    &END SCF
    &XC
      &XC_FUNCTIONAL Pade
      &END XC_FUNCTIONAL
    &END XC
  &END DFT
  &SUBSYS
    &CELL
      ABC 8.509565617585894 4.913000000000000 5.405200000000000
      UNIT ANGSTROM
    &END CELL
    &COORD
   O     1.760000    0.299000    1.157000
   SI    0.000000    2.310000    3.603000
   SI    2.255000    1.302000    0.000000
   O     3.634000    0.783000    4.761000
   O     1.139000    1.375000    4.248000
   O     0.621000    3.240000    2.446000
   O     2.495000    2.755000    0.644000
   SI    2.000000    3.758000    1.802000
   O     3.116000    3.831000    2.959000
   O     4.875783    0.783500    2.446000
   O     6.749783    0.298500    0.644000
   SI    6.254783    1.301500    1.802000
   O     6.014783    2.755500    1.157000
   SI    4.254783    4.766500    3.603000
   O     7.370783    1.374500    2.959000
   SI    6.509783    3.758500    0.000000
   O     7.888783    3.239500    4.761000
   O     5.393783    3.831500    4.248000
    &END COORD
    &KIND Si
      BASIS_SET DZVP-GTH-PADE
      CORE_CORRECTION +2
      POTENTIAL GTH-PADE-q4+2
    &END KIND
    &KIND O
      BASIS_SET DZVP-GTH-PADE
      CORE_CORRECTION -1
      POTENTIAL GTH-PADE-q6-1
    &END KIND
  &END SUBSYS
&END FORCE_EVAL
&GLOBAL
  FFTLIB FFTSG
  PROGRAM QS
  PROJECT 6SiO2-MD
  RUN_TYPE MD
  PRINT_LEVEL LOW
&END GLOBAL
&MOTION
  &MD
    ENSEMBLE NVE
    STEPS 0
    TIMESTEP 0.5
    TEMPERATURE 300.0
    RESTART INIT
  &END MD
&END MOTION
