&CP2K  
  PROGRAM   QS
  PROJECT   6SiO2-MD
  IOLEVEL   1
  FFTLIB    FFTSG
  RUN_TYPE  MD
&END

&PRINT LOW
 POTENTIAL
 FORCES
 PRECISION 10
&END

&MD
  ensemble:     nve                    (nve,nvt,npt_i,npt_f)
  steps:        0
  timestep:     0.5                       time step [fs]
  temperature:  300.0                    temperature [K]
  restart:      init                      start type (pos,posvel)
  constraints:  off
&END

&CELL
 UNIT   ANGSTROM 
 ABC   8.509565617585894     4.913000000000000     5.405200000000000       
&END

&COORD
O     1.760000    0.299000    1.157000
SI    0.000000    2.310000    3.603000
SI    2.255000    1.302000    0.000000
O     3.634000    0.783000    4.761000
O     1.139000    1.375000    4.248000
O     0.621000    3.240000    2.446000
O     2.495000    2.755000    0.644000
SI    2.000000    3.758000    1.802000
O     3.116000    3.831000    2.959000
O     4.875783    0.783500    2.446000
O     6.749783    0.298500    0.644000
SI    6.254783    1.301500    1.802000
O     6.014783    2.755500    1.157000
SI    4.254783    4.766500    3.603000
O     7.370783    1.374500    2.959000
SI    6.509783    3.758500    0.000000
O     7.888783    3.239500    4.761000
O     5.393783    3.831500    4.248000
&END

&DFT
 FUNCTIONAL   Pade
&END

&QS
 CUTOFF       200
 EPS_DEFAULT  1.0e-6
&END

&SCF
 GUESS        ATOMIC
 MAX_SCF      2
 EPS_SCF      1.0e-3
&END

&KIND Si
 BASIS_SET    DZVP-GTH-PADE
 POTENTIAL    GTH-PADE-q4+2
 CORE_CORRECTION +2
&END

&KIND O
 BASIS_SET    DZVP-GTH-PADE
 POTENTIAL    GTH-PADE-q6-1
 CORE_CORRECTION -1
&END

&IO
 BASIS_SET_FILE  BASIS_SET
 POTENTIAL_FILE  fitPOTENTIAL
&END

&FORCE_EVAL
 &DFT
  &QS
   &HARRIS
    ACTIVATE TRUE
   &END
  &END
 &END
&END