&CP2K
 PROGRAM      Quickstep
 IOLEVEL      10
 FFTLIB       FFTSG
 RUN_TYPE     MD
&END

&MD
 ensemble:    nve
 steps:       0
 timestep:    0.5
 temperature: 300.0
 restart:     init
 constraints: off
&END

&DFT
 FUNCTIONAL   Pade
&END

&QS
 NGRID        4
 CUTOFF       200
&END

&SCF
# GUESS        ATOMIC
 GUESS        DENSITIES
 MAX_SCF      1
&END

&CELL
 UNIT       ANGSTROM
 ABC        8.0 8.0 12.0
&END

&PRINT MEDIUM
 POTENTIAL
 BASIS_SET
 FORCES
 PRECISION 10
&END

&KIND Si
 BASIS_SET DZVP-GTH
 AUX_BASIS_SET FIT-4s
# POTENTIAL GTH-PADE-q4+4
 POTENTIAL GTH-PADE-q4
# CORE_CORRECTION +4
&END

&KIND O
 BASIS_SET DZVP-GTH
 AUX_BASIS_SET FIT-4s
# POTENTIAL GTH-PADE-q6-2
 POTENTIAL GTH-PADE-q6
# CORE_CORRECTION -2
&END

&COORD
 SI   4.000000  4.000000  6.000000
 O    4.000000  4.000000  4.500000
 O    4.000000  4.000000  7.500000
&END

&IO
# BASIS_SET_FILE GTH_BASIS_SETS
 BASIS_SET_FILE fitGTH_BASIS_SET
# POTENTIAL_FILE fitPOTENTIAL
 POTENTIAL_FILE POTENTIAL
&END

&FORCE_EVAL
 &DFT
  &QS
   &HARRIS
    ACTIVATE TRUE
   &END
  &END
 &END
&END