
&FORCE_EVAL
  &DFT
    &MGRID
      CUTOFF 200
    &END MGRID
    &QS
    &END QS
    &SCF
      MAX_SCF 1
      MIXING 0.2
      SCF_GUESS atomic
    &END SCF
    &XC
      &XC_FUNCTIONAL Pade
      &END XC_FUNCTIONAL
    &END XC
  &END DFT
  &SUBSYS
    &CELL
      ABC 5.0 5.0 5.0
      UNIT ANGSTROM
    &END CELL
    &COORD
     O     0.000000  0.000000  1.720000
    Zr     0.000000  0.000000  0.000000
    &END COORD
    &KIND O
      BASIS_SET DZVP-GTH-PADE
      POTENTIAL GTH-PADE-q6
    &END KIND
    &KIND Zr
      BASIS_SET DZV-GTH-PADE
      POTENTIAL GTH-PADE-q12
    &END KIND
  &END SUBSYS
&END FORCE_EVAL
&GLOBAL
  FFTLIB FFTSG
  PROGRAM Quickstep
  PRINT_LEVEL MEDIUM
&END GLOBAL
