&GLOBAL
  PROJECT Au
  PROGRAM_NAME ATOM
&END GLOBAL
&ATOM
  ELEMENT Au
  ELECTRON_CONFIGURATION  [Xe] 4f14 5d10 6s1
  &METHOD
     METHOD_TYPE  KOHN-SHAM
     RELATIVISTIC DKH(3)
     &XC
       &XC_FUNCTIONAL PBE
       &END XC_FUNCTIONAL
     &END XC
  &END METHOD
  &AE_BASIS
     BASIS_TYPE GEOMETRICAL_GTO
     GEO_START_VALUE  0.015
  &END AE_BASIS
&END ATOM
