&GLOBAL
  PROJECT Ba
  PROGRAM_NAME ATOM
&END GLOBAL
&ATOM
  ELEMENT Ba
  ELECTRON_CONFIGURATION [Xe] 6s2

  MAX_ANGULAR_MOMENTUM 3
  CALCULATE_STATES 7 6 5 4
  &METHOD
     METHOD_TYPE  KOHN-SHAM
     RELATIVISTIC DKH(3)
     &XC
       &XC_FUNCTIONAL BLYP
       &END XC_FUNCTIONAL
     &END XC
  &END METHOD
  &AE_BASIS
     BASIS_TYPE GEOMETRICAL_GTO
     START_INDEX   0 2 3 4
  &END AE_BASIS
&END ATOM
