&GLOBAL
  PROJECT Be
  PROGRAM_NAME ATOM
&END GLOBAL
&ATOM
  ATOMIC_NUMBER 4
  ELECTRON_CONFIGURATION  CORE 1s2 2s2
  CORE none
 
  MAX_ANGULAR_MOMENTUM 2
  CALCULATE_STATES 2 2 2
  &METHOD
     METHOD_TYPE  KOHN-SHAM
     &XC
       &XC_FUNCTIONAL NONE
       &END XC_FUNCTIONAL
     &END XC
  &END METHOD
  &POTENTIAL
    PSEUDO_TYPE GTH
    POTENTIAL_NAME GTH-BLYP-q4
  &END POTENTIAL
&END ATOM
