&GLOBAL
  PROJECT Br
  PROGRAM_NAME ATOM
&END GLOBAL
&ATOM
  ELEMENT Br
  ELECTRON_CONFIGURATION [Ar] 3d10 4s2 4p5
  MAX_ANGULAR_MOMENTUM 2
  &METHOD
     METHOD_TYPE  KOHN-SHAM
     &XC
       &XC_FUNCTIONAL PBE0
       &END XC_FUNCTIONAL
     &END XC
  &END METHOD
  &AE_BASIS
     BASIS_TYPE CONTRACTED_GTO
     BASIS_SET DZVP-ALLELECTRON
  &END AE_BASIS
&END ATOM
