&GLOBAL
  PROJECT Cd
  PROGRAM_NAME ATOM
&END GLOBAL
&ATOM
  ELEMENT Cd
  ELECTRON_CONFIGURATION [Kr] 4d10 5s2
  EXCHANGE_INTEGRALS ANALYTIC
  MAX_ANGULAR_MOMENTUM 2
  &METHOD
     METHOD_TYPE  KOHN-SHAM
     RELATIVISTIC DKH(2)
     &XC
       &XC_FUNCTIONAL B3LYP
       &END XC_FUNCTIONAL
     &END XC
  &END METHOD
  &AE_BASIS
     BASIS_TYPE GAUSSIAN
     NUM_GTO  8 6 4
     S_EXPONENTS  0.2 0.5 1.25 4.0 12.0 40.0 100. 500.
     P_EXPONENTS  0.2 0.6 1.80 5.4 16.0 50.0
     D_EXPONENTS  0.5 1.5 4.5 12.0
  &END AE_BASIS
&END ATOM
