&GLOBAL
  PROJECT Cl
  PROGRAM_NAME ATOM
&END GLOBAL
&ATOM
  ELEMENT Cl
  ELECTRON_CONFIGURATION [Ne] 3s2 3p5
  ELECTRON_CONFIGURATION CORE 3s2 3p4
  CORE [Ne]
  ELECTRON_CONFIGURATION [Ne] 3s2 3p3
  ELECTRON_CONFIGURATION CORE 3s2 3p2
  &METHOD
     METHOD_TYPE  KOHN-SHAM
     &XC
       &XC_FUNCTIONAL BLYP
       &END XC_FUNCTIONAL
     &END XC
  &END METHOD
  &AE_BASIS
     BASIS_TYPE CONTRACTED_GTO
     BASIS_SET 6-31G*
  &END AE_BASIS
  &POTENTIAL
    PSEUDO_TYPE GTH
    POTENTIAL_NAME GTH-BLYP-q7
  &END POTENTIAL
  &PP_BASIS
     BASIS_TYPE CONTRACTED_GTO
     BASIS_SET DZVP-GTH-BLYP
  &END PP_BASIS
&END ATOM
