&GLOBAL
  PROJECT Cs
  PROGRAM_NAME ATOM
&END GLOBAL
&ATOM
  ELEMENT Cs
  ELECTRON_CONFIGURATION [Xe] 6s1
  &METHOD
     METHOD_TYPE  KOHN-SHAM
     RELATIVISTIC DKH(3)
     &XC
       &XC_FUNCTIONAL
         &BECKE88
         &END BECKE88
       &END XC_FUNCTIONAL
     &END XC
  &END METHOD
&END ATOM
