&GLOBAL
  PROJECT Dy
  PROGRAM_NAME ATOM
&END GLOBAL
&ATOM
  ELEMENT Dy
  ELECTRON_CONFIGURATION  [Xe] 4f10 6s2
  &METHOD
     METHOD_TYPE  KOHN-SHAM
     RELATIVISTIC ZORA(MP)
     &XC
       &XC_FUNCTIONAL
          &XALPHA
             XA 0.75
          &END XALPHA
       &END XC_FUNCTIONAL
     &END XC
  &END METHOD
&END ATOM
