&GLOBAL
  PROJECT Es
  PROGRAM_NAME ATOM
&END GLOBAL
&ATOM
  ELEMENT Es
  ELECTRON_CONFIGURATION [Rn] 5f11 7s2
  &METHOD
     METHOD_TYPE  KOHN-SHAM
     RELATIVISTIC ZORA(MP)
     &XC
       &XC_FUNCTIONAL
         &VWN
         &END VWN
       &END XC_FUNCTIONAL
     &END XC
  &END METHOD
  &AE_BASIS
     BASIS_TYPE  GEOMETRICAL_GTO
     NUM_GTO  10 10 5 5
     GEO_START_VALUE   0.2
     GEOMETRICAL_FACTOR 3.2
     START_INDEX  0 0 4 4
  &END AE_BASIS
&END ATOM
