&GLOBAL
  PROJECT Eu
  PROGRAM_NAME ATOM
&END GLOBAL
&ATOM
  ELEMENT Eu
  ELECTRON_CONFIGURATION [Xe] 4f7 6s2
  &METHOD
     METHOD_TYPE  KOHN-SHAM
     RELATIVISTIC ZORA(MP)
     &XC
       &XC_FUNCTIONAL
          &XALPHA
          &END XALPHA
          &PZ81
          &END PZ81
       &END XC_FUNCTIONAL
     &END XC
  &END METHOD
&END ATOM
