&GLOBAL
  PROJECT F
  PROGRAM_NAME ATOM
&END GLOBAL
&ATOM
  ELEMENT F
  ELECTRON_CONFIGURATION  CORE 2s2 2p5
  CORE [He]
  COULOMB_INTEGRALS ANALYTIC
  &METHOD
     METHOD_TYPE  KOHN-SHAM
     &XC
       &XC_FUNCTIONAL 
         &BECKE88
         &END BECKE88
         &LYP 
         &END LYP 
       &END XC_FUNCTIONAL
     &END XC
  &END METHOD
  &POTENTIAL
    PSEUDO_TYPE GTH
    POTENTIAL_NAME GTH-PADE-q7
  &END POTENTIAL
  &PP_BASIS
     BASIS_TYPE CONTRACTED_GTO
     BASIS_SET DZVP-GTH-PADE
  &END PP_BASIS
&END ATOM
