&GLOBAL
  PROJECT Fm
  PROGRAM_NAME ATOM
&END GLOBAL
&ATOM
  ELEMENT Fm
  ELECTRON_CONFIGURATION [Rn] 5f12 7s2
  &METHOD
     METHOD_TYPE  KOHN-SHAM
     RELATIVISTIC OFF
     &XC
       &XC_FUNCTIONAL PADE
       &END XC_FUNCTIONAL
     &END XC
  &END METHOD
&END ATOM
