&GLOBAL
  PROJECT Gd
  PROGRAM_NAME ATOM
&END GLOBAL
&ATOM
  ELEMENT Gd
  ELECTRON_CONFIGURATION [Xe] 4f7 5d1 6s2
  COULOMB_INTEGRALS ANALYTIC
  &METHOD
     METHOD_TYPE  KOHN-SHAM
     RELATIVISTIC DKH(3)
     &XC
       &XC_FUNCTIONAL PBE0
       &END XC_FUNCTIONAL
     &END XC
  &END METHOD
  &AE_BASIS
     BASIS_TYPE GAUSSIAN
     NUM_GTO  10 8 6 4
     S_EXPONENTS 0.05 0.20 0.40 0.80 2.00 20.0 200.0 2000.0 4000.0 10000.
     P_EXPONENTS 0.05 0.20 0.40 0.80 2.00 20.0 200.0 2000.0
     D_EXPONENTS 0.20 0.40 0.80 2.00 6.0 20.0
     F_EXPONENTS 0.20 0.80 2.00 6.00
  &END AE_BASIS
&END ATOM
