&GLOBAL
  PROJECT H
  PROGRAM_NAME ATOM
&END GLOBAL
&ATOM
  ELEMENT H
  ELECTRON_CONFIGURATION  1s1
  COULOMB_INTEGRALS ANALYTIC
  &METHOD
     METHOD_TYPE  KOHN-SHAM
     &XC
       &XC_FUNCTIONAL BLYP
       &END XC_FUNCTIONAL
     &END XC
  &END METHOD
  &AE_BASIS
     BASIS_TYPE CONTRACTED_GTO
     BASIS_SET TZV-ALL-PADE
  &END AE_BASIS
&END ATOM
