&GLOBAL
  PROJECT He
  PROGRAM_NAME ATOM
&END GLOBAL
&ATOM
  ATOMIC_NUMBER 2
  ELECTRON_CONFIGURATION  1s2
  COULOMB_INTEGRALS ANALYTIC
  EXCHANGE_INTEGRALS ANALYTIC
  &METHOD
     METHOD_TYPE HARTREE-FOCK
  &END METHOD
  &AE_BASIS
     BASIS_TYPE CONTRACTED_GTO
     BASIS_SET 6-31G*
  &END AE_BASIS
&END ATOM
