&GLOBAL
  PROJECT K
  PROGRAM_NAME ATOM
&END GLOBAL
&ATOM
  ELEMENT K
  ELECTRON_CONFIGURATION [Ar] 4s1
  &METHOD
     METHOD_TYPE  KOHN-SHAM
     &XC
       &XC_FUNCTIONAL 
            &BECKE97
              PARAMETRIZATION B97GRIMME
            &END BECKE97
       &END XC_FUNCTIONAL
     &END XC
  &END METHOD
  &AE_BASIS
     BASIS_TYPE CONTRACTED_GTO
     BASIS_SET DZVP-ALLELECTRON
     EPS_EIGENVALUE  0.00001
  &END AE_BASIS
&END ATOM
