&GLOBAL
  PROJECT Kr
  PROGRAM_NAME ATOM
&END GLOBAL
&ATOM
  ELEMENT Kr
  ELECTRON_CONFIGURATION  [Kr]
  &METHOD
     METHOD_TYPE  KOHN-SHAM
     &XC
       &XC_FUNCTIONAL
         &BECKE88
         &END
       &END XC_FUNCTIONAL
     &END XC
  &END METHOD
  &AE_BASIS
     BASIS_TYPE GEOMETRICAL_GTO
     EPS_EIGENVALUE  0.001
  &END AE_BASIS
&END ATOM
