&GLOBAL
  PROJECT La
  PROGRAM_NAME ATOM
&END GLOBAL
&ATOM
  ELEMENT La
  ELECTRON_CONFIGURATION [Xe] 5d1 6s2
  &METHOD
     METHOD_TYPE  KOHN-SHAM
     RELATIVISTIC DKH(0)
     &XC
       &XC_FUNCTIONAL
         &VWN
         &END VWN
       &END XC_FUNCTIONAL
     &END XC
  &END METHOD
  &AE_BASIS
     BASIS_TYPE GEOMETRICAL_GTO
  &END AE_BASIS
&END ATOM
