&GLOBAL
  PROJECT Mg
  PROGRAM_NAME ATOM
&END GLOBAL
&ATOM
  ELEMENT Mg
  ELECTRON_CONFIGURATION  [Ne] 3s2
  &METHOD
     METHOD_TYPE HARTREE-FOCK
     RELATIVISTIC DKH(3)
  &END METHOD
  &AE_BASIS
    BASIS_TYPE CONTRACTED_GTO
    BASIS_SET DZVP-ALL
  &END AE_BASIS
&END ATOM
