&GLOBAL
  PROJECT Ne
  PROGRAM_NAME ATOM
&END GLOBAL
&ATOM
  ELEMENT Ne
  ELECTRON_CONFIGURATION  [Ne]
  &METHOD
     METHOD_TYPE HARTREE-FOCK
     RELATIVISTIC ZORA(MP)
  &END METHOD
&END ATOM
