&GLOBAL
  PROJECT Ni
  PROGRAM_NAME ATOM
&END GLOBAL
&ATOM
  ELEMENT Ni
  ELECTRON_CONFIGURATION [Ar] 3d8 4s2
  &METHOD
     METHOD_TYPE  KOHN-SHAM
     &XC
       &XC_FUNCTIONAL PBE0
       &END XC_FUNCTIONAL
     &END XC
  &END METHOD
  &AE_BASIS
     BASIS_TYPE GEOMETRICAL_GTO
     QUADRATURE GC_LOG
  &END AE_BASIS
  &POTENTIAL
     CONFINEMENT_TYPE POLYNOM
     CONFINEMENT   0.1  4.0   2.0
  &END POTENTIAL
&END ATOM
