&GLOBAL
  PROJECT Pb
  PROGRAM_NAME ATOM
&END GLOBAL
&ATOM
  ELEMENT Pb
  ELECTRON_CONFIGURATION [Xe] 4f14 5d10 6s2 6p2
  &METHOD
     METHOD_TYPE  KOHN-SHAM
     &XC
       &XC_FUNCTIONAL
         &BECKE88
         &END
       &END XC_FUNCTIONAL
     &END XC
  &END METHOD
&END ATOM
