&GLOBAL
  PROJECT Pd
  PROGRAM_NAME ATOM
&END GLOBAL
&ATOM
  ELEMENT Pd
  ELECTRON_CONFIGURATION [Kr] 4d10
  &METHOD
     METHOD_TYPE  KOHN-SHAM
     &XC
       &XC_FUNCTIONAL
         &BECKE88
         &END
       &END XC_FUNCTIONAL
     &END XC
  &END METHOD
&END ATOM
