&GLOBAL
  PROJECT Pu
  PROGRAM_NAME ATOM
&END GLOBAL
&ATOM
  ELEMENT Pu
  ELECTRON_CONFIGURATION [Rn] 5f6 7s2
  &METHOD
     METHOD_TYPE  KOHN-SHAM
     &XC
       &XC_FUNCTIONAL
          &BECKE97
              PARAMETRIZATION B97GRIMME
          &END BECKE97
       &END XC_FUNCTIONAL
     &END XC
  &END METHOD
&END ATOM
