&GLOBAL
  PROJECT Re
  PROGRAM_NAME ATOM
&END GLOBAL
&ATOM
  ELEMENT Re
  ELECTRON_CONFIGURATION [Xe] 4f14 5d5 6s2
  &METHOD
     METHOD_TYPE  KOHN-SHAM
     &XC
       &XC_FUNCTIONAL PADE
       &END XC_FUNCTIONAL
     &END XC
  &END METHOD
  &AE_BASIS
     BASIS_TYPE GEOMETRICAL_GTO
     GRID_POINTS 555
  &END AE_BASIS
  &POTENTIAL
     CONFINEMENT_TYPE POLYNOM
     CONFINEMENT   0.1  6.0   4.0
  &END POTENTIAL
&END ATOM
