&GLOBAL
  PROJECT Rn
  PROGRAM_NAME ATOM
&END GLOBAL
&ATOM
  ELEMENT Rn
  ELECTRON_CONFIGURATION  [Rn]
  COULOMB_INTEGRALS NUMERIC
  EXCHANGE_INTEGRALS NUMERIC
  &METHOD
     METHOD_TYPE HARTREE-FOCK
  &END METHOD
  &AE_BASIS
     BASIS_TYPE GEOMETRICAL_GTO
     NUM_GTO 16 16 12 8
     START_INDEX 0 0 3 5
  &END AE_BASIS
&END ATOM
