&GLOBAL
  PROJECT Se
  PROGRAM_NAME ATOM
&END GLOBAL
&ATOM
  ELEMENT Se
  ELECTRON_CONFIGURATION [Ar] 3d10 4s2 4p4
  &METHOD
     METHOD_TYPE  KOHN-SHAM
     &XC
       &XC_FUNCTIONAL PBE
       &END XC_FUNCTIONAL
     &END XC
  &END METHOD
&END ATOM
