&GLOBAL
  PROJECT Tb
  PROGRAM_NAME ATOM
&END GLOBAL
&ATOM
  ELEMENT Tb
  ELECTRON_CONFIGURATION [Xe] 4f9 6s2
  &METHOD
     METHOD_TYPE  KOHN-SHAM
     &XC
       &XC_FUNCTIONAL BLYP
       &END XC_FUNCTIONAL
     &END XC
  &END METHOD
  &AE_BASIS
     BASIS_TYPE GEOMETRICAL_GTO
  &END AE_BASIS
  &POTENTIAL
     CONFINEMENT_TYPE POLYNOM
     CONFINEMENT   0.1  4.0  2.0
  &END POTENTIAL
&END ATOM
