&GLOBAL
  PROJECT Xe
  PROGRAM_NAME ATOM
&END GLOBAL
&ATOM
  ELEMENT Xe
  ELECTRON_CONFIGURATION [Xe]
  MAX_ANGULAR_MOMENTUM 2
  &METHOD
     METHOD_TYPE HARTREE-FOCK
  &END METHOD
  &AE_BASIS
     BASIS_TYPE GEOMETRICAL_GTO
     NUM_GTO 10 10 10
  &END AE_BASIS
&END ATOM
