&GLOBAL
  PROJECT_NAME regtest-Ar-T
  RUN_TYPE ENERGY
&END GLOBAL

&FORCE_EVAL
  &DFT
    BASIS_SET_FILE_NAME EMSL_BASIS_SETS
    POTENTIAL_FILE_NAME POTENTIAL
    &POISSON
      PERIODIC NONE
      PSOLVER MT
    &END POISSON
    &QS
      METHOD GAPW
    &END QS
    &XC
      &XC_FUNCTIONAL PBE
      &END XC_FUNCTIONAL
    &END XC
  &END DFT
  &PROPERTIES
    &TDDFPT
      KERNEL FULL
      NSTATES 3
      RKS_TRIPLETS T
      &DIPOLE_MOMENTS
        DIPOLE_FORM LENGTH
      &END DIPOLE_MOMENTS
      &PRINT
        &SOC_PRINT
          SPLITTING
        &END SOC_PRINT
      &END PRINT
      &SOC
      &END SOC
      &XC
        &XC_FUNCTIONAL PBE
        &END XC_FUNCTIONAL
      &END XC
    &END TDDFPT
  &END PROPERTIES
  &SUBSYS
    &CELL
      ABC 4.0 4.0 4.0
      PERIODIC NONE
    &END CELL
    &COORD
      Ar  2.0000 2.0000 2.0000
    &END COORD
    &KIND Ar
      BASIS_SET 6-31G*
      POTENTIAL ALL
    &END KIND
  &END SUBSYS
&END FORCE_EVAL
