&GLOBAL
   RUN_TYPE ENERGY
   PROJECT_NAME regtest-Ar-S
&END GLOBAL
&FORCE_EVAL
&PROPERTIES
  &TDDFPT
    NSTATES 3
    &DIPOLE_MOMENTS
                 DIPOLE_FORM LENGTH
   &END DIPOLE_MOMENTS
   KERNEL FULL
   &XC
      &XC_FUNCTIONAL PBE
      &END XC_FUNCTIONAL
    &END XC
    RKS_TRIPLETS F
    &PRINT
      &SOC_PRINT
        SPLITTING
      &END 
    &END PRINT
    &SOC
    &END SOC
  &END TDDFPT
&END PROPERTIES

&DFT
  BASIS_SET_FILE_NAME  EMSL_BASIS_SETS
  POTENTIAL_FILE_NAME  POTENTIAL
  &QS
    METHOD GAPW
  &END QS

  &POISSON
    PERIODIC NONE
    PSOLVER MT
  &END POISSON

  &XC
    &XC_FUNCTIONAL PBE
    &END XC_FUNCTIONAL
  &END XC
&END DFT
&SUBSYS
  &CELL
    ABC 4.0 4.0 4.0
    PERIODIC NONE
  &END CELL
  &COORD
    Ar    2.0000 2.0000 2.0000
  &END COORD
  &KIND Ar
    BASIS_SET 6-31G*
    POTENTIAL ALL
  &END KIND
&END SUBSYS
&END FORCE_EVAL
