&GLOBAL
  PRINT_LEVEL MEDIUM
  PROGRAM_NAME TEST
  RUN_TYPE NONE
  &TIMINGS
    THRESHOLD 0.00000000001
  &END TIMINGS
&END GLOBAL

&TEST
  &DBM
    ASPARSITY 0.05
    BSPARSITY 0.05
    BS_K 1 26 1 13 1 54
    BS_M 1 26 1 13 1 54
    BS_N 1 26 1 13 1 54
    CSPARSITY 0.05
    K 800
    M 800
    N 800
    N_LOOP 2
    TRANSA FALSE
    TRANSB TRUE
  &END DBM
&END TEST
