#CPQA DEPENDS ch4.inp
&FORCE_EVAL
  METHOD Quickstep
  &DFT
    &QS
      METHOD PM3
      &SE
       
      &END
    &END QS
    &SCF
      MAX_SCF 20
      SCF_GUESS RESTART
    &END SCF
    RESTART_FILE_NAME ch4-RESTART.wfn
  &END DFT
  &SUBSYS
    &CELL
      ABC 20.0 20.0 20.0
      PERIODIC NONE
    &END CELL
    &COORD
          C                   .00000000     .00000000     .00000000
          H                  1.01578458     .00000000     .00000000
          H                  -.33859486     .95769088     .00000000
          H                  -.33859486    -.47884544     .82938463
          H                  -.33859486    -.47884544    -.82938463
    &END COORD
  &END SUBSYS
&END FORCE_EVAL
&GLOBAL

  PROJECT ch4
&END GLOBAL
