&FORCE_EVAL
  METHOD Quickstep
  &DFT
    LSD
    &QS
      METHOD AM1
      &SE
       
      &END
    &END QS
    &SCF
      SCF_GUESS ATOMIC
    &END SCF
  &END DFT
  &SUBSYS
    &CELL
      ABC 20.0 20.0 20.0
      PERIODIC NONE
    &END CELL
    &COORD
          O                   .00000000     .00000000     .00000000
          H                  1.05000000     .00000000     .00000000
          H                  -.26289900    1.01655502     .00000000
    &END COORD
  &END SUBSYS
&END FORCE_EVAL
&GLOBAL
  PROJECT h2o_lsd
  RUN_TYPE GEO_OPT
&END GLOBAL
