&GLOBAL
  PROJECT h2o_meta
  RUN_TYPE MD
&END GLOBAL

&MOTION
  &FREE_ENERGY
    &METADYN
      DO_HILLS
      LAGRANGE
      NT_HILLS 20
      TEMPERATURE 0.0
      TEMP_TOL 100.0
      WW 1.0e-2
      &METAVAR
        COLVAR 1
        LAMBDA 1.0
        MASS 10.0
        SCALE 0.07
      &END METAVAR
      &PRINT
        &COLVAR
          &EACH
            METADYNAMICS 10
          &END EACH
        &END COLVAR
        &HILLS
          &EACH
            METADYNAMICS 10
          &END EACH
        &END HILLS
      &END PRINT
    &END METADYN
  &END FREE_ENERGY
  &MD
    ENSEMBLE NVE
    STEPS 100
    TEMPERATURE 300
    TEMP_TOL 100
    TIMESTEP 0.5
  &END MD
  &PRINT
    &TRAJECTORY
    &END TRAJECTORY
    &VELOCITIES OFF
    &END VELOCITIES
  &END PRINT
&END MOTION

&FORCE_EVAL
  METHOD Quickstep
  &DFT
    &QS
      METHOD AM1
      &SE
        ANALYTICAL_GRADIENTS T
      &END SE
    &END QS
    &SCF
      SCF_GUESS ATOMIC
    &END SCF
  &END DFT
  &SUBSYS
    &CELL
      ABC 20.0 20.0 20.0
      PERIODIC NONE
    &END CELL
    &COLVAR
      &DISTANCE
        ATOMS 1 2
      &END DISTANCE
    &END COLVAR
    &COORD
      O                   .00000000     .00000000     .00000000
      H                  1.05000000     .00000000     .00000000
      H                  -.26289900    1.01655502     .00000000
    &END COORD
  &END SUBSYS
&END FORCE_EVAL
