&FORCE_EVAL
  METHOD Quickstep
  &DFT
    CHARGE 1
    LSD
    &QS
      METHOD AM1
      &SE
       
      &END
    &END QS
    &SCF
      SCF_GUESS ATOMIC
    &END SCF
  &END DFT
  &SUBSYS
    &CELL
      ABC 20.0 20.0 20.0
      PERIODIC NONE
    &END CELL
    &COORD
          O                  -.13219527     .00026095     .00000000
          H                   .91780473     .00026095     .00000000
          H                  1.18066235    -.00440322     .00000000
    &END COORD
  &END SUBSYS
&END FORCE_EVAL
&GLOBAL
  PROJECT h2op
&END GLOBAL
