&FORCE_EVAL
  METHOD Quickstep
  &DFT
    &QS
      METHOD MNDO
      &SE
       
      &END
    &END QS
    &SCF
      MAX_SCF 20
      SCF_GUESS ATOMIC
    &END SCF
  &END DFT
  &SUBSYS
    &CELL
      ABC 20.0 20.0 20.0
      PERIODIC NONE
    &END CELL
    &COORD
         C                 -1.14407800     .00000000     .00000000
         N                   .08275600     .00000000     .00000000
         H                  1.06132200     .00000000     .00000000
    &END COORD
  &END SUBSYS
&END FORCE_EVAL
&GLOBAL
  PROJECT hcn
&END GLOBAL
