&FORCE_EVAL
  METHOD Quickstep
  &DFT
    &QS
      METHOD PM6
      &SE
       ANALYTICAL_GRADIENTS T
      &END
    &END QS
    &SCF
      SCF_GUESS ATOMIC
    &END SCF
  &END DFT
  &SUBSYS
    &CELL
      ABC 20.0 20.0 20.0
      PERIODIC NONE
    &END CELL
    &COORD
      C     0.000000    0.000000    0.000000  
      N     1.226834    0.000000    0.000000 
      H    -0.978566    0.000000    0.000000  
    &END COORD
  &END SUBSYS
&END FORCE_EVAL
&GLOBAL
  PROJECT hcn_pm6
  RUN_TYPE GEO_OPT
&END GLOBAL
