&FORCE_EVAL
  METHOD Quickstep
  &DFT
    &QS
      METHOD AM1
      &SE
       
      &END
    &END QS
    &SCF
      SCF_GUESS ATOMIC
    &END SCF
  &END DFT
  &SUBSYS
    &CELL
      ABC 20.0 20.0 20.0
      PERIODIC NONE
    &END CELL
    &COORD
        F                   .00000000     .00000000     .00000000
        H                   .40673664    -.11133319    -.90673603
    &END COORD
  &END SUBSYS
&END FORCE_EVAL
&GLOBAL
  PROJECT hf
  RUN_TYPE GEO_OPT
&END GLOBAL
&MOTION
  &GEO_OPT
    MAX_ITER 20
  &END GEO_OPT
&END MOTION
