&GLOBAL
  PROJECT hf_z
  RUN_TYPE DEBUG
&END GLOBAL

&DEBUG
&END DEBUG

&FORCE_EVAL
  METHOD Quickstep
  &DFT
    &QS
      METHOD AM1
      &SE
      &END SE
    &END QS
    &SCF
      SCF_GUESS ATOMIC
    &END SCF
  &END DFT
  &SUBSYS
    &CELL
      ABC 20.0 20.0 20.0
      PERIODIC NONE
    &END CELL
    &COORD
      F                   .00000000     .00000000     .00000000
      H                   .00000000     .00000000    1.00000000
    &END COORD
  &END SUBSYS
&END FORCE_EVAL
