&GLOBAL
  PROJECT  scalable_GW
  PRINT_LEVEL MEDIUM
  RUN_TYPE ENERGY
  &TIMINGS
     THRESHOLD 0.01
  &END
&END GLOBAL
&FORCE_EVAL
  METHOD Quickstep
  &DFT
    BASIS_SET_FILE_NAME  HFX_BASIS
    SORT_BASIS EXP
    POTENTIAL_FILE_NAME  GTH_POTENTIALS
    &MGRID
      CUTOFF  100
      REL_CUTOFF  20
    &END MGRID
    &QS
      METHOD GPW
      EPS_DEFAULT 1.0E-15
      EPS_PGF_ORB 1.0E-15
    &END QS
    &SCF
      SCF_GUESS ATOMIC
      EPS_SCF 1.0E-5
      MAX_SCF 100
      ADDED_MOS -1
    &END SCF
    &XC
      &XC_FUNCTIONAL PBE
      &END XC_FUNCTIONAL
    &END XC
  &END DFT
  &PROPERTIES
    &BANDSTRUCTURE
      &GW
        NUM_TIME_FREQ_POINTS 6
        SIZE_LATTICE_SUM_V 3
        KPOINTS_SIGMA 1 2 2
      &END
    &END
  &END PROPERTIES
  &SUBSYS
    &CELL
      ABC [angstrom]  8.000   8.000  8.000
      MULTIPLE_UNIT_CELL  1 1 1
      PERIODIC YZ
    &END CELL
    &KIND H
      BASIS_SET ORB        DZVP-GTH
      BASIS_SET RI_AUX RI_DZVP-GTH
      POTENTIAL        GTH-PBE-q1
    &END KIND
    &KIND O
      BASIS_SET ORB        DZVP-GTH
      BASIS_SET RI_AUX RI_DZVP-GTH
      POTENTIAL        GTH-PBE-q6
    &END KIND
    &TOPOLOGY
      MULTIPLE_UNIT_CELL  1 1 1
    &END TOPOLOGY
    &COORD
      H  0.0 -0.5 -4.5
      O  0.5  0.0  4.5
      H  0.0  0.5 -4.5
    &END COORD
  &END SUBSYS
&END FORCE_EVAL
