&GLOBAL
  PRINT_LEVEL SILENT
  PROJECT IH
  RUN_TYPE ENERGY
  &TIMINGS
    THRESHOLD 0.01
  &END TIMINGS
&END GLOBAL

&FORCE_EVAL
  METHOD Quickstep
  &DFT
    BASIS_SET_FILE_NAME BASIS_MOLOPT
    BASIS_SET_FILE_NAME HFX_BASIS
    BASIS_SET_FILE_NAME ./REGTEST_BASIS
    POTENTIAL_FILE_NAME GTH_SOC_POTENTIALS
    SORT_BASIS EXP
    &MGRID
      CUTOFF 100
      REL_CUTOFF 20
    &END MGRID
    &QS
      EPS_DEFAULT 1.0E-15
      EPS_PGF_ORB 1.0E-15
      METHOD GPW
    &END QS
    &SCF
      ADDED_MOS -1
      EPS_SCF 1.0E-5
      MAX_SCF 100
      SCF_GUESS ATOMIC
    &END SCF
    &XC
      &XC_FUNCTIONAL PBE
      &END XC_FUNCTIONAL
    &END XC
  &END DFT
  &PROPERTIES
    &BANDSTRUCTURE
      &DOS
        ENERGY_STEP 0.05
        ENERGY_WINDOW 0.5
        KPOINTS 1 1 2
        &LDOS
          BIN_MESH 4 4
          INTEGRATION Z
        &END LDOS
      &END DOS
      &GW
        EPS_FILTER 1.0E-6
        NUM_TIME_FREQ_POINTS 10
      &END GW
      &SOC
        ENERGY_WINDOW 3.0
      &END SOC
    &END BANDSTRUCTURE
  &END PROPERTIES
  &SUBSYS
    &CELL
      ABC [angstrom] 3.000 10.000 3.000
      MULTIPLE_UNIT_CELL 1 1 1
      PERIODIC YZ
    &END CELL
    &COORD
      I  0.5  0.0  1.0
      H  0.0  0.5 -1.0
    &END COORD
    &KIND H
      BASIS_SET ORB DZVP-GTH
      BASIS_SET RI_AUX RI-dummy-regtest
      POTENTIAL GTH-PBE-q1
    &END KIND
    &KIND I
      BASIS_SET ORB SZV-MOLOPT-SR-GTH
      BASIS_SET RI_AUX RI-dummy-regtest
      POTENTIAL GTH-PBE-q7
    &END KIND
    &TOPOLOGY
      MULTIPLE_UNIT_CELL 1 1 1
    &END TOPOLOGY
  &END SUBSYS
&END FORCE_EVAL
