&GLOBAL
  PRINT_LEVEL SILENT
  PROJECT IH
  RUN_TYPE ENERGY
  &TIMINGS
    THRESHOLD 0.01
  &END TIMINGS
&END GLOBAL

&FORCE_EVAL
  METHOD Quickstep
  &DFT
    BASIS_SET_FILE_NAME BASIS_MOLOPT
    BASIS_SET_FILE_NAME HFX_BASIS
    BASIS_SET_FILE_NAME ./REGTEST_BASIS
    POTENTIAL_FILE_NAME GTH_SOC_POTENTIALS
    SORT_BASIS EXP
    &KPOINTS
      PARALLEL_GROUP_SIZE -1
      SCHEME MONKHORST-PACK 4 4 1
    &END KPOINTS
    &MGRID
      CUTOFF 100
      REL_CUTOFF 20
    &END MGRID
    &QS
      EPS_DEFAULT 1.0E-15
      EPS_PGF_ORB 1.0E-15
      METHOD GPW
    &END QS
    &SCF
      ADDED_MOS -1
      EPS_SCF 1.0E-5
      MAX_SCF 100
      SCF_GUESS ATOMIC
    &END SCF
    &XC
      &XC_FUNCTIONAL PBE
      &END XC_FUNCTIONAL
    &END XC
  &END DFT
  &PROPERTIES
    &BANDSTRUCTURE
      &BANDSTRUCTURE_PATH
        NPOINTS 10
        SPECIAL_POINT Gamma 0.0 0.0 0.0
        SPECIAL_POINT X 0.5 0.0 0.0
        SPECIAL_POINT Y 0.0 0.5 0.0
        SPECIAL_POINT Gamma 0.0 0.0 0.0
      &END BANDSTRUCTURE_PATH
      &GW
        EPS_FILTER 1.0E-5
        HEDIN_SHIFT FALSE
        NUM_TIME_FREQ_POINTS 10
      &END GW
      &SOC
        ENERGY_WINDOW 4.0
      &END SOC
    &END BANDSTRUCTURE
  &END PROPERTIES
  &SUBSYS
    &CELL
      ABC [angstrom] 7.000 10.000 7.000
      PERIODIC XY
    &END CELL
    &COORD
      H  0.2 0.0 0.0
      I  1.2 0.0 0.0
    &END COORD
    &KIND H
      BASIS_SET ORB DZVP-GTH
      BASIS_SET RI_AUX RI-dummy-regtest
      POTENTIAL GTH-PBE-q1
    &END KIND
    &KIND I
      BASIS_SET ORB SZV-MOLOPT-SR-GTH
      BASIS_SET RI_AUX RI-dummy-regtest
      POTENTIAL GTH-PBE-q7
    &END KIND
  &END SUBSYS
&END FORCE_EVAL
