&GLOBAL
  PRINT_LEVEL Medium
  RUN_TYPE Energy_Force
&END GLOBAL

&FORCE_EVAL
  METHOD QS
  &DFT
    BASIS_SET_FILE_NAME BASIS_MOLOPT
    CHARGE 0
    MULTIPLICITY 0
    POTENTIAL_FILE_NAME POTENTIAL
    &MGRID
      CUTOFF 160
      REL_CUTOFF 20
    &END MGRID
    &POISSON
      PERIODIC XYZ
      POISSON_SOLVER Periodic
    &END POISSON
    &QS
      EPS_DEFAULT 1.0e-12
    &END QS
    &SCF
      EPS_SCF 1.0e-6
      MAX_SCF 100
      SCF_GUESS Restart
      &OT
        MINIMIZER DIIS
        PRECONDITIONER Full_All
      &END OT
      &OUTER_SCF
        EPS_SCF 1.0e-6
        MAX_SCF 100
      &END OUTER_SCF
    &END SCF
    &XC
      &XC_FUNCTIONAL BLYP
      &END XC_FUNCTIONAL
    &END XC
  &END DFT
  &SUBSYS
    &CELL
      ABC 10.0 10.0 10.0
      ALPHA_BETA_GAMMA 90.0 90.0 90.0
      PERIODIC XYZ
    &END CELL
    &COORD
      Unit Bohr
      C 10.61063379 8.01580946 9.28344333
      H 12.04610745 7.79825476 7.80170540
      H 11.65789915 8.41402953 11.03304613
      H 9.52040174 6.26896944 9.51997466
      X 8.89362498 10.22534512 8.71113603
    &END COORD
    &KIND C
      BASIS_SET DZVP-MOLOPT-GTH
      POTENTIAL GTH-BLYP-q4
    &END KIND
    &KIND H
      BASIS_SET DZVP-MOLOPT-GTH
      POTENTIAL GTH-BLYP-q1
    &END KIND
    &KIND X
      BASIS_SET DZVP-MOLOPT-GTH
      ELEMENT C
      MONOVALENT
      POTENTIAL GTH-BLYP-q4
    &END KIND
  &END SUBSYS
&END FORCE_EVAL
