&FORCE_EVAL
  METHOD Quickstep
  &PROPERTIES
    &TDDFPT
       KERNEL sTDA
       &sTDA
          FRACTION 0.50
       &END sTDA
       NSTATES      1
       MAX_ITER    50
       CONVERGENCE [eV] 1.0e-7
       RKS_TRIPLETS F
    &END TDDFPT
  &END PROPERTIES
  &DFT
    BASIS_SET_FILE_NAME BASIS_SET
    POTENTIAL_FILE_NAME POTENTIAL
    &PRINT
      &MOMENTS
         PERIODIC .FALSE.
         REFERENCE COM
      &END
    &END
    &MGRID
      CUTOFF 200
    &END MGRID
    &QS
      EPS_DEFAULT 1.0E-8
    &END QS
    &EXCITED_STATES T
       STATE 1
    &END EXCITED_STATES
    &SCF
      EPS_SCF 1.0E-4
      SCF_GUESS ATOMIC
    &END SCF
    &XC
      &XC_FUNCTIONAL Pade
      &END XC_FUNCTIONAL
    &END XC
  &END DFT
  &SUBSYS
    &CELL
      ABC 4.0 4.0 4.0
    &END CELL
    &COORD
    O   0.000000    0.000000   -0.065587
    H   0.000000   -0.757136    0.520545
    H   0.000000    0.757136    0.520545
    &END COORD
    &KIND H
      BASIS_SET DZVP-GTH-PADE
      POTENTIAL GTH-PADE-q1
    &END KIND
    &KIND O
      BASIS_SET DZVP-GTH-PADE
      POTENTIAL GTH-PADE-q6
    &END KIND
  &END SUBSYS
&END FORCE_EVAL
&GLOBAL
  PROJECT H2O-VIB
  RUN_TYPE NORMAL_MODES
  PRINT_LEVEL LOW
&END GLOBAL
&VIBRATIONAL_ANALYSIS
   NPROC_REP 4
   DX 0.001
   INTENSITIES
   &PRINT
     &PROGRAM_RUN_INFO ON
     &END
   &END
&END
