&GLOBAL
  PRINT_LEVEL LOW
  PROJECT H2O-VIB
  RUN_TYPE NORMAL_MODES
&END GLOBAL

&VIBRATIONAL_ANALYSIS
  DX 0.001
  INTENSITIES
  NPROC_REP 4
  &PRINT
    &PROGRAM_RUN_INFO ON
    &END PROGRAM_RUN_INFO
  &END PRINT
&END VIBRATIONAL_ANALYSIS

&FORCE_EVAL
  METHOD Quickstep
  &DFT
    BASIS_SET_FILE_NAME BASIS_SET
    POTENTIAL_FILE_NAME POTENTIAL
    &EXCITED_STATES T
      STATE 1
    &END EXCITED_STATES
    &MGRID
      CUTOFF 200
    &END MGRID
    &PRINT
      &MOMENTS
        PERIODIC .FALSE.
        REFERENCE COM
      &END MOMENTS
    &END PRINT
    &QS
      EPS_DEFAULT 1.0E-8
    &END QS
    &SCF
      EPS_SCF 1.0E-4
      SCF_GUESS ATOMIC
    &END SCF
    &XC
      &XC_FUNCTIONAL Pade
      &END XC_FUNCTIONAL
    &END XC
  &END DFT
  &PROPERTIES
    &TDDFPT
      CONVERGENCE [eV] 1.0e-7
      KERNEL sTDA
      MAX_ITER 50
      NSTATES 1
      RKS_TRIPLETS F
      &STDA
        FRACTION 0.50
      &END STDA
    &END TDDFPT
  &END PROPERTIES
  &SUBSYS
    &CELL
      ABC 4.0 4.0 4.0
    &END CELL
    &COORD
      O   0.000000    0.000000   -0.065587
      H   0.000000   -0.757136    0.520545
      H   0.000000    0.757136    0.520545
    &END COORD
    &KIND H
      BASIS_SET DZVP-GTH-PADE
      POTENTIAL GTH-PADE-q1
    &END KIND
    &KIND O
      BASIS_SET DZVP-GTH-PADE
      POTENTIAL GTH-PADE-q6
    &END KIND
  &END SUBSYS
&END FORCE_EVAL
