&FORCE_EVAL
    METHOD Quickstep
    &DFT
        BASIS_SET_FILE_NAME EMSL_BASIS_SETS
        POTENTIAL_FILE_NAME POTENTIAL
        AUTO_BASIS RI_HFX SMALL
        LSD
        &MGRID
            CUTOFF 300
            REL_CUTOFF 50
        &END MGRID
        &QS
            METHOD GAPW
        &END QS
        &SCF
            SCF_GUESS ATOMIC
            MAX_SCF 20
            EPS_SCF 1.0E-08
        &END SCF
        &XC
            &XC_FUNCTIONAL NONE
            &END XC_FUNCTIONAL
            &HF
                &RI
                    RI_FLAVOR RHO
                    EPS_FILTER 1.0E-12
                &END
            &END
        &END XC
    &END DFT
    &SUBSYS
        &CELL
            ABC 5.0 5.0 5.0
            PERIODIC NONE
        &END CELL
        &COORD
            C   0.000000    0.000000    0.2581                                                       
            H   0.000000    0.000000    -0.9487
        &END COORD
        &KIND C
            BASIS_SET 6-31Gx
            POTENTIAL ALL
        &END KIND
        &KIND H
            BASIS_SET 6-31Gx
            POTENTIAL ALL
        &END KIND
    &END SUBSYS
&END FORCE_EVAL
&GLOBAL
    PROJECT CH-hfx-ri-rho
    RUN_TYPE GEO_OPT
    PRINT_LEVEL MEDIUM
&END GLOBAL
&MOTION
  &GEO_OPT
    MAX_ITER  1
  &END
&END MOTION
