&GLOBAL
  PRINT_LEVEL MEDIUM
  PROJECT CH-hfx-ri-rho
  RUN_TYPE GEO_OPT
&END GLOBAL

&MOTION
  &GEO_OPT
    MAX_ITER 1
  &END GEO_OPT
&END MOTION

&FORCE_EVAL
  METHOD Quickstep
  &DFT
    AUTO_BASIS RI_HFX SMALL
    BASIS_SET_FILE_NAME EMSL_BASIS_SETS
    LSD
    POTENTIAL_FILE_NAME POTENTIAL
    &MGRID
      CUTOFF 300
      REL_CUTOFF 50
    &END MGRID
    &QS
      METHOD GAPW
    &END QS
    &SCF
      EPS_SCF 1.0E-08
      IGNORE_CONVERGENCE_FAILURE
      MAX_SCF 20
      SCF_GUESS ATOMIC
    &END SCF
    &XC
      &HF
        &RI
          EPS_FILTER 1.0E-12
          RI_FLAVOR RHO
        &END RI
      &END HF
      &XC_FUNCTIONAL NONE
      &END XC_FUNCTIONAL
    &END XC
  &END DFT
  &SUBSYS
    &CELL
      ABC 5.0 5.0 5.0
      PERIODIC NONE
    &END CELL
    &COORD
      C   0.000000    0.000000    0.2581
      H   0.000000    0.000000    -0.9487
    &END COORD
    &KIND C
      BASIS_SET 6-31Gx
      POTENTIAL ALL
    &END KIND
    &KIND H
      BASIS_SET 6-31Gx
      POTENTIAL ALL
    &END KIND
  &END SUBSYS
&END FORCE_EVAL
