&GLOBAL
  PRINT_LEVEL MEDIUM
  PROJECT H2O-hfx-stress-identity
  RUN_TYPE ENERGY_FORCE
&END GLOBAL

&FORCE_EVAL
  METHOD Quickstep
  STRESS_TENSOR ANALYTICAL
  &DFT
    AUTO_BASIS RI_HFX SMALL
    BASIS_SET_FILE_NAME EMSL_BASIS_SETS
    POTENTIAL_FILE_NAME POTENTIAL
    &MGRID
      CUTOFF 300
      REL_CUTOFF 50
    &END MGRID
    &QS
      METHOD GAPW
    &END QS
    &SCF
      EPS_SCF 1.0E-07
      MAX_SCF 20
      SCF_GUESS ATOMIC
    &END SCF
    &XC
      &HF
        &INTERACTION_POTENTIAL
          POTENTIAL_TYPE IDENTITY
        &END INTERACTION_POTENTIAL
        &RI
          EPS_FILTER 1.0E-12
          RI_FLAVOR RHO
        &END RI
        &SCREENING
          EPS_SCHWARZ_FORCES 1.0E-6
        &END SCREENING
      &END HF
      &XC_FUNCTIONAL NONE
      &END XC_FUNCTIONAL
    &END XC
  &END DFT
  &PRINT
    &STRESS_TENSOR
    &END STRESS_TENSOR
  &END PRINT
  &SUBSYS
    &CELL
      ABC 6.0 6.0 6.0
    &END CELL
    &COORD
      O   0.000000    0.000000   -0.065587
      H   0.000000   -0.757136    0.520545
      H   0.000000    0.757136    0.520545
    &END COORD
    &KIND O
      BASIS_SET Ahlrichs-def2-SVP
      POTENTIAL ALL
    &END KIND
    &KIND H
      BASIS_SET Ahlrichs-def2-SVP
      POTENTIAL ALL
    &END KIND
  &END SUBSYS
&END FORCE_EVAL
