&FORCE_EVAL
    METHOD Quickstep
    STRESS_TENSOR ANALYTICAL
    &PRINT
      &STRESS_TENSOR
      &END
    &END
    &DFT
        BASIS_SET_FILE_NAME BASIS_MOLOPT
        POTENTIAL_FILE_NAME POTENTIAL_UZH
        AUTO_BASIS RI_HFX SMALL
        &MGRID
            CUTOFF 300
            REL_CUTOFF 30
        &END MGRID
        &QS
            METHOD GPW
        &END QS
        &SCF
            SCF_GUESS ATOMIC
            MAX_SCF 20
            EPS_SCF 1.0E-07
        &END SCF
        &XC
            &XC_FUNCTIONAL PBE
               &PBE
                  SCALE_C 1.0
                  SCALE_X 0.75
               &END
            &END XC_FUNCTIONAL
            &HF
                FRACTION 0.25
                &RI
                   EPS_FILTER 1.0E-12
                &END
                &INTERACTION_POTENTIAL
                   POTENTIAL_TYPE TRUNCATED
                   CUTOFF_RADIUS 2.5
                &END
            &END
        &END XC
    &END DFT
    &SUBSYS
        &CELL
            ABC 6.0 6.0 6.0
        &END CELL
        &COORD
            O   0.000000    0.000000   -0.065587                                                     
            H   0.000000   -0.757136    0.520545                                                     
            H   0.000000    0.757136    0.520545
        &END COORD
        &KIND O
            BASIS_SET SZV-MOLOPT-GTH
            POTENTIAL GTH-PBE0-q6
        &END KIND
        &KIND H
            BASIS_SET SZV-MOLOPT-GTH
            POTENTIAL GTH-PBE0-q1
        &END KIND
    &END SUBSYS
&END FORCE_EVAL
&GLOBAL
    PROJECT H2O-pbe0-stress-truncated
    RUN_TYPE ENERGY_FORCE
    PRINT_LEVEL MEDIUM
&END GLOBAL
