&FORCE_EVAL
    METHOD Quickstep
    STRESS_TENSOR ANALYTICAL
    &PRINT
      &STRESS_TENSOR
      &END
    &END
    &DFT
        BASIS_SET_FILE_NAME EMSL_BASIS_SETS
        POTENTIAL_FILE_NAME POTENTIAL
        AUTO_BASIS RI_HFX SMALL
        &MGRID
            CUTOFF 300
            REL_CUTOFF 50
        &END MGRID
        &QS
            METHOD GAPW
        &END QS
        &SCF
            SCF_GUESS ATOMIC
            MAX_SCF 20
            EPS_SCF 1.0E-07
        &END SCF
        &XC
            &XC_FUNCTIONAL NONE
            &END XC_FUNCTIONAL
            &HF
                &RI
                   EPS_FILTER 1.0E-12
                &END
                &INTERACTION_POTENTIAL
                   POTENTIAL_TYPE IDENTITY
                &END
            &END
        &END XC
    &END DFT
    &SUBSYS
        &CELL
            ABC 6.0 6.0 6.0
        &END CELL
        &COORD
            O   0.000000    0.000000   -0.065587                                                     
            H   0.000000   -0.757136    0.520545                                                     
            H   0.000000    0.757136    0.520545
        &END COORD
        &KIND O
            BASIS_SET Ahlrichs-def2-SVP
            POTENTIAL ALL
        &END KIND
        &KIND H
            BASIS_SET Ahlrichs-def2-SVP
            POTENTIAL ALL
        &END KIND
    &END SUBSYS
&END FORCE_EVAL
&GLOBAL
    PROJECT H2O-hfx-stress-identity
    RUN_TYPE ENERGY_FORCE
    PRINT_LEVEL MEDIUM
&END GLOBAL
