&FORCE_EVAL
    METHOD Quickstep
    &DFT
        BASIS_SET_FILE_NAME EMSL_BASIS_SETS
        POTENTIAL_FILE_NAME POTENTIAL
        AUTO_BASIS RI_HFX SMALL
        SORT_BASIS EXP
        &MGRID
            CUTOFF 300
            REL_CUTOFF 50
        &END MGRID
        &QS
            METHOD GAPW
        &END QS
        &SCF
            EPS_SCF 1.0E-7
            SCF_GUESS ATOMIC
            MAX_SCF 5
            &OT ON
                PRECONDITIONER FULL_ALL
            &END
        &END SCF
        &XC
            &XC_FUNCTIONAL NONE
            &END XC_FUNCTIONAL
            &HF
                &RI
                   RI_FLAVOR MO
                   RI_METRIC IDENTITY
                &END
                &INTERACTION_POTENTIAL
                    POTENTIAL_TYPE SHORTRANGE
                    OMEGA 0.11
                &END
            &END
        &END XC
    &END DFT
    &SUBSYS
        &CELL
            ABC 5.0 5.0 10.0
        &END CELL
        &COORD
            Ne   0.000000    0.000000    0.000000
            Ne   0.000000    0.000000    2.800000
            Ne   0.000000    0.000000    4.000000
            Ne   0.000000    0.000000    6.100000
            Ne   0.000000    0.000000    8.900000
        &END COORD
        &KIND Ne
            BASIS_SET 3-21Gx
            POTENTIAL ALL
        &END KIND
    &END SUBSYS
&END FORCE_EVAL
&GLOBAL
    PROJECT Ne-hfx-pbc-metric-mo
    PRINT_LEVEL MEDIUM
    RUN_TYPE MD
&END GLOBAL
&MOTION
    &MD
      MAX_STEPS 1
    &END
&END MOTION
