&GLOBAL
  PRINT_LEVEL MEDIUM
  PROJECT extrap-7
  RUN_TYPE MD
&END GLOBAL

&MOTION
  &MD
    ENSEMBLE NVE
    STEPS 2
    TEMPERATURE 300.0
    TIMESTEP 1.0
  &END MD
&END MOTION

&FORCE_EVAL
  METHOD QS
  &DFT
    BASIS_SET_FILE_NAME GTH_BASIS_SETS
    POTENTIAL_FILE_NAME POTENTIAL
    &MGRID
      CUTOFF 120
    &END MGRID
    &QS
      EPS_DEFAULT 1.0E-5
      EPS_FILTER_MATRIX 0.0e0
      EXTRAPOLATION USE_PREV_RHO_R
    &END QS
    &SCF
      MAX_SCF 25
      SCF_GUESS ATOMIC
      &MIXING
        ALPHA 0.2
      &END MIXING
    &END SCF
    &XC
      &XC_FUNCTIONAL Pade
      &END XC_FUNCTIONAL
    &END XC
  &END DFT
  &SUBSYS
    &CELL
      ABC 15 4 4
    &END CELL
    &COORD
      O   0.000000    0.000000   -0.065587
      H   0.000000   -0.757136    0.520545
      H   0.000000    0.757136    0.520545
      O   1.000000    0.000000   -0.065587
      H   1.000000   -0.757136    0.520545
      H   1.000000    0.757136    0.520545
    &END COORD
    &KIND H
      BASIS_SET DZVP-GTH
      POTENTIAL GTH-PADE-q1
    &END KIND
    &KIND O
      BASIS_SET DZVP-GTH
      POTENTIAL GTH-PADE-q6
    &END KIND
    &VELOCITY
      0.0 0.0 0.0
      0.0 0.0 0.0
      0.0 0.0 0.0
      0.2 0.0 0.0
      0.2 0.0 0.0
      0.2 0.0 0.0
    &END VELOCITY
  &END SUBSYS
&END FORCE_EVAL
