&GLOBAL
  PROJECT ar3_angvel_zero_000
  RUN_TYPE md
&END GLOBAL

&MOTION
  &MD
    ANGVEL_ZERO T
    ENSEMBLE NVE
    STEPS 20
    TEMPERATURE 300
    TIMESTEP 0.5
  &END MD
&END MOTION

&FORCE_EVAL
  METHOD FIST
  &MM
    &FORCEFIELD
      # PARAMETERS BELOW ARE CRAP! THIS IS ONLY USEFUL FOR A QUICK TEST!
      &CHARGE
        ATOM Ar
        CHARGE 0.0
      &END CHARGE
      &NONBONDED
        &LENNARD-JONES
          ATOMS Ar Ar
          EPSILON 119.8
          RCUT 8.4
          SIGMA 3.405
        &END LENNARD-JONES
      &END NONBONDED
    &END FORCEFIELD
    &POISSON
      &EWALD
        EWALD_TYPE none
      &END EWALD
    &END POISSON
  &END MM
  &SUBSYS
    &CELL
      ABC 10.0 10.0 10.0
      PERIODIC NONE
    &END CELL
    &COORD
      Ar      6.771300     4.342850     5.545924
      Ar      4.592584     7.352355     9.318515
      Ar      9.206346     8.241361     2.955620
    &END COORD
  &END SUBSYS
&END FORCE_EVAL
