
&FORCE_EVAL
  METHOD FIST
  &MM
    &FORCEFIELD
      parm_file_name ../sample_pot/water.pot
      parmtype CHM
      &CHARGE
        ATOM OT
        CHARGE -0.8476
      &END CHARGE
      &CHARGE
        ATOM HT
        CHARGE 0.4238
      &END CHARGE
    &END FORCEFIELD
    &POISSON
      &EWALD
        EWALD_TYPE NONE
      &END EWALD
    &END POISSON
  &END MM
  &SUBSYS
    &CELL
      ABC 24.955 24.955 24.955
      PERIODIC NONE
    &END CELL
    &TOPOLOGY
      COORD_FILE_NAME ../sample_pdb/water_2.pdb
      COORDINATE pdb
    &END TOPOLOGY
  &END SUBSYS
&END FORCE_EVAL
&GLOBAL
  PROJECT water_2_angvel_zero_000
  RUN_TYPE md
  PRINT_LEVEL MEDIUM
&END GLOBAL
&MOTION
  &MD
    ENSEMBLE NVE
    STEPS 20
    TIMESTEP 2.5
    TEMPERATURE 298
    ANGVEL_ZERO T
  &END MD
&END MOTION
