&GLOBAL
  PRINT_LEVEL MEDIUM
  PROJECT_NAME cp2k
  RUN_TYPE energy
&END GLOBAL
&FORCE_EVAL
  METHOD FIST
  &MM
   &FORCEFIELD
     &SPLINE
       EMAX_SPLINE 1.0
       RCUT_NB 80.00
     &END SPLINE
     &NONBONDED
       &LENNARD-JONES
         ATOMS      H H
         EPSILON    0.0
         SIGMA      1.0
       &END LENNARD-JONES
       &LENNARD-JONES
         ATOMS      H C
         EPSILON    0.0
         SIGMA      1.0
       &END LENNARD-JONES
       &LENNARD-JONES
         ATOMS      H N
         EPSILON    0.0
         SIGMA      1.0
       &END LENNARD-JONES
       &LENNARD-JONES
         ATOMS      H O
         EPSILON    0.0
         SIGMA      1.0
       &END LENNARD-JONES
       &LENNARD-JONES
         ATOMS      C C
         EPSILON    0.0
         SIGMA      1.0
       &END LENNARD-JONES
       &LENNARD-JONES
         ATOMS      C N
         EPSILON    0.0
         SIGMA      1.0
       &END LENNARD-JONES
       &LENNARD-JONES
         ATOMS      C O
         EPSILON    0.0
         SIGMA      1.0
       &END LENNARD-JONES
       &LENNARD-JONES
         ATOMS      N N
         EPSILON    0.0
         SIGMA      1.0
       &END LENNARD-JONES
       &LENNARD-JONES
         ATOMS      N O
         EPSILON    0.0
         SIGMA      1.0
       &END LENNARD-JONES
       &LENNARD-JONES
         ATOMS      O O
         EPSILON    0.0
         SIGMA      1.0
       &END LENNARD-JONES
     &END NONBONDED
     # parameters are complete rubbish, this is just a test
     &CHARGE
       ATOM H
       CHARGE 0.15
     &END CHARGE
     &CHARGE
       ATOM C
       CHARGE 0.0 #0.00757575757575757575
     &END CHARGE
     &CHARGE
       ATOM N
       CHARGE -0.3
     &END CHARGE
     &CHARGE
       ATOM O
       CHARGE -0.5
     &END CHARGE
     &DIPOLE
       ATOM H
       ALPHA 0.26
     &END DIPOLE
     &DIPOLE
       ATOM C
       ALPHA 0.26
     &END DIPOLE
     &DIPOLE
       ATOM N
       ALPHA 0.10
     &END DIPOLE
     &DIPOLE
       ATOM O
       ALPHA 0.22
     &END DIPOLE
   &END FORCEFIELD
   &POISSON
     PERIODIC NONE
     POISSON_SOLVER ANALYTIC
     &EWALD
       EWALD_TYPE EWALD
       ALPHA 0.3
       GMAX 25
       O_SPLINE 6
       &MULTIPOLES T
         MAX_MULTIPOLE_EXPANSION DIPOLE
         POL_SCF CONJUGATE_GRADIENT
         EPS_POL 1.0e-6
         MAX_IPOL_ITER 100
       &END MULTIPOLES
     &END EWALD
    &END POISSON
  &END MM
   &SUBSYS
     &CELL
       ABC 40.0 40.0 40.0
       PERIODIC NONE
     &END CELL
     &COORD
         C     9.422666     2.198486    -0.592201
         H    10.330690     1.769910    -0.158030
         H     9.145649     3.099781    -0.039752
         H     9.636680     2.500734    -1.623536
         C     8.248139     1.241717    -0.599455
         O     7.093811     1.616293    -0.805189
         N     8.530433    -0.077713    -0.354858
         H     9.501973    -0.361429    -0.335352
         C     7.537265    -1.118399    -0.633218
         H     7.173119    -1.008513    -1.660871
         C     8.159162    -2.508314    -0.455297
         H     8.991421    -2.652029    -1.153196
         H     8.526845    -2.651792     0.566799
         H     7.407422    -3.274040    -0.662121
         C     6.277666    -0.984263     0.235440
         O     5.195446    -1.405504    -0.181728
         N     6.423594    -0.424388     1.457671
         H     7.334153    -0.069855     1.719582
         C     5.284807    -0.224777     2.349511
         H     4.818536    -1.194833     2.545784
         C     5.747206     0.397877     3.670510
         H     6.463801    -0.256724     4.178173
         H     6.214119     1.375842     3.505437
         H     4.885421     0.538038     4.327588
         C     4.164919     0.625362     1.716195
         O     3.000328     0.437881     2.074372
         N     4.522280     1.581764     0.826609
         H     5.474591     1.625014     0.470970
         C     3.500291     2.404354     0.180193
         H     2.832205     2.786165     0.955987
         C     4.146596     3.573995    -0.569955
         H     4.680080     4.226508     0.128957
         H     4.856061     3.220207    -1.324836
         H     3.369540     4.161488    -1.066484
         C     2.585126     1.588777    -0.756654
         O     1.397881     1.892272    -0.876667
         N     3.169774     0.583889    -1.457546
         H     4.104532     0.285092    -1.204381
         C     2.377190    -0.300935    -2.308184
         H     1.733898     0.320762    -2.935000
         C     3.294087    -1.157482    -3.187894
         H     3.886907    -0.519727    -3.852268
         H     3.976293    -1.759852    -2.578454
         H     2.690626    -1.830345    -3.803875
         C     1.400340    -1.172646    -1.492598
         O     0.257734    -1.377337    -1.900520
         N     1.873738    -1.692833    -0.331737
         H     2.829992    -1.510067    -0.049347
         C     1.000081    -2.452037     0.559726
         H     0.541659    -3.269593    -0.003867
         C     1.802567    -3.011641     1.738178
         H     2.598359    -3.675115     1.381332
         H     2.250540    -2.201829     2.324476
         H     1.142223    -3.587804     2.392592
         C    -0.193941    -1.604631     1.052225
         O    -1.324711    -2.085613     1.101343
         N     0.081916    -0.330128     1.430306
         H     1.039624     0.007421     1.444532
         C    -0.987074     0.553225     1.883881
         H    -1.543670     0.062821     2.688262
         C    -0.402970     1.880536     2.380093
         H     0.291758     1.706875     3.208710
         H     0.132760     2.395064     1.575206
         H    -1.209817     2.529685     2.732382
         C    -2.039873     0.795994     0.783401
         O    -3.240961     0.798521     1.068997
         N    -1.575988     1.025609    -0.465078
         H    -0.574467     1.062356    -0.632830
         C    -2.483552     1.278757    -1.581246
         H    -3.173704     2.081736    -1.303657
         C    -1.683230     1.679219    -2.825583
         H    -1.088800     2.577807    -2.630680
         H    -1.008449     0.869019    -3.122113
         H    -2.371771     1.882474    -3.650240
         C    -3.396572     0.077804    -1.905225
         O    -4.516642     0.267824    -2.382992
         N    -2.892877    -1.155893    -1.673628
         H    -1.936038    -1.258046    -1.352096
         C    -3.684036    -2.354440    -1.927997
         H    -4.158345    -2.257672    -2.909086
         C    -2.783914    -3.594505    -1.898832
         H    -2.007058    -3.524699    -2.667758
         H    -2.299159    -3.693222    -0.921278
         H    -3.391625    -4.484060    -2.083894
         C    -4.864771    -2.539039    -0.947254
         O    -5.813731    -3.243761    -1.273094
         N    -4.742764    -1.930456     0.264110
         H    -3.885395    -1.433915     0.476369
         C    -5.769244    -2.030610     1.289123
         H    -6.412029    -2.867118     1.007285
         C    -5.138845    -2.291378     2.665667
         H    -4.574560    -3.229335     2.654086
         H    -4.452398    -1.479962     2.936467
         H    -5.922917    -2.352288     3.425801
         C    -6.715228    -0.812742     1.388245
         O    -7.831656    -0.957590     1.877446
         C    -7.017915     2.576594     0.004862
         O    -7.482596     3.709438     0.137089
         N    -6.560870     2.100100    -1.176987
         H    -6.180940     1.164035    -1.245283
         C    -6.608530     2.899661    -2.385893
         H    -6.373039     3.940424    -2.146648
         H    -5.876202     2.497876    -3.088887
         H    -7.603474     2.878942    -2.850766
         N    -6.224543     0.388253     0.959431
         H    -5.228210     0.463473     0.773592
         C    -6.948380     1.628277     1.217780
         H    -7.978744     1.325616     1.429870
         C    -6.390690     2.372408     2.440601
         H    -6.521157     1.762080     3.340006
         H    -5.321137     2.576675     2.312687
         H    -6.916509     3.321924     2.564284
     &END COORD
   &END SUBSYS
 &END FORCE_EVAL
