&GLOBAL
  PREFERRED_FFT_LIBRARY FFTW
  PRINT_LEVEL LOW
  PROGRAM_NAME CP2K
  PROJECT fli_small3
  RUN_TYPE ENERGY
&END GLOBAL

&FORCE_EVAL
  METHOD FIST
  &MM
    &FORCEFIELD
      &CHARGE
        ATOM F
        CHARGE -1.0000
      &END CHARGE
      &CHARGE
        ATOM Li
        CHARGE 1.000
      &END CHARGE
      &DIPOLE
        APOL 1.05043
        ATOM F
        &DAMPING
          ATOM Li
          BIJ 3.412667396
          CIJ 1.397150266
          ORDER 4
          TYPE Tang-Toennies
        &END DAMPING
      &END DIPOLE
      &NONBONDED
        &BMHFTD
          A 181.8373
          ATOMS F F
          B 4.2833
          BD 3.59048
          C 0.329381
          D 0.922357
          RCUT 9.36643
        &END BMHFTD
        &BMHFTD
          A 20.4158478
          ATOMS Li F
          B 3.87854
          BD 0.0
          C 0.0
          D 0.0
          RCUT 9.36643
        &END BMHFTD
        &BMHFTD
          A 195.910854
          ATOMS Li Li
          B 8.03542
          BD 0.0
          C 0.0
          D 0.0
          RCUT 9.36643
        &END BMHFTD
      &END NONBONDED
      &SPLINE
        EMAX_SPLINE 20.0
        R0_NB 0.1
      &END SPLINE
    &END FORCEFIELD
    &POISSON
      &EWALD
        GMAX 7
        &MULTIPOLES T
          EPS_POL 1.0e-6
          MAX_IPOL_ITER 100
          MAX_MULTIPOLE_EXPANSION DIPOLE
          POL_SCF CONJUGATE_GRADIENT
        &END MULTIPOLES
      &END EWALD
    &END POISSON
    &PRINT
      &ITER_INFO LOW
      &END ITER_INFO
    &END PRINT
  &END MM
  &SUBSYS
    &CELL
      ABC 6.0 6.0 6.0
      PERIODIC NONE
    &END CELL
    &COORD
      F     0.0 0.0 0.0
      Li    0.0 0.0 4.0
    &END COORD
    &KIND F
      ELEMENT F
      MASS 18.99840
    &END KIND
    &KIND Li
      ELEMENT Li
      MASS 6.941
    &END KIND
  &END SUBSYS
&END FORCE_EVAL
