&GLOBAL
  PRINT_LEVEL MEDIUM
  PROJECT_NAME cp2k
  RUN_TYPE energy
&END GLOBAL
&FORCE_EVAL
  METHOD FIST
  &MM
   &FORCEFIELD
     &SPLINE
       EMAX_SPLINE 1.0
       RCUT_NB 12.00
     &END SPLINE
     &NONBONDED
       &LENNARD-JONES
         ATOMS      Na Na
         EPSILON    0.0
         SIGMA      1.0
       &END LENNARD-JONES
       &LENNARD-JONES
         ATOMS      Na Cl
         EPSILON    0.0
         SIGMA      1.0
       &END LENNARD-JONES
       &LENNARD-JONES
         ATOMS      Cl Cl
         EPSILON    0.0
         SIGMA      1.0
       &END LENNARD-JONES
     &END NONBONDED
     &CHARGE
       ATOM Na
       CHARGE 1.0
     &END CHARGE
     &CHARGE
       ATOM Cl
       CHARGE -1.0
     &END CHARGE
     &DIPOLE
       ATOM Na
       ALPHA 0.0
     &END DIPOLE
     &DIPOLE
       ATOM Cl
       ALPHA 2.368
     &END DIPOLE
   &END FORCEFIELD
   &POISSON
     PERIODIC NONE
     POISSON_SOLVER ANALYTIC
     &EWALD
       EWALD_TYPE EWALD
       ALPHA 0.3
       GMAX 25
       O_SPLINE 6
       &MULTIPOLES T
         MAX_MULTIPOLE_EXPANSION DIPOLE
         POL_SCF CONJUGATE_GRADIENT
         EPS_POL 1.0e-6
         MAX_IPOL_ITER 100
       &END MULTIPOLES
     &END EWALD
    &END POISSON
  &END MM
   &SUBSYS
     &CELL
       ABC 40.0 40.0 40.0
       PERIODIC NONE
     &END CELL
     &COORD
        Na  0.000000000  0.000000000  0.000000000
        Na  0.000000000  2.819447275  2.819447275
        Na  2.819447275  0.000000000  2.819447275
        Na  2.819447275  2.819447275  0.000000000
        Cl  2.819447275  2.819447275  2.819447275
        Cl  2.819447275  0.000000000  0.000000000
        Cl  0.000000000  2.819447275  0.000000000
        Cl  0.000000000  0.000000000  2.819447275
        Na  0.000000000  0.000000000  5.638894550
        Na  0.000000000  2.819447275  8.458341824
        Na  2.819447275  0.000000000  8.458341824
        Na  2.819447275  2.819447275  5.638894550
        Cl  2.819447275  2.819447275  8.458341824
        Cl  2.819447275  0.000000000  5.638894550
        Cl  0.000000000  2.819447275  5.638894550
        Cl  0.000000000  0.000000000  8.458341824
        Na  0.000000000  0.000000000  11.277789099
        Na  0.000000000  2.819447275  14.097236374
        Na  2.819447275  0.000000000  14.097236374
        Na  2.819447275  2.819447275  11.277789099
        Cl  2.819447275  2.819447275  14.097236374
        Cl  2.819447275  0.000000000  11.277789099
        Cl  0.000000000  2.819447275  11.277789099
        Cl  0.000000000  0.000000000  14.097236374
        Na  0.000000000  0.000000000  16.916683649
        Na  0.000000000  2.819447275  19.736130924
        Na  2.819447275  0.000000000  19.736130924
        Na  2.819447275  2.819447275  16.916683649
        Cl  2.819447275  2.819447275  19.736130924
        Cl  2.819447275  0.000000000  16.916683649
        Cl  0.000000000  2.819447275  16.916683649
        Cl  0.000000000  0.000000000  19.736130924
        Na  0.000000000  0.000000000  22.555578199
        Na  0.000000000  2.819447275  25.375025473
        Na  2.819447275  0.000000000  25.375025473
        Na  2.819447275  2.819447275  22.555578199
        Cl  2.819447275  2.819447275  25.375025473
        Cl  2.819447275  0.000000000  22.555578199
        Cl  0.000000000  2.819447275  22.555578199
        Cl  0.000000000  0.000000000  25.375025473
        Na  0.000000000  5.638894550  0.000000000
        Na  0.000000000  8.458341824  2.819447275
        Na  2.819447275  5.638894550  2.819447275
        Na  2.819447275  8.458341824  0.000000000
        Cl  2.819447275  8.458341824  2.819447275
        Cl  2.819447275  5.638894550  0.000000000
        Cl  0.000000000  8.458341824  0.000000000
        Cl  0.000000000  5.638894550  2.819447275
        Na  0.000000000  5.638894550  5.638894550
        Na  0.000000000  8.458341824  8.458341824
        Na  2.819447275  5.638894550  8.458341824
        Na  2.819447275  8.458341824  5.638894550
        Cl  2.819447275  8.458341824  8.458341824
        Cl  2.819447275  5.638894550  5.638894550
        Cl  0.000000000  8.458341824  5.638894550
        Cl  0.000000000  5.638894550  8.458341824
        Na  0.000000000  5.638894550  11.277789099
        Na  0.000000000  8.458341824  14.097236374
        Na  2.819447275  5.638894550  14.097236374
        Na  2.819447275  8.458341824  11.277789099
        Cl  2.819447275  8.458341824  14.097236374
        Cl  2.819447275  5.638894550  11.277789099
        Cl  0.000000000  8.458341824  11.277789099
        Cl  0.000000000  5.638894550  14.097236374
        Na  0.000000000  5.638894550  16.916683649
        Na  0.000000000  8.458341824  19.736130924
        Na  2.819447275  5.638894550  19.736130924
        Na  2.819447275  8.458341824  16.916683649
        Cl  2.819447275  8.458341824  19.736130924
        Cl  2.819447275  5.638894550  16.916683649
        Cl  0.000000000  8.458341824  16.916683649
        Cl  0.000000000  5.638894550  19.736130924
        Na  0.000000000  5.638894550  22.555578199
        Na  0.000000000  8.458341824  25.375025473
        Na  2.819447275  5.638894550  25.375025473
        Na  2.819447275  8.458341824  22.555578199
        Cl  2.819447275  8.458341824  25.375025473
        Cl  2.819447275  5.638894550  22.555578199
        Cl  0.000000000  8.458341824  22.555578199
        Cl  0.000000000  5.638894550  25.375025473
        Na  0.000000000  11.277789099  0.000000000
        Na  0.000000000  14.097236374  2.819447275
        Na  2.819447275  11.277789099  2.819447275
        Na  2.819447275  14.097236374  0.000000000
        Cl  2.819447275  14.097236374  2.819447275
        Cl  2.819447275  11.277789099  0.000000000
        Cl  0.000000000  14.097236374  0.000000000
        Cl  0.000000000  11.277789099  2.819447275
        Na  0.000000000  11.277789099  5.638894550
        Na  0.000000000  14.097236374  8.458341824
        Na  2.819447275  11.277789099  8.458341824
        Na  2.819447275  14.097236374  5.638894550
        Cl  2.819447275  14.097236374  8.458341824
        Cl  2.819447275  11.277789099  5.638894550
        Cl  0.000000000  14.097236374  5.638894550
        Cl  0.000000000  11.277789099  8.458341824
        Na  0.000000000  11.277789099  11.277789099
        Na  0.000000000  14.097236374  14.097236374
        Na  2.819447275  11.277789099  14.097236374
        Na  2.819447275  14.097236374  11.277789099
        Cl  2.819447275  14.097236374  14.097236374
        Cl  2.819447275  11.277789099  11.277789099
        Cl  0.000000000  14.097236374  11.277789099
        Cl  0.000000000  11.277789099  14.097236374
        Na  0.000000000  11.277789099  16.916683649
        Na  0.000000000  14.097236374  19.736130924
        Na  2.819447275  11.277789099  19.736130924
        Na  2.819447275  14.097236374  16.916683649
        Cl  2.819447275  14.097236374  19.736130924
        Cl  2.819447275  11.277789099  16.916683649
        Cl  0.000000000  14.097236374  16.916683649
        Cl  0.000000000  11.277789099  19.736130924
        Na  0.000000000  11.277789099  22.555578199
        Na  0.000000000  14.097236374  25.375025473
        Na  2.819447275  11.277789099  25.375025473
        Na  2.819447275  14.097236374  22.555578199
        Cl  2.819447275  14.097236374  25.375025473
        Cl  2.819447275  11.277789099  22.555578199
        Cl  0.000000000  14.097236374  22.555578199
        Cl  0.000000000  11.277789099  25.375025473
        Na  0.000000000  16.916683649  0.000000000
        Na  0.000000000  19.736130924  2.819447275
        Na  2.819447275  16.916683649  2.819447275
        Na  2.819447275  19.736130924  0.000000000
        Cl  2.819447275  19.736130924  2.819447275
        Cl  2.819447275  16.916683649  0.000000000
        Cl  0.000000000  19.736130924  0.000000000
        Cl  0.000000000  16.916683649  2.819447275
        Na  0.000000000  16.916683649  5.638894550
        Na  0.000000000  19.736130924  8.458341824
        Na  2.819447275  16.916683649  8.458341824
        Na  2.819447275  19.736130924  5.638894550
        Cl  2.819447275  19.736130924  8.458341824
        Cl  2.819447275  16.916683649  5.638894550
        Cl  0.000000000  19.736130924  5.638894550
        Cl  0.000000000  16.916683649  8.458341824
        Na  0.000000000  16.916683649  11.277789099
        Na  0.000000000  19.736130924  14.097236374
        Na  2.819447275  16.916683649  14.097236374
        Na  2.819447275  19.736130924  11.277789099
        Cl  2.819447275  19.736130924  14.097236374
        Cl  2.819447275  16.916683649  11.277789099
        Cl  0.000000000  19.736130924  11.277789099
        Cl  0.000000000  16.916683649  14.097236374
        Na  0.000000000  16.916683649  16.916683649
        Na  0.000000000  19.736130924  19.736130924
        Na  2.819447275  16.916683649  19.736130924
        Na  2.819447275  19.736130924  16.916683649
        Cl  2.819447275  19.736130924  19.736130924
        Cl  2.819447275  16.916683649  16.916683649
        Cl  0.000000000  19.736130924  16.916683649
        Cl  0.000000000  16.916683649  19.736130924
        Na  0.000000000  16.916683649  22.555578199
        Na  0.000000000  19.736130924  25.375025473
        Na  2.819447275  16.916683649  25.375025473
        Na  2.819447275  19.736130924  22.555578199
        Cl  2.819447275  19.736130924  25.375025473
        Cl  2.819447275  16.916683649  22.555578199
        Cl  0.000000000  19.736130924  22.555578199
        Cl  0.000000000  16.916683649  25.375025473
        Na  0.000000000  22.555578199  0.000000000
        Na  0.000000000  25.375025473  2.819447275
        Na  2.819447275  22.555578199  2.819447275
        Na  2.819447275  25.375025473  0.000000000
        Cl  2.819447275  25.375025473  2.819447275
        Cl  2.819447275  22.555578199  0.000000000
        Cl  0.000000000  25.375025473  0.000000000
        Cl  0.000000000  22.555578199  2.819447275
        Na  0.000000000  22.555578199  5.638894550
        Na  0.000000000  25.375025473  8.458341824
        Na  2.819447275  22.555578199  8.458341824
        Na  2.819447275  25.375025473  5.638894550
        Cl  2.819447275  25.375025473  8.458341824
        Cl  2.819447275  22.555578199  5.638894550
        Cl  0.000000000  25.375025473  5.638894550
        Cl  0.000000000  22.555578199  8.458341824
        Na  0.000000000  22.555578199  11.277789099
        Na  0.000000000  25.375025473  14.097236374
        Na  2.819447275  22.555578199  14.097236374
        Na  2.819447275  25.375025473  11.277789099
        Cl  2.819447275  25.375025473  14.097236374
        Cl  2.819447275  22.555578199  11.277789099
        Cl  0.000000000  25.375025473  11.277789099
        Cl  0.000000000  22.555578199  14.097236374
        Na  0.000000000  22.555578199  16.916683649
        Na  0.000000000  25.375025473  19.736130924
        Na  2.819447275  22.555578199  19.736130924
        Na  2.819447275  25.375025473  16.916683649
        Cl  2.819447275  25.375025473  19.736130924
        Cl  2.819447275  22.555578199  16.916683649
        Cl  0.000000000  25.375025473  16.916683649
        Cl  0.000000000  22.555578199  19.736130924
        Na  0.000000000  22.555578199  22.555578199
        Na  0.000000000  25.375025473  25.375025473
        Na  2.819447275  22.555578199  25.375025473
        Na  2.819447275  25.375025473  22.555578199
        Cl  2.819447275  25.375025473  25.375025473
        Cl  2.819447275  22.555578199  22.555578199
        Cl  0.000000000  25.375025473  22.555578199
        Cl  0.000000000  22.555578199  25.375025473
        Na  5.638894550  0.000000000  0.000000000
        Na  5.638894550  2.819447275  2.819447275
        Na  8.458341824  0.000000000  2.819447275
        Na  8.458341824  2.819447275  0.000000000
        Cl  8.458341824  2.819447275  2.819447275
        Cl  8.458341824  0.000000000  0.000000000
        Cl  5.638894550  2.819447275  0.000000000
        Cl  5.638894550  0.000000000  2.819447275
        Na  5.638894550  0.000000000  5.638894550
        Na  5.638894550  2.819447275  8.458341824
        Na  8.458341824  0.000000000  8.458341824
        Na  8.458341824  2.819447275  5.638894550
        Cl  8.458341824  2.819447275  8.458341824
        Cl  8.458341824  0.000000000  5.638894550
        Cl  5.638894550  2.819447275  5.638894550
        Cl  5.638894550  0.000000000  8.458341824
        Na  5.638894550  0.000000000  11.277789099
        Na  5.638894550  2.819447275  14.097236374
        Na  8.458341824  0.000000000  14.097236374
        Na  8.458341824  2.819447275  11.277789099
        Cl  8.458341824  2.819447275  14.097236374
        Cl  8.458341824  0.000000000  11.277789099
        Cl  5.638894550  2.819447275  11.277789099
        Cl  5.638894550  0.000000000  14.097236374
        Na  5.638894550  0.000000000  16.916683649
        Na  5.638894550  2.819447275  19.736130924
        Na  8.458341824  0.000000000  19.736130924
        Na  8.458341824  2.819447275  16.916683649
        Cl  8.458341824  2.819447275  19.736130924
        Cl  8.458341824  0.000000000  16.916683649
        Cl  5.638894550  2.819447275  16.916683649
        Cl  5.638894550  0.000000000  19.736130924
        Na  5.638894550  0.000000000  22.555578199
        Na  5.638894550  2.819447275  25.375025473
        Na  8.458341824  0.000000000  25.375025473
        Na  8.458341824  2.819447275  22.555578199
        Cl  8.458341824  2.819447275  25.375025473
        Cl  8.458341824  0.000000000  22.555578199
        Cl  5.638894550  2.819447275  22.555578199
        Cl  5.638894550  0.000000000  25.375025473
        Na  5.638894550  5.638894550  0.000000000
        Na  5.638894550  8.458341824  2.819447275
        Na  8.458341824  5.638894550  2.819447275
        Na  8.458341824  8.458341824  0.000000000
        Cl  8.458341824  8.458341824  2.819447275
        Cl  8.458341824  5.638894550  0.000000000
        Cl  5.638894550  8.458341824  0.000000000
        Cl  5.638894550  5.638894550  2.819447275
        Na  5.638894550  5.638894550  5.638894550
        Na  5.638894550  8.458341824  8.458341824
        Na  8.458341824  5.638894550  8.458341824
        Na  8.458341824  8.458341824  5.638894550
        Cl  8.458341824  8.458341824  8.458341824
        Cl  8.458341824  5.638894550  5.638894550
        Cl  5.638894550  8.458341824  5.638894550
        Cl  5.638894550  5.638894550  8.458341824
        Na  5.638894550  5.638894550  11.277789099
        Na  5.638894550  8.458341824  14.097236374
        Na  8.458341824  5.638894550  14.097236374
        Na  8.458341824  8.458341824  11.277789099
        Cl  8.458341824  8.458341824  14.097236374
        Cl  8.458341824  5.638894550  11.277789099
        Cl  5.638894550  8.458341824  11.277789099
        Cl  5.638894550  5.638894550  14.097236374
        Na  5.638894550  5.638894550  16.916683649
        Na  5.638894550  8.458341824  19.736130924
        Na  8.458341824  5.638894550  19.736130924
        Na  8.458341824  8.458341824  16.916683649
        Cl  8.458341824  8.458341824  19.736130924
        Cl  8.458341824  5.638894550  16.916683649
        Cl  5.638894550  8.458341824  16.916683649
        Cl  5.638894550  5.638894550  19.736130924
        Na  5.638894550  5.638894550  22.555578199
        Na  5.638894550  8.458341824  25.375025473
        Na  8.458341824  5.638894550  25.375025473
        Na  8.458341824  8.458341824  22.555578199
        Cl  8.458341824  8.458341824  25.375025473
        Cl  8.458341824  5.638894550  22.555578199
        Cl  5.638894550  8.458341824  22.555578199
        Cl  5.638894550  5.638894550  25.375025473
        Na  5.638894550  11.277789099  0.000000000
        Na  5.638894550  14.097236374  2.819447275
        Na  8.458341824  11.277789099  2.819447275
        Na  8.458341824  14.097236374  0.000000000
        Cl  8.458341824  14.097236374  2.819447275
        Cl  8.458341824  11.277789099  0.000000000
        Cl  5.638894550  14.097236374  0.000000000
        Cl  5.638894550  11.277789099  2.819447275
        Na  5.638894550  11.277789099  5.638894550
        Na  5.638894550  14.097236374  8.458341824
        Na  8.458341824  11.277789099  8.458341824
        Na  8.458341824  14.097236374  5.638894550
        Cl  8.458341824  14.097236374  8.458341824
        Cl  8.458341824  11.277789099  5.638894550
        Cl  5.638894550  14.097236374  5.638894550
        Cl  5.638894550  11.277789099  8.458341824
        Na  5.638894550  11.277789099  11.277789099
        Na  5.638894550  14.097236374  14.097236374
        Na  8.458341824  11.277789099  14.097236374
        Na  8.458341824  14.097236374  11.277789099
        Cl  8.458341824  14.097236374  14.097236374
        Cl  8.458341824  11.277789099  11.277789099
        Cl  5.638894550  14.097236374  11.277789099
        Cl  5.638894550  11.277789099  14.097236374
        Na  5.638894550  11.277789099  16.916683649
        Na  5.638894550  14.097236374  19.736130924
        Na  8.458341824  11.277789099  19.736130924
        Na  8.458341824  14.097236374  16.916683649
        Cl  8.458341824  14.097236374  19.736130924
        Cl  8.458341824  11.277789099  16.916683649
        Cl  5.638894550  14.097236374  16.916683649
        Cl  5.638894550  11.277789099  19.736130924
        Na  5.638894550  11.277789099  22.555578199
        Na  5.638894550  14.097236374  25.375025473
        Na  8.458341824  11.277789099  25.375025473
        Na  8.458341824  14.097236374  22.555578199
        Cl  8.458341824  14.097236374  25.375025473
        Cl  8.458341824  11.277789099  22.555578199
        Cl  5.638894550  14.097236374  22.555578199
        Cl  5.638894550  11.277789099  25.375025473
        Na  5.638894550  16.916683649  0.000000000
        Na  5.638894550  19.736130924  2.819447275
        Na  8.458341824  16.916683649  2.819447275
        Na  8.458341824  19.736130924  0.000000000
        Cl  8.458341824  19.736130924  2.819447275
        Cl  8.458341824  16.916683649  0.000000000
        Cl  5.638894550  19.736130924  0.000000000
        Cl  5.638894550  16.916683649  2.819447275
        Na  5.638894550  16.916683649  5.638894550
        Na  5.638894550  19.736130924  8.458341824
        Na  8.458341824  16.916683649  8.458341824
        Na  8.458341824  19.736130924  5.638894550
        Cl  8.458341824  19.736130924  8.458341824
        Cl  8.458341824  16.916683649  5.638894550
        Cl  5.638894550  19.736130924  5.638894550
        Cl  5.638894550  16.916683649  8.458341824
        Na  5.638894550  16.916683649  11.277789099
        Na  5.638894550  19.736130924  14.097236374
        Na  8.458341824  16.916683649  14.097236374
        Na  8.458341824  19.736130924  11.277789099
        Cl  8.458341824  19.736130924  14.097236374
        Cl  8.458341824  16.916683649  11.277789099
        Cl  5.638894550  19.736130924  11.277789099
        Cl  5.638894550  16.916683649  14.097236374
        Na  5.638894550  16.916683649  16.916683649
        Na  5.638894550  19.736130924  19.736130924
        Na  8.458341824  16.916683649  19.736130924
        Na  8.458341824  19.736130924  16.916683649
        Cl  8.458341824  19.736130924  19.736130924
        Cl  8.458341824  16.916683649  16.916683649
        Cl  5.638894550  19.736130924  16.916683649
        Cl  5.638894550  16.916683649  19.736130924
        Na  5.638894550  16.916683649  22.555578199
        Na  5.638894550  19.736130924  25.375025473
        Na  8.458341824  16.916683649  25.375025473
        Na  8.458341824  19.736130924  22.555578199
        Cl  8.458341824  19.736130924  25.375025473
        Cl  8.458341824  16.916683649  22.555578199
        Cl  5.638894550  19.736130924  22.555578199
        Cl  5.638894550  16.916683649  25.375025473
        Na  5.638894550  22.555578199  0.000000000
        Na  5.638894550  25.375025473  2.819447275
        Na  8.458341824  22.555578199  2.819447275
        Na  8.458341824  25.375025473  0.000000000
        Cl  8.458341824  25.375025473  2.819447275
        Cl  8.458341824  22.555578199  0.000000000
        Cl  5.638894550  25.375025473  0.000000000
        Cl  5.638894550  22.555578199  2.819447275
        Na  5.638894550  22.555578199  5.638894550
        Na  5.638894550  25.375025473  8.458341824
        Na  8.458341824  22.555578199  8.458341824
        Na  8.458341824  25.375025473  5.638894550
        Cl  8.458341824  25.375025473  8.458341824
        Cl  8.458341824  22.555578199  5.638894550
        Cl  5.638894550  25.375025473  5.638894550
        Cl  5.638894550  22.555578199  8.458341824
        Na  5.638894550  22.555578199  11.277789099
        Na  5.638894550  25.375025473  14.097236374
        Na  8.458341824  22.555578199  14.097236374
        Na  8.458341824  25.375025473  11.277789099
        Cl  8.458341824  25.375025473  14.097236374
        Cl  8.458341824  22.555578199  11.277789099
        Cl  5.638894550  25.375025473  11.277789099
        Cl  5.638894550  22.555578199  14.097236374
        Na  5.638894550  22.555578199  16.916683649
        Na  5.638894550  25.375025473  19.736130924
        Na  8.458341824  22.555578199  19.736130924
        Na  8.458341824  25.375025473  16.916683649
        Cl  8.458341824  25.375025473  19.736130924
        Cl  8.458341824  22.555578199  16.916683649
        Cl  5.638894550  25.375025473  16.916683649
        Cl  5.638894550  22.555578199  19.736130924
        Na  5.638894550  22.555578199  22.555578199
        Na  5.638894550  25.375025473  25.375025473
        Na  8.458341824  22.555578199  25.375025473
        Na  8.458341824  25.375025473  22.555578199
        Cl  8.458341824  25.375025473  25.375025473
        Cl  8.458341824  22.555578199  22.555578199
        Cl  5.638894550  25.375025473  22.555578199
        Cl  5.638894550  22.555578199  25.375025473
        Na  11.277789099  0.000000000  0.000000000
        Na  11.277789099  2.819447275  2.819447275
        Na  14.097236374  0.000000000  2.819447275
        Na  14.097236374  2.819447275  0.000000000
        Cl  14.097236374  2.819447275  2.819447275
        Cl  14.097236374  0.000000000  0.000000000
        Cl  11.277789099  2.819447275  0.000000000
        Cl  11.277789099  0.000000000  2.819447275
        Na  11.277789099  0.000000000  5.638894550
        Na  11.277789099  2.819447275  8.458341824
        Na  14.097236374  0.000000000  8.458341824
        Na  14.097236374  2.819447275  5.638894550
        Cl  14.097236374  2.819447275  8.458341824
        Cl  14.097236374  0.000000000  5.638894550
        Cl  11.277789099  2.819447275  5.638894550
        Cl  11.277789099  0.000000000  8.458341824
        Na  11.277789099  0.000000000  11.277789099
        Na  11.277789099  2.819447275  14.097236374
        Na  14.097236374  0.000000000  14.097236374
        Na  14.097236374  2.819447275  11.277789099
        Cl  14.097236374  2.819447275  14.097236374
        Cl  14.097236374  0.000000000  11.277789099
        Cl  11.277789099  2.819447275  11.277789099
        Cl  11.277789099  0.000000000  14.097236374
        Na  11.277789099  0.000000000  16.916683649
        Na  11.277789099  2.819447275  19.736130924
        Na  14.097236374  0.000000000  19.736130924
        Na  14.097236374  2.819447275  16.916683649
        Cl  14.097236374  2.819447275  19.736130924
        Cl  14.097236374  0.000000000  16.916683649
        Cl  11.277789099  2.819447275  16.916683649
        Cl  11.277789099  0.000000000  19.736130924
        Na  11.277789099  0.000000000  22.555578199
        Na  11.277789099  2.819447275  25.375025473
        Na  14.097236374  0.000000000  25.375025473
        Na  14.097236374  2.819447275  22.555578199
        Cl  14.097236374  2.819447275  25.375025473
        Cl  14.097236374  0.000000000  22.555578199
        Cl  11.277789099  2.819447275  22.555578199
        Cl  11.277789099  0.000000000  25.375025473
        Na  11.277789099  5.638894550  0.000000000
        Na  11.277789099  8.458341824  2.819447275
        Na  14.097236374  5.638894550  2.819447275
        Na  14.097236374  8.458341824  0.000000000
        Cl  14.097236374  8.458341824  2.819447275
        Cl  14.097236374  5.638894550  0.000000000
        Cl  11.277789099  8.458341824  0.000000000
        Cl  11.277789099  5.638894550  2.819447275
        Na  11.277789099  5.638894550  5.638894550
        Na  11.277789099  8.458341824  8.458341824
        Na  14.097236374  5.638894550  8.458341824
        Na  14.097236374  8.458341824  5.638894550
        Cl  14.097236374  8.458341824  8.458341824
        Cl  14.097236374  5.638894550  5.638894550
        Cl  11.277789099  8.458341824  5.638894550
        Cl  11.277789099  5.638894550  8.458341824
        Na  11.277789099  5.638894550  11.277789099
        Na  11.277789099  8.458341824  14.097236374
        Na  14.097236374  5.638894550  14.097236374
        Na  14.097236374  8.458341824  11.277789099
        Cl  14.097236374  8.458341824  14.097236374
        Cl  14.097236374  5.638894550  11.277789099
        Cl  11.277789099  8.458341824  11.277789099
        Cl  11.277789099  5.638894550  14.097236374
        Na  11.277789099  5.638894550  16.916683649
        Na  11.277789099  8.458341824  19.736130924
        Na  14.097236374  5.638894550  19.736130924
        Na  14.097236374  8.458341824  16.916683649
        Cl  14.097236374  8.458341824  19.736130924
        Cl  14.097236374  5.638894550  16.916683649
        Cl  11.277789099  8.458341824  16.916683649
        Cl  11.277789099  5.638894550  19.736130924
        Na  11.277789099  5.638894550  22.555578199
        Na  11.277789099  8.458341824  25.375025473
        Na  14.097236374  5.638894550  25.375025473
        Na  14.097236374  8.458341824  22.555578199
        Cl  14.097236374  8.458341824  25.375025473
        Cl  14.097236374  5.638894550  22.555578199
        Cl  11.277789099  8.458341824  22.555578199
        Cl  11.277789099  5.638894550  25.375025473
        Na  11.277789099  11.277789099  0.000000000
        Na  11.277789099  14.097236374  2.819447275
        Na  14.097236374  11.277789099  2.819447275
        Na  14.097236374  14.097236374  0.000000000
        Cl  14.097236374  14.097236374  2.819447275
        Cl  14.097236374  11.277789099  0.000000000
        Cl  11.277789099  14.097236374  0.000000000
        Cl  11.277789099  11.277789099  2.819447275
        Na  11.277789099  11.277789099  5.638894550
        Na  11.277789099  14.097236374  8.458341824
        Na  14.097236374  11.277789099  8.458341824
        Na  14.097236374  14.097236374  5.638894550
        Cl  14.097236374  14.097236374  8.458341824
        Cl  14.097236374  11.277789099  5.638894550
        Cl  11.277789099  14.097236374  5.638894550
        Cl  11.277789099  11.277789099  8.458341824
        Na  11.277789099  11.277789099  11.277789099
        Na  11.277789099  14.097236374  14.097236374
        Na  14.097236374  11.277789099  14.097236374
        Na  14.097236374  14.097236374  11.277789099
        Cl  14.097236374  14.097236374  14.097236374
        Cl  14.097236374  11.277789099  11.277789099
        Cl  11.277789099  14.097236374  11.277789099
        Cl  11.277789099  11.277789099  14.097236374
        Na  11.277789099  11.277789099  16.916683649
        Na  11.277789099  14.097236374  19.736130924
        Na  14.097236374  11.277789099  19.736130924
        Na  14.097236374  14.097236374  16.916683649
        Cl  14.097236374  14.097236374  19.736130924
        Cl  14.097236374  11.277789099  16.916683649
        Cl  11.277789099  14.097236374  16.916683649
        Cl  11.277789099  11.277789099  19.736130924
        Na  11.277789099  11.277789099  22.555578199
        Na  11.277789099  14.097236374  25.375025473
        Na  14.097236374  11.277789099  25.375025473
        Na  14.097236374  14.097236374  22.555578199
        Cl  14.097236374  14.097236374  25.375025473
        Cl  14.097236374  11.277789099  22.555578199
        Cl  11.277789099  14.097236374  22.555578199
        Cl  11.277789099  11.277789099  25.375025473
        Na  11.277789099  16.916683649  0.000000000
        Na  11.277789099  19.736130924  2.819447275
        Na  14.097236374  16.916683649  2.819447275
        Na  14.097236374  19.736130924  0.000000000
        Cl  14.097236374  19.736130924  2.819447275
        Cl  14.097236374  16.916683649  0.000000000
        Cl  11.277789099  19.736130924  0.000000000
        Cl  11.277789099  16.916683649  2.819447275
        Na  11.277789099  16.916683649  5.638894550
        Na  11.277789099  19.736130924  8.458341824
        Na  14.097236374  16.916683649  8.458341824
        Na  14.097236374  19.736130924  5.638894550
        Cl  14.097236374  19.736130924  8.458341824
        Cl  14.097236374  16.916683649  5.638894550
        Cl  11.277789099  19.736130924  5.638894550
        Cl  11.277789099  16.916683649  8.458341824
        Na  11.277789099  16.916683649  11.277789099
        Na  11.277789099  19.736130924  14.097236374
        Na  14.097236374  16.916683649  14.097236374
        Na  14.097236374  19.736130924  11.277789099
        Cl  14.097236374  19.736130924  14.097236374
        Cl  14.097236374  16.916683649  11.277789099
        Cl  11.277789099  19.736130924  11.277789099
        Cl  11.277789099  16.916683649  14.097236374
        Na  11.277789099  16.916683649  16.916683649
        Na  11.277789099  19.736130924  19.736130924
        Na  14.097236374  16.916683649  19.736130924
        Na  14.097236374  19.736130924  16.916683649
        Cl  14.097236374  19.736130924  19.736130924
        Cl  14.097236374  16.916683649  16.916683649
        Cl  11.277789099  19.736130924  16.916683649
        Cl  11.277789099  16.916683649  19.736130924
        Na  11.277789099  16.916683649  22.555578199
        Na  11.277789099  19.736130924  25.375025473
        Na  14.097236374  16.916683649  25.375025473
        Na  14.097236374  19.736130924  22.555578199
        Cl  14.097236374  19.736130924  25.375025473