&GLOBAL
  PRINT_LEVEL MEDIUM
  PROJECT_NAME quartz_cg
  RUN_TYPE MD
&END GLOBAL
&MOTION
  &MD
    STEPS 5
    TEMPERATURE 300
    TEMP_TOL 300
    TIMESTEP 1.0
  &END MD
&END MOTION
&FORCE_EVAL
  METHOD FIST
  &MM
    &FORCEFIELD
      &SPLINE
        EMAX_SPLINE 1.0
        RCUT_NB 80.00
      &END SPLINE
      # parameters are rubbish, this is just a test
      &BOND
        KIND HARMONIC
        ATOMS O Si
        K 0.2
        R0 [angstrom] 1.61
      &END BOND
      &BEND
        KIND HARMONIC
        ATOMS Si O Si
        K 0.02
        THETA0 [deg] 150.0
      &END BEND
      &BEND
        KIND HARMONIC
        ATOMS O Si O
        K 0.05
        THETA0 [deg] 109.4
      &END BEND
      &NONBONDED
        &LENNARD-JONES
          ATOMS O Si
          EPSILON [hartree] 0.000188557481234
          SIGMA [bohr] 6.43617529207
        &END LENNARD-JONES
        &LENNARD-JONES
          ATOMS O O
          EPSILON [hartree] 0.000223104220536
          SIGMA [bohr] 5.48020578837
        &END LENNARD-JONES
        &LENNARD-JONES
          ATOMS Si Si
          EPSILON [hartree] 0.000159360157525
          SIGMA [bohr] 7.55890453569
        &END LENNARD-JONES
      &END NONBONDED
      &CHARGE
        ATOM O
        CHARGE -0.5
      &END CHARGE
      &CHARGE
        ATOM Si
        CHARGE 1.0
      &END CHARGE
      &DIPOLE
        ATOM O
        ALPHA 1.0
      &END DIPOLE
      &DIPOLE
        ATOM Si
        ALPHA 0.0
      &END DIPOLE
    &END FORCEFIELD
    &POISSON
      PERIODIC XYZ
      POISSON_SOLVER PERIODIC
      &EWALD
        EWALD_TYPE EWALD
        ALPHA 0.3
        GMAX 11
        O_SPLINE 6
        &MULTIPOLES T
          MAX_MULTIPOLE_EXPANSION DIPOLE
          POL_SCF CONJUGATE_GRADIENT
          EPS_POL 1.0e-6
          MAX_IPOL_ITER 100
       &END MULTIPOLES
      &END EWALD
    &END POISSON
  &END MM
  &SUBSYS
    &CELL
      A 4.914 8.510 0.0
      B 4.914 -8.510 0.0
      C 0.0 0.0 10.810
      PERIODIC XYZ
    &END CELL
    &COORD
 Si         6.6688610997       -2.1429859310        3.5853174733
 Si         6.0662940582        2.0424819935        2.2179292423
  O         7.1022208405       -1.2876324097        4.8751494127
  O         6.1032827533        0.7561701349        1.1709459762
  O         8.1753884089       -1.0036369541        0.6566261306
  O         7.3554546344        2.4370687319        3.1180891103
  O         7.9688726125       -2.6415237027        2.7527658950
  O         8.8961378380        0.6401394641        4.4641414291
 Si         6.8905684839       -0.1338521216        0.0503559419
 Si         3.4493209614       -6.3011835849        9.1195597912
 Si         3.4758475811       -1.8802487136        6.8415268624
  O         3.2713290824       -5.1400997033       10.2134166905
  O         3.6751483178       -3.0331038017        5.7345330433
  O         5.6769678602       -4.7115177540        6.6470253599
  O         4.9428229519       -1.7361847805        7.4789376087
  O         5.0247128354       -6.3813630467        8.7296948326
  O         5.3938263712       -3.4340691894        9.7151687932
 Si         4.8984663260       -4.0284464750        5.3661938629
 Si         3.2897289301        2.4212530840        3.5725007199
 Si         3.9488907796        6.2270183310        1.4685100484
  O         3.3498981126        3.7697786126        4.5394502235
  O         3.9288555378        4.9550471190        0.4440313186
  O         5.9812861461        3.3387718614        1.2515261826
  O         5.4087270294        6.4826226245        2.2103539507
  O         4.7354521551        1.8517905123        3.1521513436
  O         5.9304946256        4.9824409653        4.4208388328
 Si         5.1062161890        3.9134827582       -0.0034511652
 Si         1.4694876678       -2.4410927808        9.0911037462
 Si         1.2359386583        2.5595655070        7.6106455988
  O         1.9181109793       -1.5427287510       10.3665846882
  O         1.1129095639        1.3399891983        6.4964900346
  O         2.8360575313       -0.4027906164        6.5292467982
  O         2.7028916279        2.8427455065        8.2551750234
  O         2.6115335249       -2.6752035499        7.9581671761
  O         3.3946505032        0.4474497798        9.4874521100
 Si         1.8204415995        0.2704287788        5.4638816445
 Si         3.8830833731        1.8235719828        8.8144861158
 Si         3.7299052833        6.4918480672        7.5946081373
  O         4.5482155165        2.5325489994       10.1280068340
  O         4.1089428817        5.3005255984        6.5392039791
  O         5.6435262725        3.2483575028        5.9372489329
  O         4.9852703377        6.7255856134        8.5811117073
  O         5.0050716202        1.3828059123        7.7261645595
  O         6.0126433529        4.6055320259        9.6686536675
 Si         4.6843836932        4.4007056650        5.2981746338
 Si         1.4504626761       -2.1976391430        3.5692998220
 Si         1.1693264865        2.0638654950        1.2941397924
  O         1.1255353563       -1.0277279464        4.7042466766
  O         1.3106878058        0.7976983286        0.2824350414
  O         3.4564885834       -0.4903905833        1.2930599338
  O         2.5305393088        2.4457550217        2.1089840655
  O         3.0102191257       -2.3165730704        3.0990240833
  O         2.7824513138        1.2235811092        4.5601827983
 Si         2.5809538857       -0.1409918882       -0.0402467023
 Si         3.9230722905       -6.4874065540        3.6454517803
 Si         4.1343196626       -1.7056219320        2.0912587007
  O         4.1018334859       -5.2560115424        4.6805684120
  O         4.1090863404       -3.0386155755        1.1480894581
  O         5.6421885383       -5.0163429426        0.6547098133
  O         5.5915925975       -1.3445846408        2.6987569924
  O         4.9660170384       -6.8526649421        2.4048309505
  O         5.8953626990       -3.4343265617        4.2070456990
 Si         4.4155470889       -4.1718990315        0.0194059275
 Si         5.8349364626       -2.1339015063        8.7979883168
 Si         6.2206080463        2.0037461103        6.8033633143
  O         5.8301857470       -0.9628144202        9.9401936821
  O         6.5334348756        0.7173283179        5.8716322746
  O         8.5380071811       -0.5323179586        6.9670245718
  O         7.4659048655        2.4782505330        7.7472826292
  O         7.3434959977       -2.5836035920        8.4008741368
  O         7.8642080091        0.8687369557        9.9480935972
 Si         7.8901472706       -0.0681180127        5.5381747791
    &END COORD
    &TOPOLOGY
      &GENERATE
        CREATE_MOLECULES
      &END GENERATE
    &END TOPOLOGY
  &END SUBSYS
&END FORCE_EVAL
