&GLOBAL
  PRINT_LEVEL LOW
  PROJECT dftb3_o2_uks_ls
  RUN_TYPE ENERGY
&END GLOBAL

#CPQA INCLUDE DFTB/scc/scc_parameter
#CPQA INCLUDE DFTB/scc/oo.spl
&FORCE_EVAL
  &DFT
    LSD
    MULTIPLICITY 3
    &LS_SCF
      EPS_FILTER 1.0E-7
      EPS_SCF 1.0E-8
      MATRIX_CLUSTER_TYPE ATOMIC
      MAX_SCF 80
      MU -0.20
      NON_MONOTONIC T
      PURIFICATION_METHOD TC2
      REPORT_ALL_SPARSITIES OFF
      S_PRECONDITIONER MOLECULAR
    &END LS_SCF
    &QS
      LS_SCF
      METHOD DFTB
      &DFTB
        DIAGONAL_DFTB3 T
        DISPERSION F
        HB_SR_GAMMA T
        SELF_CONSISTENT T
        &PARAMETER
          HB_SR_PARAM 4.0
          PARAM_FILE_NAME scc_parameter
          PARAM_FILE_PATH DFTB/scc
        &END PARAMETER
      &END DFTB
    &END QS
  &END DFT
  &SUBSYS
    &CELL
      ABC 20.0 20.0 20.0
      PERIODIC NONE
    &END CELL
    &COORD
      O     0.000000    0.000000    0.000000
      O     1.208000    0.000000    0.000000
    &END COORD
    &KIND O
      DFTB3_PARAM -0.14
    &END KIND
  &END SUBSYS
&END FORCE_EVAL
