&GLOBAL
  PRINT_LEVEL MEDIUM
  PROJECT dftb3_h2o_yz_direct_kp
  RUN_TYPE DEBUG
&END GLOBAL

&DEBUG
  DEBUG_FORCES T
  DEBUG_STRESS_TENSOR T
  DX 1.0e-4
  EPS_NO_ERROR_CHECK 1.0e-6
  MAX_RELATIVE_ERROR 0.5
  STOP_ON_MISMATCH F
&END DEBUG

#CPQA INCLUDE DFTB/scc/scc_parameter
#CPQA INCLUDE DFTB/scc/oo.spl
#CPQA INCLUDE DFTB/scc/oh.spl
#CPQA INCLUDE DFTB/scc/ho.spl
#CPQA INCLUDE DFTB/scc/hh.spl
&FORCE_EVAL
  STRESS_TENSOR ANALYTICAL
  &DFT
    &KPOINTS
      EPS_SYMMETRY 1.e-8
      FULL_GRID OFF
      SCHEME MONKHORST-PACK 1 2 2
      SYMMETRY ON
      SYMMETRY_BACKEND SPGLIB
      VERBOSE T
    &END KPOINTS
    &QS
      METHOD DFTB
      &DFTB
        DIAGONAL_DFTB3 T
        DISPERSION F
        DO_EWALD F
        HB_SR_GAMMA T
        ORTHOGONAL_BASIS F
        SELF_CONSISTENT T
        &PARAMETER
          HB_SR_PARAM 4.0
          PARAM_FILE_NAME scc_parameter
          PARAM_FILE_PATH DFTB/scc
        &END PARAMETER
      &END DFTB
    &END QS
    &SCF
      EPS_SCF 1.0e-10
      MAX_SCF 500
      SCF_GUESS ATOMIC
      &MIXING
        ALPHA 0.2
        METHOD DIRECT_P_MIXING
      &END MIXING
      &PRINT
        &RESTART OFF
        &END RESTART
      &END PRINT
    &END SCF
  &END DFT
  &SUBSYS
    &CELL
      ABC 18.0000000000 6.0000000000 6.0000000000
      PERIODIC YZ
    &END CELL
    &COORD
      O     0.421000    0.377000    0.289000
      H     1.179602    0.391000    0.793284
      H    -0.337602    0.364000    0.793284
    &END COORD
    &KIND O
      DFTB3_PARAM -0.14
    &END KIND
    &KIND H
      DFTB3_PARAM -0.05
    &END KIND
  &END SUBSYS
&END FORCE_EVAL
