&FORCE_EVAL
  METHOD Quickstep

  &PRINT
    &FORCES                    ON
    &END FORCES
  &END PRINT

  &DFT
    BASIS_SET_FILE_NAME GTH_BASIS_SETS
    POTENTIAL_FILE_NAME GTH_POTENTIALS
    &MGRID
      CUTOFF 200
    &END MGRID
    &POISSON
      PERIODIC NONE
      POISSON_SOLVER MT
    &END POISSON
    &QS
      EPS_DEFAULT 1.E-10
    &END QS
    &ENERGY_CORRECTION
      ENERGY_FUNCTIONAL        DCDFT
      HARRIS_BASIS             HARRIS 
      &RESPONSE_SOLVER
        METHOD                 AO_ORTHO
        PRECONDITIONER         MULTI_LEVEL
        EPS                    1.0E-5
        MAX_ITER               4
      &END RESPONSE_SOLVER
      &XC
        &XC_FUNCTIONAL B3LYP
        &END
      &END XC
    &END ENERGY_CORRECTION
    &SCF
      EPS_SCF 1.0E-5
      SCF_GUESS ATOMIC 
    &END
    &XC
      &XC_FUNCTIONAL PBE0
      &END
    &END XC
  &END DFT

  &SUBSYS
    &CELL
      ABC 5.0 5.0 5.0
      PERIODIC NONE
    &END CELL
    &COORD
    N     0.000000     0.000000     0.650000    
    N     0.000000     0.000000    -0.650000   
    &END COORD
    &KIND N
      BASIS_SET ORB DZVP-GTH
      BASIS_SET HARRIS DZVP-GTH
      POTENTIAL GTH-PBE-q5
    &END KIND
  &END SUBSYS
&END FORCE_EVAL
&GLOBAL
  PROJECT N2 
  RUN_TYPE GEO_OPT
  PRINT_LEVEL LOW
  &REFERENCES OFF
  &END REFERENCES
&END GLOBAL
&MOTION
  &GEO_OPT
     MAX_ITER 1
  &END
&END
