&GLOBAL
  !  RUN_TYPE ENERGY
  PRINT_LEVEL LOW
  PROJECT H2-rtp_ETRS_PADE
  RUN_TYPE RT_PROPAGATION
&END GLOBAL

&MOTION
  &MD
    ENSEMBLE NVE
    STEPS 2
    TEMPERATURE 300.0
    TIMESTEP [au_t] 0.25
  &END MD
  &PRINT
    &TRAJECTORY
      &EACH
        MD 1
      &END EACH
    &END TRAJECTORY
  &END PRINT
&END MOTION

&FORCE_EVAL
  METHOD QUICKSTEP
  &DFT
    BASIS_SET_FILE_NAME BASIS_SET
    POTENTIAL_FILE_NAME POTENTIAL
    &MGRID
      CUTOFF 100
    &END MGRID
    &QS
      EPS_DEFAULT 1.0E-10
    &END QS
    &REAL_TIME_PROPAGATION
      EPS_ITER 1.0E-9
      INITIAL_WFN SCF_WFN
      MAT_EXP PADE
      MAX_ITER 5
      PROPAGATOR ETRS
    &END REAL_TIME_PROPAGATION
    &SCF
      EPS_SCF 1.0E-3
      MAX_SCF 60
      SCF_GUESS ATOMIC
      &OT ON
        ROTATION
      &END OT
      &OUTER_SCF
        EPS_SCF 1.0E-3
      &END OUTER_SCF
    &END SCF
    &XC
      &XC_FUNCTIONAL PADE
      &END XC_FUNCTIONAL
    &END XC
  &END DFT
  &SUBSYS
    &CELL
      ABC 6.0 6.0 6.0
    &END CELL
    &COORD
      H  6.000000   4.5000000   6.000000
      H  6.000000   1.5000000    6.000000
    &END COORD
    &KIND H
      BASIS_SET DZVP-GTH-PBE
      POTENTIAL GTH-PBE-q1
    &END KIND
    &KIND HX
      BASIS_SET DZVP-GTH-PBE
      ELEMENT H
      GHOST T
      POTENTIAL GTH-PBE-q1
    &END KIND
    &KIND O
      BASIS_SET DZVP-GTH-PBE
      POTENTIAL GTH-PBE-q6
    &END KIND
  &END SUBSYS
&END FORCE_EVAL
