&GLOBAL
  PROJECT O2-uks-chi-gpw-1
  PRINT_LEVEL LOW
  RUN_TYPE LINEAR_RESPONSE
&END GLOBAL

&FORCE_EVAL
  &DFT
    UNRESTRICTED_KOHN_SHAM T
    MULTIPLICITY 3
    BASIS_SET_FILE_NAME ../EMSL_BASIS_SETS
    POTENTIAL_FILE_NAME ../POTENTIAL
    &MGRID
      CUTOFF 150
    &END MGRID
    &QS
      METHOD GAPW
    &END QS
    &SCF
      SCF_GUESS ATOMIC
      MAX_SCF 10
    &END SCF
    &XC
      &XC_FUNCTIONAL BLYP
      &END XC_FUNCTIONAL
    &END XC
  &END DFT
  &PROPERTIES
    &LINRES
       &LOCALIZE
       &END
       OPT_METHOD CG
       MAX_SCF 10
       LINESEARCH 2PNT
       PRECONDITIONER FULL_ALL
       &NMR
       &END
    &END
  &END
  &SUBSYS
    &CELL
      ABC 4.0 4.0 4.0
      UNIT ANGSTROM
    &END CELL
    &COORD
   O           0.000000  0.000000  0.608000
   O           0.000000  0.000000 -0.608000
    &END COORD
    &KIND O
      BASIS_SET DZVP-GTH
      POTENTIAL GTH-BLYP-q6
    &END KIND
  &END SUBSYS
&END FORCE_EVAL
