&FORCE_EVAL
  METHOD Quickstep
  &DFT
    &MGRID
      CUTOFF 280
    &END MGRID
    &QS
      WF_INTERPOLATION PS 
      EXTRAPOLATION_ORDER 3
    &END QS
    &SCP T
      DISPERSION F
    &END SCP
    &SCF
      &OUTER_SCF
        TYPE SCP
        EPS_SCF 1.E-6
        MAX_SCF 50
      &END OUTER_SCF
      SCF_GUESS ATOMIC
      MAX_SCF 50
      EPS_SCF 1.000E-6
      &OT T
        SCP T
        MINIMIZER DIIS
      &END OT
    &END SCF
    &XC
      &XC_FUNCTIONAL HCTH120
      &END XC_FUNCTIONAL
    &END XC
    POTENTIAL_FILE_NAME ./GTH_POTENTIALS
    BASIS_SET_FILE_NAME ./test_basis_water
    &POISSON
      &MT
        REL_CUTOFF 1.5
      &END MT
      POISSON_SOLVER MT
      PERIODIC NONE
    &END POISSON
  &END DFT
  &SUBSYS
    &CELL
      ABC 12.0 12.0 12.0
      UNIT ANGSTROM
      PERIODIC NONE
    &END CELL
    &COORD
  H         1.2061178430        0.0429513696       -0.0457562829
  O         1.2996077911       -0.9298151020       -0.0931025764
  H         1.9239526581       -1.1630360152        0.5992130545
  H         0.1284502068        2.1890009669       -0.6473418117
  O         0.1845969880        1.5774014590        0.0924595642
  H        -0.6186511830        1.0218482747        0.0320525637
  H        -2.0177346503       -1.0225866698        0.6142553987
  O        -1.4833770828       -0.6497579102       -0.0926023339
  H        -0.6100675311       -1.0817893491       -0.0184668035
    &END COORD
    &KIND H
      BASIS_SET aug-QZV3P-GTH
      POTENTIAL GTH-HCTH120-q1
    &END KIND
    &KIND O
      BASIS_SET aug-QZV3P-GTH
      POTENTIAL GTH-HCTH120-q6
      AUX_BASIS_SET aux-scp
      ALPHA_SCP 0.23
      I_SCP 1.
    &END KIND
  &END SUBSYS
&END FORCE_EVAL
&GLOBAL
  PROJECT w3
  RUN_TYPE ENERGY
  PRINT_LEVEL LOW
&END GLOBAL
