#CPQA DEPENDS  H_H_pbe_pbe0_triplet_grid.inp
!
!  Open-shell grid-based optimization of the embedding potential
!  with restart from potetnials in cube format
!
&GLOBAL
  PROJECT  h_h_pbe_pbe0_triplet_grid_restart_cube
  PRINT_LEVEL MEDIUM
  RUN_TYPE ENERGY
&END GLOBAL
&MULTIPLE_FORCE_EVALS
   FORCE_EVAL_ORDER 2 3 4 5
   MULTIPLE_SUBSYS T
&END
&FORCE_EVAL
    METHOD EMBED
    &EMBED
       NGROUPS 1
       &MAPPING
          &FORCE_EVAL_EMBED
             &FRAGMENT 1
                1 1
             &END
             &FRAGMENT 2
                2 2
             &END
             &FRAGMENT 3
                1 2
             &END
          &END
          &FORCE_EVAL 1
             &FRAGMENT 1
                1 1
                MAP 1
              &END
          &END
          &FORCE_EVAL 2
             &FRAGMENT 1
                1 1
                MAP 2
             &END
          &END
          &FORCE_EVAL 3
             &FRAGMENT 1
                1 2
                MAP 3
              &END
          &END
          &FORCE_EVAL 4
             &FRAGMENT 1
                1 1
                MAP 2
             &END
          &END
       &END
    &END EMBED
  &SUBSYS
    &CELL
      ABC [angstrom]  5.000   5.000  5.000
    &END CELL
    &KIND H
      BASIS_SET ORB  cc-TZ
      BASIS_SET RI_AUX  RI_TZ
      POTENTIAL  GTH-HF-q1
    &END KIND
    &KIND O
      BASIS_SET ORB  cc-TZ
      BASIS_SET RI_AUX  RI_TZ
      POTENTIAL  GTH-HF-q6
    &END KIND
    &COORD
  H      1.75  2.75  0.0
  H      1.75  4.25  0.0
    &END
  &END SUBSYS
&END FORCE_EVAL

! Subsys 1

&FORCE_EVAL
  METHOD Quickstep
  &DFT
    BASIS_SET_FILE_NAME  BASIS_RI_cc-TZ
    POTENTIAL_FILE_NAME   HF_POTENTIALS
    UKS .TRUE.
    MULTIPLICITY 2
    &MGRID
      CUTOFF  100
      REL_CUTOFF  20
    &END MGRID
    &POISSON
    &END POISSON
    &QS
      METHOD GPW
      EPS_DEFAULT 1.0E-15
      EPS_PGF_ORB 1.0E-30
    &END QS
    &SCF
      &OT
       PRECONDITIONER FULL_ALL
      &END
      SCF_GUESS ATOMIC
      MAX_SCF 100
      &PRINT
        &RESTART OFF
        &END
      &END
    &END SCF
    &XC
      &XC_FUNCTIONAL PBE
      &END XC_FUNCTIONAL
    &END XC
  &END DFT
  &SUBSYS
    &CELL
      ABC [angstrom]  5.000   5.000  5.000
    &END CELL
    &KIND H
      BASIS_SET ORB  cc-TZ
      BASIS_SET RI_AUX  RI_TZ
      POTENTIAL  GTH-HF-q1
    &END KIND
    &COORD
  H      1.75  2.75  0.0
    &END
  &END SUBSYS
&END FORCE_EVAL

! Subsys 2

&FORCE_EVAL
  METHOD Quickstep
  &DFT
    BASIS_SET_FILE_NAME  BASIS_RI_cc-TZ
    POTENTIAL_FILE_NAME   HF_POTENTIALS
    UKS .TRUE.
    MULTIPLICITY 2
    &MGRID
      CUTOFF  100
      REL_CUTOFF  20
    &END MGRID
    &POISSON
    &END POISSON
    &QS
      CLUSTER_EMBED_SUBSYS .TRUE.
      METHOD GPW
      EPS_DEFAULT 1.0E-15
      EPS_PGF_ORB 1.0E-30
    &END QS
    &SCF
      &OT
       PRECONDITIONER FULL_ALL
      &END
      SCF_GUESS ATOMIC
      MAX_SCF 100
      &PRINT
        &RESTART OFF
        &END
      &END
    &END SCF
    &XC
      &XC_FUNCTIONAL PBE
      &END XC_FUNCTIONAL
    &END XC
  &END DFT
  &SUBSYS
    &CELL
      ABC [angstrom]  5.000   5.000  5.000
    &END CELL
    &KIND H
      BASIS_SET ORB  cc-TZ
      BASIS_SET RI_AUX  RI_TZ
      POTENTIAL  GTH-HF-q1
    &END KIND
    &COORD
  H      1.75  4.25  0.0
    &END
  &END SUBSYS
&END FORCE_EVAL

! Total system

&FORCE_EVAL
  METHOD Quickstep
  &DFT
    UKS .TRUE.
    MULTIPLICITY 3
    BASIS_SET_FILE_NAME  BASIS_RI_cc-TZ
    POTENTIAL_FILE_NAME   HF_POTENTIALS
    &PRINT
       &E_DENSITY_CUBE LOW
       &END
    &END
    &MGRID
      CUTOFF  100
      REL_CUTOFF  20
    &END MGRID
    &POISSON
    &END POISSON
    &QS
      REF_EMBED_SUBSYS .TRUE.
      METHOD GPW
      EPS_DEFAULT 1.0E-15
      EPS_PGF_ORB 1.0E-30
      &OPT_EMBED
         REG_LAMBDA 0.00001
         N_ITER 50
         DENS_CONV_INT 0.2
         SPIN_DENS_CONV_INT 0.2
         DENS_CONV_MAX 0.02
         SPIN_DENS_CONV_MAX 0.02
         GRID_OPT .TRUE.
         &EMBED_POT_CUBE MEDIUM
         &END
         READ_EMBED_POT_CUBE .TRUE.
         EMBED_CUBE_FILE_NAME  h_h_pbe_pbe0_triplet_grid-embed_pot_002-1_0.cube
         EMBED_SPIN_CUBE_FILE_NAME h_h_pbe_pbe0_triplet_grid-spin_embed_pot_002-1_0.cube
      &END
    &END QS
    &SCF
      &OT
       PRECONDITIONER FULL_ALL
      &END
      SCF_GUESS ATOMIC
      MAX_SCF 100
      &PRINT
        &RESTART OFF
        &END
      &END
    &END SCF
    &XC
      &XC_FUNCTIONAL PBE
      &END XC_FUNCTIONAL
    &END XC
  &END DFT
  &SUBSYS
    &CELL
      ABC [angstrom]  5.000   5.000  5.000
    &END CELL
    &KIND H
      BASIS_SET ORB  cc-TZ
      BASIS_SET RI_AUX  RI_TZ
      POTENTIAL  GTH-HF-q1
    &END KIND
    &COORD
  H      1.75  2.75  0.0
  H      1.75  4.25  0.0
    &END
  &END SUBSYS
&END FORCE_EVAL

! Higher level calculation on subsys 2

&FORCE_EVAL
  METHOD Quickstep
  &DFT
    UKS .TRUE.
    MULTIPLICITY 2
    BASIS_SET_FILE_NAME  BASIS_RI_cc-TZ
    POTENTIAL_FILE_NAME   HF_POTENTIALS
    &MGRID
      CUTOFF  100
      REL_CUTOFF  20
    &END MGRID
    &POISSON
    &END POISSON
    &QS
      HIGH_LEVEL_EMBED_SUBSYS
      METHOD GPW
      EPS_DEFAULT 1.0E-15
      EPS_PGF_ORB 1.0E-30
    &END QS
    &SCF
      &OT
       PRECONDITIONER FULL_ALL
      &END
      SCF_GUESS ATOMIC
      MAX_SCF 100
      &PRINT
        &RESTART OFF
        &END
      &END
    &END SCF
    &XC
      &XC_FUNCTIONAL PBE
          &PBE
             SCALE_X 0.75
             SCALE_C 1.0
          &END
      &END XC_FUNCTIONAL
      &HF
        FRACTION 0.25
        &INTERACTION_POTENTIAL
           POTENTIAL_TYPE TRUNCATED
           CUTOFF_RADIUS  2.45
           T_C_G_DATA  t_c_g.dat
         &END

      &END
    &END XC
  &END DFT
  &SUBSYS
    &CELL
      ABC [angstrom]  5.000   5.000  5.000
    &END CELL
    &KIND H
      BASIS_SET ORB  cc-TZ
      BASIS_SET RI_AUX  RI_TZ
      POTENTIAL  GTH-HF-q1
    &END KIND
    &COORD
  H      1.75  4.25 0.0
    &END
  &END SUBSYS
&END FORCE_EVAL

