&FORCE_EVAL
  METHOD Fist
  &MM
   &FORCEFIELD
      &BEND
        ATOMS H O H
        K [rad^-2kcalmol] 55.0
        THETA0 [deg] 104.52
      &END BEND
      &BOND
        ATOMS O H
        K [angstrom^-2kcalmol] 450.0
        R0 [angstrom] 0.9572
      &END BOND
      &CHARGE
        ATOM O
        CHARGE -0.834
      &END CHARGE
      &CHARGE
        ATOM H
        CHARGE 0.417
      &END CHARGE
      &NONBONDED
        &LENNARD-JONES
          atoms O O
          EPSILON [kcalmol]  0.152073
          SIGMA   [angstrom] 3.1507
          RCUT    [angstrom] 11.4
        &END LENNARD-JONES
        &LENNARD-JONES
          atoms O H
          EPSILON [kcalmol] 0.0836
          SIGMA [angstrom] 1.775
          RCUT  [angstrom] 11.4
        &END LENNARD-JONES
        &LENNARD-JONES
          atoms H H
          EPSILON [kcalmol]  0.04598
          SIGMA   [angstrom] 0.400
          RCUT    [angstrom] 11.4
        &END LENNARD-JONES
      &END NONBONDED
    &END FORCEFIELD
    &POISSON
      &EWALD
        EWALD_TYPE spme
        ALPHA .5
        GMAX 20
        O_SPLINE 6
      &END EWALD
    &END POISSON
  &END MM
  &SUBSYS
    &CELL
      ABC 9.865 9.865 9.865
    &END CELL
    &COORD
    O                  -4.583   5.333   1.560   MOL1
    H                  -3.777   5.331   0.943   MOL1
    H                  -5.081   4.589   1.176   MOL1
    O                  -0.083   4.218   0.070   MOL1
    H                  -0.431   3.397   0.609   MOL1
    H                   0.377   3.756  -0.688   MOL1
    O                  -1.488   2.692   4.125   MOL1
    H                  -2.465   2.433   3.916   MOL1
    H                  -1.268   2.145   4.952   MOL1
    O                  -2.461  -2.548  -6.136   MOL1
    H                  -1.892  -2.241  -6.921   MOL1
    H                  -1.970  -3.321  -5.773   MOL1
    O                   4.032   0.161   2.183   MOL1
    H                   4.272  -0.052   1.232   MOL1
    H                   4.044  -0.760   2.641   MOL1
    O                   2.950  -3.497  -1.006   MOL1
    H                   2.599  -3.901  -0.129   MOL1
    H                   3.193  -4.283  -1.533   MOL1
    O                  -2.890  -4.797  -2.735   MOL1
    H                  -2.810  -5.706  -2.297   MOL1
    H                  -2.437  -4.128  -2.039   MOL1
    O                  -0.553   0.922  -3.731   MOL1
    H                  -0.163   1.552  -3.085   MOL1
    H                  -1.376   0.544  -3.469   MOL1
    O                   4.179   4.017   4.278   MOL1
    H                   3.275   3.832   3.876   MOL1
    H                   4.658   4.492   3.572   MOL1
    O                   5.739   1.425   3.944   MOL1
    H                   5.125   2.066   4.346   MOL1
    H                   5.173   1.181   3.097   MOL1
    O                   0.988  -0.760  -5.445   MOL1
    H                   1.640  -1.372  -4.989   MOL1
    H                   0.546  -0.220  -4.762   MOL1
    O                  -0.748   1.985   1.249   MOL2
    H                  -0.001   1.490   1.540   MOL2
    H                  -1.160   2.255   2.109   MOL2
    O                   4.127  -0.234  -3.149   MOL2
    H                   5.022  -0.436  -3.428   MOL2
    H                   3.540  -0.918  -3.601   MOL2
    O                  -2.473   2.768  -1.395   MOL2
    H                  -1.533   2.719  -1.214   MOL2
    H                  -2.702   1.808  -1.479   MOL2
    O                  -0.124  -2.116   2.404   MOL2
    H                   0.612  -2.593   2.010   MOL2
    H                   0.265  -1.498   3.089   MOL2
    O                   0.728   2.823  -2.190   MOL2
    H                   0.646   3.694  -2.685   MOL2
    H                   1.688   2.705  -1.947   MOL2
    O                   4.256  -5.427  -2.644   MOL2
    H                   5.222  -5.046  -2.479   MOL2
    H                   4.174  -5.628  -3.593   MOL2
    O                  -3.178  -0.508  -4.227   MOL2
    H                  -2.762  -1.221  -4.818   MOL2
    H                  -3.603   0.073  -4.956   MOL2
    O                  -1.449   5.300  -4.805   MOL2
    H                  -1.397   4.470  -5.317   MOL2
    H                  -2.102   5.091  -4.067   MOL2
    O                   3.354   2.192  -1.755   MOL2
    H                   3.407   1.433  -2.405   MOL2
    H                   3.971   2.958  -2.196   MOL2
    O                   1.773  -4.018   1.769   MOL2
    H                   1.121  -4.532   1.201   MOL2
    H                   1.975  -4.529   2.618   MOL2
    O                   1.526   1.384   2.712   MOL3
    H                   2.317   1.070   2.251   MOL3
    H                   1.353   0.657   3.364   MOL3
    O                   2.711  -2.398  -4.253   MOL3
    H                   2.202  -3.257  -4.120   MOL3
    H                   3.305  -2.610  -5.099   MOL3
    O                   6.933   0.093  -1.393   MOL3
    H                   6.160  -0.137  -0.795   MOL3
    H                   6.748  -0.394  -2.229   MOL3
    O                  -5.605  -2.549   3.151   MOL3
    H                  -4.756  -2.503   3.616   MOL3
    H                  -5.473  -3.187   2.378   MOL3
    O                   0.821  -4.406   6.516   MOL3
    H                   0.847  -3.675   7.225   MOL3
    H                  -0.014  -4.240   5.988   MOL3
    O                   1.577   3.933   3.762   MOL3
    H                   1.221   2.975   3.640   MOL3
    H                   1.367   4.126   4.659   MOL3
    O                  -2.111  -3.741  -0.219   MOL3
    H                  -1.378  -4.425  -0.036   MOL3
    H                  -1.825  -2.775   0.003   MOL3
    O                   0.926  -1.961  -2.063   MOL3
    H                   0.149  -1.821  -1.402   MOL3
    H                   1.725  -2.303  -1.536   MOL3
    O                   4.531  -1.030  -0.547   MOL3
    H                   4.290  -1.980  -0.581   MOL3
    H                   4.292  -0.597  -1.390   MOL3
    O                  -0.740  -1.262  -0.029   MOL3
    H                  -1.272  -0.422  -0.099   MOL3
    H                  -0.403  -1.349   0.873   MOL3
    O                   3.655   3.021   0.988   MOL3
    H                   2.706   3.053   1.282   MOL3
    H                   3.542   2.615   0.020   MOL3
    &END COORD
    &COLVAR
      &DISTANCE
        ATOMS 2 3
      &END
    &END
  &END SUBSYS
&END FORCE_EVAL
&GLOBAL
  PROJECT H2O-32_NVT_CSVR_gen3
  RUN_TYPE MD
&END GLOBAL
&MOTION
  &CONSTRAINT
    &COLLECTIVE
      COLVAR 1
      MOLNAME H2O
    &END COLLECTIVE
  &END CONSTRAINT
  &MD
    ENSEMBLE NVT
    STEPS 10
    TIMESTEP 2.5
    TEMPERATURE 300.0
    &THERMOSTAT
       REGION DEFINED
       TYPE CSVR
       &CSVR
         TIMECON 100.
       &END
      &DEFINE_REGION
         MOLNAME MOL1
      &END
      &DEFINE_REGION
         MOLNAME MOL3
      &END
    &END
  &END MD
  &PRINT
    &RESTART
      FILENAME MOLECULE
      COMMON_ITERATION_LEVELS 100
    &END
  &END
&END MOTION
