# single potential constant pressure calculations with volume moves

&GLOBAL
  PROJECT H2O_TMC
  PROGRAM TMC
  RUN_TYPE TMC
  PRINT_LEVEL LOW
  #TRACE
  WALLTIME 00:01:30
&END GLOBAL
&MOTION
  &TMC
      GROUP_ENERGY_SIZE 1
      GROUP_ENERGY_NR 1
      GROUP_CC_SIZE 0
      NUM_MC_ELEM 20
      ENERGY_FILE_NAME H2O_ice.inp
      TEMPERATURE 270
      &MOVE_TYPE      ATOM_TRANS
        SIZE          0.1
        PROB          1
        INIT_ACC_PROB 0.2
      &END
      &MOVE_TYPE      VOL_MOVE
        SIZE          0.1
        PROB          4
      &END
      PRESSURE 0.01
      NUM_MV_ELEM_IN_CELL 1
      RND_DETERMINISTIC 42
      INFO_OUT_STEP_SIZE 100
      RESTART_OUT 0
      PRINT_TEST_OUTPUT
  &END TMC
&END MOTION
