&GLOBAL
  PROJECT hchain
  RUN_TYPE negf
  PRINT_LEVEL low
  EXTENDED_FFT_LENGTHS .true.
&END GLOBAL

&MULTIPLE_FORCE_EVALS
   FORCE_EVAL_ORDER 1 2 3
   MULTIPLE_SUBSYS .true.
&END

&NEGF
   &CONTACT
     &BULK_CONTACT
        MOLNAME L1 L2
     &END
     &SCREENING_REGION
        MOLNAME L0
     &END

     # indices starting from 0 -- primary force_env
     BULK_FORCE_EVAL_SECTION 1

     #FERMI_LEVEL 0.09790647
     ELECTRIC_POTENTIAL [eV] 0

     &PRINT
        &DOS
           FILENAME lead1
        &END
     &END
   &END CONTACT

   &CONTACT
     &BULK_CONTACT
        MOLNAME R1 R2
     &END
     &SCREENING_REGION
        MOLNAME R0
     &END

     BULK_FORCE_EVAL_SECTION 2
     #FERMI_LEVEL 0.09790647
     ELECTRIC_POTENTIAL [eV] 0
   &END CONTACT

    &SCATTERING_REGION
       MOLNAME S
    &END SCATTERING_REGION

    &MIXING
       ALPHA 0.2
       METHOD BROYDEN_MIXING
       NBUFFER 8
    &END MIXING

    INTEGRATION_METHOD simpson
    INTEGRATION_MIN_POINTS 16
    INTEGRATION_MAX_POINTS 128

    ENERGY_LBOUND -2.0
    EPS_DENSITY    1e-3
    EPS_SCF        1e-3
    MAX_SCF        100

    NPROC_POINT 1
&END NEGF


&FORCE_EVAL
  METHOD Quickstep

  &DFT
    BASIS_SET_FILE_NAME BASIS_MOLOPT
    POTENTIAL_FILE_NAME GTH_POTENTIALS

    &MGRID
      CUTOFF 300
    &END MGRID

    &QS
      METHOD gpw
      EPS_DEFAULT 1e-10
    &END QS

    &SCF
      MAX_SCF   10
      EPS_SCF   1e-6
      SCF_GUESS atomic
      ADDED_MOS 100

      &SMEAR
         ELECTRONIC_TEMPERATURE 293
         METHOD FERMI_DIRAC
      &END SMEAR

      &MIXING
         METHOD  BROYDEN_MIXING
         ALPHA   0.3
         NBUFFER 8
      &END MIXING

      &PRINT
         &RESTART
            FILENAME device
         &END RESTART
      &END PRINT
    &END SCF

    &POISSON
       PERIODIC xyz
    &END POISSON

    &XC
      &XC_FUNCTIONAL pbe
      &END XC_FUNCTIONAL
    &END XC
  &END DFT

  &SUBSYS
    &CELL
      ABC    8.00000    8.00000   40.7000
      PERIODIC xyz
    &END CELL

    &COORD
H            0.00000000           0.00000000           0.00000000
H            0.00000000           0.00000000           0.74000000
H            0.00000000           0.00000000           1.48000000
H            0.00000000           0.00000000           2.22000000
H            0.00000000           0.00000000           2.96000000
H            0.00000000           0.00000000           3.70000000
H            0.00000000           0.00000000           4.44000000
H            0.00000000           0.00000000           5.18000000
H            0.00000000           0.00000000           5.92000000
H            0.00000000           0.00000000           6.66000000
H            0.00000000           0.00000000           7.40000000 L2
H            0.00000000           0.00000000           8.14000000 L2
H            0.00000000           0.00000000           8.88000000 L2
H            0.00000000           0.00000000           9.62000000 L2
H            0.00000000           0.00000000          10.36000000 L2
H            0.00000000           0.00000000          11.10000000 L1
H            0.00000000           0.00000000          11.84000000 L1
H            0.00000000           0.00000000          12.58000000 L1
H            0.00000000           0.00000000          13.32000000 L1
H            0.00000000           0.00000000          14.06000000 L1
H            0.00000000           0.00000000          14.80000000 L0
H            0.00000000           0.00000000          15.54000000 L0
H            0.00000000           0.00000000          16.28000000 L0
H            0.00000000           0.00000000          17.02000000 L0
H            0.00000000           0.00000000          17.76000000 L0
H            0.00000000           0.00000000          18.50000000 S
H            0.00000000           0.00000000          19.24000000 S
H            0.00000000           0.00000000          19.98000000 S
H            0.00000000           0.00000000          20.72000000 S
H            0.00000000           0.00000000          21.46000000 S
H            0.00000000           0.00000000          22.20000000 R0
H            0.00000000           0.00000000          22.94000000 R0
H            0.00000000           0.00000000          23.68000000 R0
H            0.00000000           0.00000000          24.42000000 R0
H            0.00000000           0.00000000          25.16000000 R0
H            0.00000000           0.00000000          25.90000000 R1
H            0.00000000           0.00000000          26.64000000 R1
H            0.00000000           0.00000000          27.38000000 R1
H            0.00000000           0.00000000          28.12000000 R1
H            0.00000000           0.00000000          28.86000000 R1
H            0.00000000           0.00000000          29.60000000 R2
H            0.00000000           0.00000000          30.34000000 R2
H            0.00000000           0.00000000          31.08000000 R2
H            0.00000000           0.00000000          31.82000000 R2
H            0.00000000           0.00000000          32.56000000 R2
H            0.00000000           0.00000000          33.30000000
H            0.00000000           0.00000000          34.04000000
H            0.00000000           0.00000000          34.78000000
H            0.00000000           0.00000000          35.52000000
H            0.00000000           0.00000000          36.26000000
H            0.00000000           0.00000000          37.00000000
H            0.00000000           0.00000000          37.74000000
H            0.00000000           0.00000000          38.48000000
H            0.00000000           0.00000000          39.22000000
H            0.00000000           0.00000000          39.96000000
    &END COORD

    &KIND H
      BASIS_SET SZV-MOLOPT-GTH
      POTENTIAL GTH-PBE-q1
    &END KIND
  &END SUBSYS
&END FORCE_EVAL

&FORCE_EVAL
  METHOD Quickstep

  &DFT
    BASIS_SET_FILE_NAME BASIS_MOLOPT
    POTENTIAL_FILE_NAME GTH_POTENTIALS
    WFN_RESTART_FILE_NAME hchain-lead1.kp

    &MGRID
      CUTOFF 300
    &END MGRID

    &QS
      METHOD gpw
      EPS_DEFAULT 1e-10
    &END QS

    &SCF
      MAX_SCF   10
      EPS_SCF   1e-6
      SCF_GUESS atomic
      ADDED_MOS 100

      &SMEAR
         ELECTRONIC_TEMPERATURE 293
         METHOD FERMI_DIRAC
      &END SMEAR

      &MIXING
         METHOD  BROYDEN_MIXING
         ALPHA   0.3
         NBUFFER 8
      &END MIXING

      &PRINT
         &RESTART
            FILENAME lead1
         &END RESTART
      &END PRINT
    &END SCF

    &POISSON
       PERIODIC xyz
    &END POISSON

    &XC
      &XC_FUNCTIONAL pbe
      &END XC_FUNCTIONAL
    &END XC

    &KPOINTS
       SCHEME  MONKHORST-PACK  4 4 4
    &END KPOINTS
  &END DFT

  &SUBSYS
    &CELL
      ABC    8.00000  8.00000  3.70000
      PERIODIC xyz
    &END CELL

    &COORD
H            0.00000000           0.00000000          11.10000000 L1
H            0.00000000           0.00000000          11.84000000 L1
H            0.00000000           0.00000000          12.58000000 L1
H            0.00000000           0.00000000          13.32000000 L1
H            0.00000000           0.00000000          14.06000000 L1
    &END COORD

    &KIND H
      BASIS_SET SZV-MOLOPT-GTH
      POTENTIAL GTH-PBE-q1
    &END KIND
  &END SUBSYS
&END FORCE_EVAL

&FORCE_EVAL
  METHOD Quickstep

  &DFT
    BASIS_SET_FILE_NAME BASIS_MOLOPT
    POTENTIAL_FILE_NAME GTH_POTENTIALS

    &MGRID
      CUTOFF 300
    &END MGRID

    &QS
      METHOD gpw
      EPS_DEFAULT 1e-10
    &END QS

    &SCF
      MAX_SCF   10
      EPS_SCF   1e-6
      SCF_GUESS atomic
      ADDED_MOS 100

      &SMEAR
         ELECTRONIC_TEMPERATURE 293
         METHOD FERMI_DIRAC
      &END SMEAR

      &MIXING
         METHOD  BROYDEN_MIXING
         ALPHA   0.3
         NBUFFER 8
      &END MIXING

      &PRINT
         &RESTART
            FILENAME lead2
         &END RESTART
      &END PRINT
    &END SCF

    &POISSON
       PERIODIC xyz
    &END POISSON

    &XC
      &XC_FUNCTIONAL pbe
      &END XC_FUNCTIONAL
    &END XC

    &KPOINTS
       SCHEME  MONKHORST-PACK  4 4 4
    &END KPOINTS
  &END DFT

  &SUBSYS
    &CELL
      ABC    8.00000  8.00000  3.70000
      PERIODIC xyz
    &END CELL

    &COORD
H            0.00000000           0.00000000          25.90000000 R1
H            0.00000000           0.00000000          26.64000000 R1
H            0.00000000           0.00000000          27.38000000 R1
H            0.00000000           0.00000000          28.12000000 R1
H            0.00000000           0.00000000          28.86000000 R1
    &END COORD

    &KIND H
      BASIS_SET SZV-MOLOPT-GTH
      POTENTIAL GTH-PBE-q1
    &END KIND
  &END SUBSYS
&END FORCE_EVAL
