&FORCE_EVAL
  METHOD Quickstep
  &PROPERTIES
    &LINRES
       PRECONDITIONER FULL_ALL
       EPS 1.e-5
       &POLAR
          DO_RAMAN T
          PERIODIC_DIPOLE_OPERATOR F
       &END
    &END
  &END
  &DFT
    BASIS_SET_FILE_NAME BASIS_SET
    BASIS_SET_FILE_NAME BASIS_ADMM
    CHARGE 1
    LSD
    &QS
      METHOD GAPW_XC
      EPS_DEFAULT 1.e-10
    &END QS
    &AUXILIARY_DENSITY_MATRIX_METHOD
      METHOD BASIS_PROJECTION
      ADMM_PURIFICATION_METHOD NONE
      EXCH_CORRECTION_FUNC PBEX
      EXCH_SCALING_MODEL NONE
    &END
    &MGRID
       CUTOFF 100
       REL_CUTOFF 40
    &END MGRID
    &EFIELD
    &END
    &SCF
      SCF_GUESS ATOMIC
      &OT
         PRECONDITIONER FULL_ALL
         MINIMIZER DIIS
      &END
      &OUTER_SCF
         MAX_SCF  10
         EPS_SCF 1.0E-6
      &END
      MAX_SCF  20
      EPS_SCF 1.0E-6
    &END SCF
    &XC
      &XC_FUNCTIONAL PBE0
      &END XC_FUNCTIONAL
    &END XC
    &PRINT
      &MOMENTS ON
         PERIODIC .FALSE.
         REFERENCE COM
      &END
    &END
  &END DFT
  &SUBSYS
    &CELL
      ABC [angstrom] 4.0 4.0 4.0
      PERIODIC NONE
    &END
    &COORD
    O   0.000000    0.000000   -0.065587
    H   0.000000   -0.757136    0.520545
    H   0.000000    0.757136    0.520545
    &END COORD
    &KIND O
      BASIS_SET SZV-GTH-PADE
      BASIS_SET AUX_FIT fit3  
      POTENTIAL GTH-PBE-q6
    &END KIND
    &KIND H
      BASIS_SET SZV-GTH-PADE
      BASIS_SET AUX_FIT fit3  
      POTENTIAL GTH-PBE-q1
    &END KIND
  &END SUBSYS
&END FORCE_EVAL
&GLOBAL
  PRINT_LEVEL LOW
  PROJECT Gdeb
  RUN_TYPE DEBUG
&END GLOBAL

&DEBUG
   DEBUG_FORCES .FALSE.
   DEBUG_STRESS_TENSOR .FALSE.
   DEBUG_DIPOLE .FALSE.
   DEBUG_POLARIZABILITY .TRUE.
   DE 0.005
   EPS_NO_ERROR_CHECK 5.e-5
&END


