&GLOBAL
  #  TRACE
  PRINT_LEVEL MEDIUM
  PROJECT CH3-hybrid-pbe0-lsd
&END GLOBAL

&FORCE_EVAL
  METHOD Quickstep
  &DFT
    BASIS_SET_FILE_NAME EMSL_BASIS_SETS
    LSD
    POTENTIAL_FILE_NAME POTENTIAL
    &MGRID
      CUTOFF 250
      REL_CUTOFF 50
    &END MGRID
    &POISSON
      PERIODIC NONE
      PSOLVER MT
    &END POISSON
    &QS
      METHOD GAPW
    &END QS
    &SCF
      EPS_SCF 1.0E-6
      IGNORE_CONVERGENCE_FAILURE
      MAX_SCF 2
      SCF_GUESS ATOMIC
    &END SCF
    &XC
      &HF
        FRACTION 0.25
        &MEMORY
          MAX_MEMORY 10
        &END MEMORY
        &SCREENING
          EPS_SCHWARZ 1.0E-16
        &END SCREENING
      &END HF
      &XC_FUNCTIONAL PBE
        &PBE
          SCALE_C 1.0
          SCALE_X 0.75
        &END PBE
      &END XC_FUNCTIONAL
    &END XC
  &END DFT
  &SUBSYS
    &CELL
      ABC 6.0 6.0 6.0
      PERIODIC NONE
    &END CELL
    &COORD
      C   0.000000    0.000000   -0.065587
      H   0.000000   -0.757136    0.520545
      H   0.000000    0.757136    0.520545
      H   0.757136    0.520545    0.000000
    &END COORD
    &KIND H
      BASIS_SET 6-31Gxx
      POTENTIAL ALL
    &END KIND
    &KIND C
      BASIS_SET 6-31Gxx
      POTENTIAL ALL
    &END KIND
  &END SUBSYS
&END FORCE_EVAL
