&GLOBAL
  PRINT_LEVEL LOW
  PROJECT N2
  RUN_TYPE CELL_OPT
&END GLOBAL

&MOTION
  &CELL_OPT
    MAX_ITER 2
  &END CELL_OPT
&END MOTION

&FORCE_EVAL
  METHOD Quickstep
  STRESS_TENSOR ANALYTICAL
  &DFT
    BASIS_SET_FILE_NAME GTH_BASIS_SETS
    POTENTIAL_FILE_NAME GTH_POTENTIALS
    &ENERGY_CORRECTION
      ENERGY_FUNCTIONAL HARRIS
      HARRIS_BASIS HARRIS
      &XC
        &XC_FUNCTIONAL PBE
        &END XC_FUNCTIONAL
      &END XC
    &END ENERGY_CORRECTION
    &MGRID
      CUTOFF 200
    &END MGRID
    &POISSON
      PERIODIC NONE
      POISSON_SOLVER MT
    &END POISSON
    &QS
      EPS_DEFAULT 1.E-10
    &END QS
    &SCF
      EPS_SCF 1.0E-7
      SCF_GUESS ATOMIC
    &END SCF
    &XC
      &XC_FUNCTIONAL PBE
      &END XC_FUNCTIONAL
    &END XC
  &END DFT
  &PRINT
    &FORCES
    &END FORCES
    &STRESS_TENSOR
    &END STRESS_TENSOR
  &END PRINT
  &SUBSYS
    &CELL
      ABC 4.0 4.0 4.0
      PERIODIC NONE
    &END CELL
    &COORD
      N     0.400000     0.000000     0.500000
      N    -0.400000     0.000000    -0.500000
    &END COORD
    &KIND N
      BASIS_SET ORB SZV-GTH
      BASIS_SET HARRIS DZVP-GTH
      POTENTIAL GTH-PADE-q5
    &END KIND
  &END SUBSYS
&END FORCE_EVAL
