&GLOBAL
  PRINT_LEVEL LOW
  PROJECT_NAME Ln
  RUN_TYPE ENERGY
&END GLOBAL

&FORCE_EVAL
  METHOD QS
  &DFT
    BASIS_SET_FILE_NAME BASIS_MOLOPT_LnPP2
    BASIS_SET_FILE_NAME BASIS_MOLOPT
    CHARGE 0
    MULTIPLICITY 1
    POTENTIAL_FILE_NAME LnPP2_POTENTIALS
    &MGRID
      CUTOFF 200
      NGRIDS 4
    &END MGRID
    &QS
      EPS_DEFAULT 1.E-10
    &END QS
    &SCF
      IGNORE_CONVERGENCE_FAILURE
      MAX_SCF 10
      &OT T
        LINESEARCH 2PNT
        MINIMIZER CG
        PRECONDITIONER FULL_ALL
      &END OT
    &END SCF
    &XC
      &XC_FUNCTIONAL PADE
      &END XC_FUNCTIONAL
    &END XC
  &END DFT
  &SUBSYS
    &CELL
      A 1.0000000000000018E+01 0.0000000000000000E+00 0.0000000000000000E+00
      B 0.0000000000000000E+00 1.0000000000000018E+01 0.0000000000000000E+00
      C 0.0000000000000000E+00 0.0000000000000000E+00 1.0000000000000018E+01
    &END CELL
    &COORD
      Lu       -0.029614   -0.000715    0.000000
      Cl        0.182908    2.381815    0.000000
      Cl       -0.029614   -1.189414    2.076008
      Cl       -0.029614   -1.189414   -2.076008
    &END COORD
    &KIND Ce
      BASIS_SET DZVP-MOLOPT-GTH-q11
      POTENTIAL GTH-PBE-q11
    &END KIND
    &KIND Pr
      BASIS_SET DZVP-MOLOPT-GTH-q11
      POTENTIAL GTH-PBE-q11
    &END KIND
    &KIND Nd
      BASIS_SET DZVP-MOLOPT-GTH-q11
      POTENTIAL GTH-PBE-q11
    &END KIND
    &KIND Pm
      BASIS_SET DZVP-MOLOPT-GTH-q11
      POTENTIAL GTH-PBE-q11
    &END KIND
    &KIND Sm
      BASIS_SET DZVP-MOLOPT-GTH-q11
      POTENTIAL GTH-PBE-q11
    &END KIND
    &KIND Eu
      BASIS_SET DZVP-MOLOPT-GTH-q11
      POTENTIAL GTH-PBE-q11
    &END KIND
    &KIND Gd
      BASIS_SET DZVP-MOLOPT-GTH-q11
      POTENTIAL GTH-PBE-q11
    &END KIND
    &KIND Tb
      BASIS_SET DZVP-MOLOPT-GTH-q11
      POTENTIAL GTH-PBE-q11
    &END KIND
    &KIND Dy
      BASIS_SET DZVP-MOLOPT-GTH-q11
      POTENTIAL GTH-PBE-q11
    &END KIND
    &KIND Ho
      BASIS_SET DZVP-MOLOPT-GTH-q11
      POTENTIAL GTH-PBE-q11
    &END KIND
    &KIND Er
      BASIS_SET DZVP-MOLOPT-GTH-q11
      POTENTIAL GTH-PBE-q11
    &END KIND
    &KIND Tm
      BASIS_SET DZVP-MOLOPT-GTH-q11
      POTENTIAL GTH-PBE-q11
    &END KIND
    &KIND Yb
      BASIS_SET DZVP-MOLOPT-GTH-q11
      POTENTIAL GTH-PBE-q11
    &END KIND
    &KIND Lu
      BASIS_SET DZVP-MOLOPT-GTH-q11
      POTENTIAL GTH-PBE-q11
    &END KIND
    &KIND Cl
      BASIS_SET TZV2P-MOLOPT-GTH
      POTENTIAL_TYPE GTH
      &POTENTIAL
        2    5    0    0
        0.41014709847563       1   -6.37852110217338
        2
        0.33955269964986       2   15.21928658839746   -4.93452228977013
        6.37068300920447
        0.37848905310802       1    4.33859776816808
      &END POTENTIAL
    &END KIND
    &TOPOLOGY
      &CENTER_COORDINATES T
      &END CENTER_COORDINATES
    &END TOPOLOGY
  &END SUBSYS
&END FORCE_EVAL
