
&FORCE_EVAL
  METHOD FIST
  &MM
    &FORCEFIELD
      parm_file_name ../../water.pot
      parmtype CHM
      &CHARGE
        ATOM OT
        CHARGE -0.8476
      &END CHARGE
      &CHARGE
        ATOM HT
        CHARGE 0.4238
      &END CHARGE
    &END FORCEFIELD
    &POISSON
      &EWALD
        EWALD_TYPE spme
        ALPHA .44
        GMAX 24
        O_SPLINE 6
      &END EWALD
    &END POISSON
  &END MM
  &SUBSYS
    &CELL
      ABC 24.955 24.955 24.955
      UNIT ANGSTROM
    &END CELL
    &TOPOLOGY
      COORD_FILE_NAME ../../water_1.pdb
      COORDINATE pdb
    &END TOPOLOGY
  &END SUBSYS
&END FORCE_EVAL
&GLOBAL
  PROJECT PROJECT
  RUN_TYPE md
  IOLEVEL SILENT
&END GLOBAL
&MOTION
  &MD
    ENSEMBLE NVE
    STEPS 10
    TIMESTEP 2.5
    TEMPERATURE 298
  &END MD
  &PRINT
    &RESTART_HISTORY OFF
    &END
    &RESTART OFF
    &END
  &END
&END MOTION
