&GLOBAL
  PROJECT  RI_RPA_grad_MP2_H2O_HF_PBE_ADMM
  PRINT_LEVEL MEDIUM
  RUN_TYPE GEO_OPT
  &TIMINGS
     THRESHOLD 0.01
  &END
&END GLOBAL
&MOTION
  &GEO_OPT
    MAX_ITER  1
  &END
&END MOTION
&FORCE_EVAL
  METHOD Quickstep
  &DFT
    BASIS_SET_FILE_NAME  HFX_BASIS
    BASIS_SET_FILE_NAME  BASIS_ADMM
    POTENTIAL_FILE_NAME  POTENTIAL
    &MGRID
      CUTOFF  100
      REL_CUTOFF  20
    &END MGRID
    &POISSON
      PERIODIC XYZ
      POISSON_SOLVER WAVELET
    &END POISSON
    &QS
      METHOD GPW
      EPS_DEFAULT 1.0E-10
    &END QS
    &SCF
      SCF_GUESS RESTART
      EPS_SCF 1.0E-7
      MAX_SCF 100
      ! ADDED_MOS 15000 15000
    &END SCF
    &XC
      &XC_FUNCTIONAL PBE
      &END XC_FUNCTIONAL
      &WF_CORRELATION
        &RI_RPA
          &HF
            FRACTION 1.0000000
            &SCREENING
              EPS_SCHWARZ 1.0E-6
              SCREEN_ON_INITIAL_P FALSE
            &END SCREENING
            &INTERACTION_POTENTIAL
              POTENTIAL_TYPE TRUNCATED
              CUTOFF_RADIUS 1.5
            &END
          &END HF
          ADMM
          MINIMAX
          QUADRATURE_POINTS  4
        &END
        &INTEGRALS
          ERI_METHOD GPW
          &WFC_GPW
            CUTOFF  50
            REL_CUTOFF 20
          &END WFC_GPW
        &END INTEGRALS
        MEMORY  200.
        NUMBER_PROC  1
      &END
    &END XC
    &AUXILIARY_DENSITY_MATRIX_METHOD
      ADMM_PURIFICATION_METHOD NONE
      EXCH_CORRECTION_FUNC PBEX
    &END
  &END DFT
  &SUBSYS
    &CELL
      ABC [angstrom]  4.0 4.0 4.0
      PERIODIC XYZ
    &END CELL
    &KIND H
      BASIS_SET  DZVP-GTH
      BASIS_SET RI_AUX  RI_DZVP-GTH
      BASIS_SET AUX_FIT cFIT3
      POTENTIAL  GTH-HF-q1
    &END KIND
    &KIND O
      BASIS_SET  DZVP-GTH
      BASIS_SET RI_AUX  RI_DZVP-GTH
      BASIS_SET AUX_FIT cFIT3
      POTENTIAL  GTH-HF-q6
    &END KIND
    &TOPOLOGY
      COORD_FILE_NAME  H2O_gas.xyz
      COORD_FILE_FORMAT xyz
      &CENTER_COORDINATES
      &END
    &END TOPOLOGY
  &END SUBSYS
&END FORCE_EVAL
