&GLOBAL
  PRINT_LEVEL HIGH
  PROJECT H2SO4_gxtb_auto_reference_cli_stress
  RUN_TYPE ENERGY_FORCE
&END GLOBAL

&FORCE_EVAL
  STRESS_TENSOR ANALYTICAL
  &DFT
    CHARGE 0
    MULTIPLICITY 1
    &QS
      METHOD xTB
      &XTB
        GFN_TYPE TBLITE
        &TBLITE
          METHOD GXTB
          SCC_MIXER AUTO
          &REFERENCE_CLI
            PROGRAM_NAME tblite
            WORK_DIRECTORY ref-cli-h2so4-stress
            CHECK_VIRIAL T
            ACCURACY 0.01
            ERROR_LIMIT 1.0E-6
          &END REFERENCE_CLI
        &END TBLITE
      &END XTB
    &END QS
    &SCF
      ADDED_MOS -1 -1
      EPS_SCF 1.e-10
      MAX_SCF 300
      SCF_GUESS MOPAC
      &MIXING
        ALPHA 0.2
        METHOD DIRECT_P_MIXING
      &END MIXING
      &SMEAR ON
        ELECTRONIC_TEMPERATURE 300
        METHOD Fermi_Dirac
      &END SMEAR
    &END SCF
  &END DFT
  &SUBSYS
    &CELL
      ABC 15 15 15
      PERIODIC NONE
    &END CELL
    &COORD
      S       8.49998570       8.50000130       8.70848447
      O       9.77239581       8.49999911       9.43746580
      O       7.22760419       8.49999910       9.43745854
      O       8.49999358       9.67923399       7.56253420
      O       8.49999357       7.32075585       7.56254398
      H       8.49999351      10.52889556       8.05627853
      H       8.49999351       6.47110444       8.05630306
    &END COORD
    &TOPOLOGY
      &CENTER_COORDINATES T
      &END CENTER_COORDINATES
    &END TOPOLOGY
  &END SUBSYS
&END FORCE_EVAL
