&GLOBAL
  PRINT_LEVEL LOW
  PROJECT C6H6
  RUN_TYPE ENERGY
&END GLOBAL

&FORCE_EVAL
  METHOD QS
  &DFT
    #    &PRINT
    #       &V_HARTREE_CUBE ON
    #         FILENAME  ./vhpot
    #         STRIDE 4 4 4
    #       &END
    #    &END
    &MGRID
      CUTOFF 200
    &END MGRID
    &QS
      EPS_DEFAULT 1.0E-8
    &END QS
    &SCF
      EPS_SCF 1.0E-6
      MAX_SCF 10
      ## SCF_GUESS ATOMIC
      SCF_GUESS RESTART
      &OT ON
        MINIMIZER DIIS
        PRECONDITIONER FULL_ALL
      &END OT
      &OUTER_SCF
        EPS_SCF 1.0E-6
        MAX_SCF 10
      &END OUTER_SCF
    &END SCF
    &XC
      &XC_FUNCTIONAL Pade
      &END XC_FUNCTIONAL
    &END XC
  &END DFT
  &PROPERTIES
    &TIP_SCAN ON
      REFERENCE_POINT 0.0 0.0 5.0
      SCAN_DIRECTION XY
      SCAN_POINTS 3 3
      SCAN_STEP 0.25 0.25
      TIP_FILENAME ./vpot.cube
    &END TIP_SCAN
  &END PROPERTIES
  &SUBSYS
    &CELL
      ABC 10.0 10.0 10.0
      PERIODIC NONE
    &END CELL
    &COORD
      UNIT BOHR
      C   2.27353301545502 -1.31262489848446  0.00000000000000
      C   2.27353301545502  1.31262489848446  0.00000000000000
      C   0.00000000000000  2.62524979696891  0.00000000000000
      C  -2.27353301545502  1.31262489848446  0.00000000000000
      C  -2.27353301545502 -1.31262489848446  0.00000000000000
      C   0.00000000000000 -2.62524979696891  0.00000000000000
      H   4.03777188872899 -2.33120868688398  0.00000000000000
      H   4.03777188872899  2.33120868688398  0.00000000000000
      H   0.00000000000000  4.66241737376797  0.00000000000000
      H  -4.03777188872899  2.33120868688398  0.00000000000000
      H  -4.03777188872899 -2.33120868688398  0.00000000000000
      H   0.00000000000000 -4.66241737376797  0.00000000000000
    &END COORD
    &KIND H
      BASIS_SET DZV-GTH-PADE
      POTENTIAL GTH-PADE-q1
    &END KIND
    &KIND C
      BASIS_SET DZVP-GTH-PADE
      POTENTIAL GTH-PADE-q4
    &END KIND
  &END SUBSYS
&END FORCE_EVAL
