&GLOBAL
  PRINT_LEVEL MEDIUM
  PROJECT H2O-cneo-gth
&END GLOBAL

&FORCE_EVAL
  METHOD Quickstep
  &DFT
    BASIS_SET_FILE_NAME BASIS_SET
    BASIS_SET_FILE_NAME NUCLEAR_BASIS_SETS
    POTENTIAL_FILE_NAME POTENTIAL
    &MGRID
      CUTOFF 150
      NGRIDS 1
    &END MGRID
    &QS
      ALPHA0_H 10
      EPSFIT 1.E-4
      EPSISO 1.0E-12
      EPSRHO0 1.E-8
      EPSSVD 0.0
      EPS_GVG 1.0E-6
      EPS_PGF_ORB 1.0E-6
      LMAXN0 2
      LMAXN1 6
      METHOD GAPW
      QUADRATURE GC_LOG
    &END QS
    &SCF
      EPS_SCF 1.0E-4
      SCF_GUESS ATOMIC
    &END SCF
    &XC
      &XC_FUNCTIONAL Pade
      &END XC_FUNCTIONAL
    &END XC
  &END DFT
  &SUBSYS
    &CELL
      ABC 6.0 6.0 6.0
    &END CELL
    &COORD
      O   0.000000    0.000000   -0.065587
      H   0.000000   -0.757136    0.520545
      H   0.000000    0.757136    0.520545
    &END COORD
    &KIND H
      BASIS_SET TZVP-ALL-PADE
      BASIS_SET NUC PB4-D
      HARD_EXP_RADIUS 1.5117809071370015011
      LEBEDEV_GRID 50
      POTENTIAL CNEO
      RADIAL_GRID 50
    &END KIND
    &KIND O
      BASIS_SET DZVP-GTH-PADE
      LEBEDEV_GRID 50
      POTENTIAL GTH-PADE-q6
      RADIAL_GRID 50
    &END KIND
  &END SUBSYS
&END FORCE_EVAL
