&GLOBAL
  PRINT_LEVEL MEDIUM
  PROJECT Mu2S-cneo
&END GLOBAL

&FORCE_EVAL
  METHOD Quickstep
  &DFT
    BASIS_SET_FILE_NAME GTH_BASIS_SETS
    BASIS_SET_FILE_NAME EMSL_BASIS_SETS
    BASIS_SET_FILE_NAME NUCLEAR_BASIS_SETS
    POTENTIAL_FILE_NAME POTENTIAL
    &MGRID
      CUTOFF 240
    &END MGRID
    &QS
      EPS_DEFAULT 1.0E-8
      EPS_SVD 0.0
      EXTRAPOLATION PS
      EXTRAPOLATION_ORDER 3
      METHOD GAPW
    &END QS
    &SCF
      EPS_SCF 1.0E-5
      IGNORE_CONVERGENCE_FAILURE
      MAX_SCF 2
      SCF_GUESS ATOMIC
    &END SCF
    &XC
      &XC_FUNCTIONAL BLYP
      &END XC_FUNCTIONAL
    &END XC
  &END DFT
  &SUBSYS
    &CELL
      ABC 4.0 4.0 4.0
    &END CELL
    &COORD
      S 0.0 0.0 0.104467
      H 0.0 0.975586 -0.835734
      H 0.0 -0.975586 -0.835734
    &END COORD
    &KIND H
      BASIS_SET Ahlrichs-def2-SVP
      BASIS_SET NUC PB4-D_Mu
      HARD_EXP_RADIUS 1.5117809071370015011
      MASS 0.1134289259
      POTENTIAL CNEO
    &END KIND
    &KIND S
      BASIS_SET TZV2P-GTH
      POTENTIAL GTH-BLYP-q6
    &END KIND
  &END SUBSYS
&END FORCE_EVAL
