&GLOBAL
  PROJECT ch4-gapw-5
  PRINT_LEVEL LOW
  RUN_TYPE LINEAR_RESPONSE
&END GLOBAL
&FORCE_EVAL
  &DFT
    BASIS_SET_FILE_NAME ../../../data/EMSL_BASIS_SETS
    POTENTIAL_FILE_NAME ../../../data/POTENTIAL
    &MGRID
      CUTOFF 100
      &RS_GRID
        DISTRIBUTION_TYPE DISTRIBUTED
      &END RS_GRID
    &END MGRID
    &QS
      METHOD GAPW
    &END QS
    &SCF
      MAX_SCF 3
      SCF_GUESS ATOMIC
    &END SCF
    &XC
      &XC_FUNCTIONAL BLYP
      &END XC_FUNCTIONAL
    &END XC
  &END DFT
  &PROPERTIES
    &LINRES
       &LOCALIZE
         MAX_ITER 5
       &END
       MAX_ITER 10
       PRECONDITIONER FULL_ALL
       &CURRENT
          GAUGE ATOM
          ORBITAL_CENTER COMMON
       &END CURRENT
       &NMR
          INTERPOLATE_SHIFT T
       &END
    &END
  &END
  &SUBSYS
    &CELL
      ABC 4.0 4.0 4.0
    &END CELL
    &COORD
C  -0.000367    0.000000    0.000481
H   0.638760   -0.000080    0.888272
H   0.207743    0.893069   -0.597225
H   0.207729   -0.892972   -0.597375
H  -1.052031   -0.000017    0.303441
    &END COORD
    &KIND H
      BASIS_SET 3-21G*
      POTENTIAL ALL
    &END KIND
    &KIND C
      BASIS_SET 3-21G*
      POTENTIAL ALL
    &END KIND
  &END SUBSYS
&END FORCE_EVAL
