&GLOBAL
  PRINT_LEVEL LOW
  PROJECT ch4-gapw-gpw-1
  RUN_TYPE LINEAR_RESPONSE
&END GLOBAL

&FORCE_EVAL
  &DFT
    BASIS_SET_FILE_NAME BASIS_SET
    POTENTIAL_FILE_NAME POTENTIAL
    &MGRID
      CUTOFF 80
    &END MGRID
    &QS
      METHOD GAPW
    &END QS
    &SCF
      IGNORE_CONVERGENCE_FAILURE
      MAX_SCF 2
      SCF_GUESS ATOMIC
    &END SCF
    &XC
      &XC_FUNCTIONAL BLYP
      &END XC_FUNCTIONAL
    &END XC
  &END DFT
  &PROPERTIES
    &LINRES
      MAX_ITER 2
      PRECONDITIONER FULL_ALL
      &CURRENT
        COMMON_CENTER 0.0 0.0 0.0
        ORBITAL_CENTER COMMON
      &END CURRENT
      &LOCALIZE
        MAX_ITER 2
      &END LOCALIZE
      &NMR
      &END NMR
    &END LINRES
  &END PROPERTIES
  &SUBSYS
    &CELL
      ABC 5.0 5.0 5.0
    &END CELL
    &COORD
      C  -0.000367    0.000000    0.000481
      H   0.638760   -0.000080    0.888272
      H   0.207743    0.893069   -0.597225
      H   0.207729   -0.892972   -0.597375
      H  -1.052031   -0.000017    0.303441
    &END COORD
    &KIND H
      BASIS_SET 6-31G*
      LEBEDEV_GRID 10
      POTENTIAL ALL
      RADIAL_GRID 20
    &END KIND
    &KIND C
      BASIS_SET SZV-GTH-PADE
      LEBEDEV_GRID 10
      POTENTIAL GTH-BLYP-q4
      RADIAL_GRID 20
    &END KIND
  &END SUBSYS
&END FORCE_EVAL
