 
&GLOBAL
  PROJECT h2-gapw-1
  PRINT_LEVEL LOW
  RUN_TYPE LINEAR_RESPONSE
&END GLOBAL
&FORCE_EVAL
  &DFT
    BASIS_SET_FILE_NAME ../../../data/EMSL_BASIS_SETS
    POTENTIAL_FILE_NAME ../../../data/POTENTIAL
    &MGRID
      CUTOFF 100
    &END MGRID
    &QS
      METHOD GAPW
    &END QS
    &SCF
      MAX_SCF 1
    &END SCF
    &XC
      &XC_FUNCTIONAL BLYP
      &END XC_FUNCTIONAL
    &END XC
  &END DFT
  &PROPERTIES
    &LINRES
       &LOCALIZE
          MAX_ITER 1
       &END
       PRECONDITIONER FULL_ALL
       MAX_ITER 1
       &CURRENT
          ORBITAL_CENTER COMMON
       &END CURRENT
       &NMR
       &END
    &END
  &END
  &SUBSYS
    &CELL
      ABC 5.0 5.0 5.0
    &END CELL
    &KIND H
      LEBEDEV_GRID 10
      RADIAL_GRID 20
      BASIS_SET 3-21G*
      POTENTIAL ALL
      HARD_EXP_RADIUS 0.8
    &END KIND
    &COORD
 H   0.000000    0.000000    0.373334
 H   0.000000    0.000000   -0.373334
    &END COORD
  &END SUBSYS
&END FORCE_EVAL
