&GLOBAL
  PROJECT no-gapw-gpw-1
  PRINT_LEVEL LOW
  RUN_TYPE LINEAR_RESPONSE
&END GLOBAL
&FORCE_EVAL
  &DFT
    LSD T
    MULTIPLICITY 2
    BASIS_SET_FILE_NAME BASIS_SET
    POTENTIAL_FILE_NAME POTENTIAL
    &MGRID
      CUTOFF 80
    &END MGRID
    &QS
      METHOD GAPW
    &END QS
    &SCF
      MAX_SCF 2
      SCF_GUESS ATOMIC
    &END SCF
    &XC
      &XC_FUNCTIONAL BLYP
      &END XC_FUNCTIONAL
    &END XC
  &END DFT
  &PROPERTIES
    &LINRES
       &LOCALIZE
         MAX_ITER 2
       &END
       MAX_ITER 2
       PRECONDITIONER FULL_ALL
       &CURRENT
          ORBITAL_CENTER COMMON
          COMMON_CENTER 0.0 0.0 0.0
       &END CURRENT
       &NMR
       &END
    &END
  &END
  &SUBSYS
    &CELL
      ABC 5.0 5.0 5.0
    &END CELL
    &KIND N
      BASIS_SET 6-31G*
      POTENTIAL ALL
      RADIAL_GRID 20
      LEBEDEV_GRID 10
    &END KIND
    &KIND O
      BASIS_SET SZV-GTH-PADE
      POTENTIAL GTH-BLYP-q6
      RADIAL_GRID 20
      LEBEDEV_GRID 10
    &END KIND
    &COORD
 O   0.000000    0.000000    0.542338
 N   0.000000    0.000000   -0.619815
    &END COORD
  &END SUBSYS
&END FORCE_EVAL
