&FORCE_EVAL
  METHOD Quickstep
  &DFT
    BASIS_SET_FILE_NAME BASIS_SET
    POTENTIAL_FILE_NAME POTENTIAL
    LSD
    &MGRID
      CUTOFF 240
      NGRIDS 1
    &END MGRID
    &QS
      EPS_DEFAULT 1.0E-12
      MAP_CONSISTENT
    &END QS
    &SCF
      EPS_SCF 1.0E-6
      MAX_SCF 5
      SCF_GUESS RANDOM
      &OT ON
      &END OT
    &END SCF
    &XC
      &XC_FUNCTIONAL PADE
      &END XC_FUNCTIONAL
    &END XC
  &END DFT
  &SUBSYS
    &CELL
      ABC 6.0 4.0 4.0
    &END CELL
    &COORD
    H   0.0 0.0 0.0
    H   3.0 0.0 0.0
    &END COORD
    &KIND H
      BASIS_SET DZVP-GTH-PADE
      POTENTIAL GTH-BLYP-q1
    &END KIND
  &END SUBSYS
&END FORCE_EVAL
&GLOBAL
  PROJECT H2-2
&END GLOBAL
