
&FORCE_EVAL
  METHOD Quickstep
  &DFT
    WFN_RESTART_FILE_NAME RESTART
    &MGRID
      CUTOFF 200
    &END MGRID
    &QS
      EPS_DEFAULT 1.0E-10
      EXTRAPOLATION ASPC
      EXTRAPOLATION_ORDER 0
    &END QS
    &SCF
      EPS_SCF 1.0E-6
      MAX_SCF 5
      EPS_SCF_HIST 1.0E-5
      MAX_SCF_HIST 2
      SCF_GUESS HISTORY_RESTART
      &OUTER_SCF
        EPS_SCF 1.0E-6
        MAX_SCF 10
      &END OUTER_SCF
      &OT ON
        MINIMIZER DIIS
      &END OT
    &END SCF
    &XC
      &XC_FUNCTIONAL Pade
      &END XC_FUNCTIONAL
    &END XC
  &END DFT
  &SUBSYS
    &CELL
      ABC 4.0 4.0 4.0
      UNIT ANGSTROM
    &END CELL
    &COORD
    O   0.000000    0.000000   -0.065587
    H   0.000000   -0.757136    0.520545
    H   0.000000    0.757136    0.520545
    &END COORD
    &KIND H
      BASIS_SET DZVP-GTH-PADE
      POTENTIAL GTH-PADE-q1
    &END KIND
    &KIND O
      BASIS_SET DZVP-GTH-PADE
      POTENTIAL GTH-PADE-q6
    &END KIND
  &END SUBSYS
&END FORCE_EVAL
&GLOBAL
  FFTLIB FFTSG

  PROJECT H2O
  RUN_TYPE MD
  PRINT_LEVEL LOW
&END GLOBAL
&MOTION
  &MD
    ENSEMBLE LANGEVIN
    GAMMA 0.0001
    SHADOW_GAMMA 0.01
    STEPS 5
    TIMESTEP 0.1
    TEMPERATURE 300.0
  &END MD
&END MOTION
&EXT_RESTART
  RESTART_FILE_NAME H2O-1.restart
&END EXT_RESTART
