#CPQA DEPENDS H2O-broyden-1.inp

&FORCE_EVAL
  METHOD Quickstep
  &DFT
    BASIS_SET_FILE_NAME BASIS_SET
    POTENTIAL_FILE_NAME POTENTIAL
    &MGRID
      CUTOFF 200
    &END MGRID
    &QS
      EPS_DEFAULT 1.0E-8
    &END QS
    &SCF
      SCF_GUESS RESTART
      EPS_SCF 1.0E-5
      MAX_SCF 20
      &OT
        MINIMIZER BROYDEN
      &END
      &OUTER_SCF
        EPS_SCF 1.0E-5
        MAX_SCF 6
      &END
    &END SCF
    &XC
      &XC_FUNCTIONAL Pade
      &END XC_FUNCTIONAL
    &END XC
  &END DFT
  &SUBSYS
    &CELL
      ABC 5.0 5.0 5.0
    &END CELL
    &COORD
    O   0.000000    0.000000   -0.065587
    H   0.000000   -0.757136    0.520545
    H   0.000000    0.757136    0.520545
    &END COORD
    &KIND H
      BASIS_SET DZVP-GTH-PADE
      POTENTIAL GTH-PADE-q1
    &END KIND
    &KIND O
      BASIS_SET DZVP-GTH-PADE
      POTENTIAL GTH-PADE-q6
    &END KIND
  &END SUBSYS
&END FORCE_EVAL
&GLOBAL
  PROJECT H2O-broyden
  RUN_TYPE MD
  PRINT_LEVEL LOW
&END GLOBAL
&MOTION
   &MD
      STEPS 2
      ENSEMBLE NVE
      TEMPERATURE 300
   &END
&END
