&GLOBAL
  PROJECT gly_noangvel
  RUN_TYPE MD
  PRINT_LEVEL LOW
&END GLOBAL
&FORCE_EVAL
  METHOD Quickstep
  &DFT
    &QS
      METHOD PM6
      &SE
      &END
    &END QS
    &SCF
      MAX_SCF 30
      EPS_SCF 1.0E-7
      SCF_GUESS mopac
      &MIXING
          METHOD DIRECT_P_MIXING
          ALPHA   0.1
      &END
      &OT
        MINIMIZER DIIS
        PRECONDITIONER NONE
      &END
      &OUTER_SCF
        EPS_SCF 1.0E-7
        MAX_SCF 5
      &END
      &PRINT
        &RESTART
          &EACH
            MD      0
            GEO_OPT 0
          &END
          ADD_LAST NUMERIC
        &END
        &RESTART_HISTORY OFF
        &END
      &END
    &END SCF
  &END DFT
  &SUBSYS
    &CELL
      ABC 30. 30. 30.
      PERIODIC NONE
    &END CELL
    &COORD
H   -3.8983049775245973E+00    1.3002283104033299E+00    2.0140176952455726E+00
C   -3.2470667678950580E+00    2.1456568325841858E+00    1.6988959721100318E+00
C   -4.0068494129211505E+00    3.4876133758629240E+00    1.7611501861634231E+00
O   -3.2191238514380931E+00    4.5179429028466007E+00    1.1423368903530997E+00
H   -3.1557992244744955E+00    4.3298494675075263E+00    1.7358082094443117E-01
C   -1.9240233073631130E+00    2.2009706601109844E+00    2.4881030688080350E+00
O   -1.0053284438323109E+00    3.0223278744169013E+00    1.7589716054835618E+00
H   -1.3678811849303769E+00    3.9560225801739595E+00    1.7128420383961833E+00
O   -2.9679375751825989E+00    1.8799745328465036E+00    3.2029388529939046E-01
H   -2.0419989146485626E+00    2.1841374286220754E+00    1.0408810313854576E-01
H   -4.9832280818544623E+00    3.4171118463818542E+00    1.2504876405574370E+00
H   -4.1493736441785574E+00    3.8539520768244206E+00    2.7930118791816452E+00
H   -2.0524814742585202E+00    2.5919097753650000E+00    3.5108311907716327E+00
H   -1.4189781394979690E+00    1.2163503360535519E+00    2.5250210235469726E+00
    &END
    &TOPOLOGY
      CONNECTIVITY OFF
    &END
    &COLVAR
      &DISTANCE
         ATOMS  5 9
      &END
    &END
    &COLVAR
      &DISTANCE
         ATOMS  10 7
      &END
    &END
    &COLVAR
      &DISTANCE
         ATOMS  8 4
      &END
    &END
    &PRINT
      &KINDS
        BASIS_SET
        POTENTIAL
      &END KINDS
    &END PRINT
  &END SUBSYS
&END FORCE_EVAL
&MOTION
  &PRINT
    &TRAJECTORY
      &EACH
        GEO_OPT 10
        MD      10
      &END
      ADD_LAST NUMERIC
    &END
    &RESTART
      &EACH
        GEO_OPT 10000
        MD      10000
      &END
      ADD_LAST NUMERIC
    &END
    &RESTART_HISTORY OFF
    &END
  &END
  &MD
    ENSEMBLE NVT
    STEPS 20
    TIMESTEP 0.25
    TEMPERATURE 300
    ANGVEL_TOL 1.0E-5
    &THERMOSTAT
      REGION GLOBAL
      TYPE CSVR
      &CSVR
        TIMECON [fs] 1000.
      &END
    &END
  &END MD
  &FREE_ENERGY
    &METADYN
      DO_HILLS F
      NT_HILLS 100
      WW 1.0e-3
      &METAVAR
        SCALE 0.1
        COLVAR  1
      &END METAVAR
      &METAVAR
        SCALE 0.1
        COLVAR  2
      &END METAVAR
      &METAVAR
        SCALE 0.1
        COLVAR  3
      &END METAVAR
      &PRINT
       &COLVAR
        &EACH
          METADYNAMICS 1
        &END
        COMMON_ITERATION_LEVELS 10
       &END COLVAR
       &HILLS
        &EACH
          METADYNAMICS 1
        &END
        COMMON_ITERATION_LEVELS 10
       &END HILLS
      &END
    &END METADYN
  &END FREE_ENERGY
&END MOTION
