&FORCE_EVAL
  METHOD QS
  &DFT
    BASIS_SET_FILE_NAME ../GTH_BASIS_SETS
    POTENTIAL_FILE_NAME ../POTENTIAL
    &MGRID
      COMMENSURATE
      CUTOFF 50
    &END MGRID
    &QS
    &END QS
    &SCF
      SCF_GUESS atomic
    &END SCF
    &XC
      &XC_FUNCTIONAL pade
      &END XC_FUNCTIONAL
    &END XC
  &END DFT
  &SUBSYS
    &CELL
      ABC 7.0 7.0 7.0
    &END CELL
    &COORD
   C   2.613500    1.706000    3.004500
   C   2.455500    3.240000    3.180500
   C   3.612500    3.755000    4.046500
   C   4.408500    4.809000    3.305500
   H   3.641500    1.437000    3.081500
   H   2.169500    1.377000    2.134500
   H   2.046500    1.221000    3.696500
   H   1.561500    3.506000    3.783500
   H   2.435500    3.725000    2.256500
   H   4.272500    3.023000    4.358500
   H   3.093500    4.265000    4.865500
   H   5.438500    4.649000    3.456500
   H   4.113500    5.779000    3.625500
   H   4.185500    4.695000    2.283500
    &END COORD
    &KIND H
      BASIS_SET SZV-GTH
      POTENTIAL GTH-PADE-q1
    &END KIND
    &KIND C
      BASIS_SET SZV-GTH
      POTENTIAL GTH-PADE-q4
    &END KIND
  &END SUBSYS
&END FORCE_EVAL
&GLOBAL
  PROJECT C4H10-qmmm-gauss-0
  RUN_TYPE WFN_OPT
  PRINT_LEVEL MEDIUM
&END GLOBAL
