&FORCE_EVAL
  METHOD QMMM
  &DFT
    BASIS_SET_FILE_NAME ../GTH_BASIS_SETS
    POTENTIAL_FILE_NAME ../POTENTIAL
    &MGRID
      COMMENSURATE
      CUTOFF 50
    &END MGRID
    &QS
    &END QS
    &SCF
      SCF_GUESS atomic
    &END SCF
    &XC
      &XC_FUNCTIONAL pade
      &END XC_FUNCTIONAL
    &END XC
  &END DFT
  &MM
    &FORCEFIELD
      parm_file_name ../sample_pot/butane.pot
      parmtype CHM
    &END FORCEFIELD
    &POISSON
      &EWALD
        EWALD_TYPE spme
        ALPHA .44
        GMAX 24
        O_SPLINE 6
      &END EWALD
    &END POISSON
  &END MM
  &QMMM
    MM_POTENTIAL_FILE_NAME ../MM_POTENTIAL
    &CELL
      ABC 10.0 10.0 10.0
    &END CELL
    ECOUPL GAUSS
    NOCOMPATIBILITY
    CENTER NEVER
    &INTERPOLATOR
      EPS_R 1.0e-14
      EPS_X 1.0e-14
      MAXITER 100
    &END INTERPOLATOR
    &LINK
      ALPHA 1.50
      FIST_SCALE_FACTOR 0.0
      LINK_TYPE IMOMM
      MM_INDEX 11
      QM_INDEX 14
      QMMM_SCALE_FACTOR 0.0
      RADIUS 0.80
    &END LINK
    &LINK
      ALPHA 1.50
      FIST_SCALE_FACTOR 0.0
      LINK_TYPE IMOMM
      MM_INDEX 26
      QM_INDEX 23
      QMMM_SCALE_FACTOR 0.0
      RADIUS 0.80
    &END LINK
    &MM_KIND CTL2
      RADIUS 0.78
    &END MM_KIND
    &MM_KIND CTL3
      RADIUS 0.78
    &END MM_KIND
    &MM_KIND HAL2
      RADIUS 0.78
    &END MM_KIND
    &MM_KIND HAL3
      RADIUS 0.78
    &END MM_KIND
    &QM_KIND C
      MM_INDEX 14 17 20 23
    &END QM_KIND
    &QM_KIND H
      MM_INDEX 15 16 18 19 21 22 24 25
    &END QM_KIND
  #
  # QM_KINDS
  #
  #
  # MM_KINDS
  #
  #
  # LINKS
  #
  #
  &END QMMM
  &SUBSYS
    &CELL
      ABC 15.0 15.0 15.0
    &END CELL
    &COORD
 CTL3        5.2415000000        8.5880000000        0.4115000000
 HAL3        6.3305000000        8.5880000000        0.4115000000
 HAL3        4.8785000000        9.6150000000        0.4115000000
 HAL3        4.8785000000        8.0750000000       -0.4775000000
 CTL2        4.7585000000        7.9040000000        1.5955000000
 HAL2        5.1215000000        8.4180000000        2.4845000000
 HAL2        3.6695000000        7.9040000000        1.5955000000
 CTL2        5.2415000000        6.5370000000        1.5955000000
 HAL2        6.3305000000        6.5370000000        1.5955000000
 HAL2        4.8785000000        6.0240000000        0.7065000000
 CTL2        4.7585000000        5.8540000000        2.7795000000
 HAL2        5.1215000000        4.8270000000        2.7795000000
 HAL2        3.6695000000        5.8540000000        2.7795000000
 CTL2        5.2415000000        6.5370000000        3.9635000000
 HAL2        6.3305000000        6.5370000000        3.9635000000
 HAL2        4.8785000000        7.5640000000        3.9635000000
 CTL2        4.7585000000        5.8540000000        5.1475000000
 HAL2        5.1215000000        6.3670000000        6.0365000000
 HAL2        3.6695000000        5.8540000000        5.1475000000
 CTL2        5.2415000000        4.4870000000        5.1475000000
 HAL2        6.3305000000        4.4870000000        5.1475000000
 HAL2        4.8785000000        3.9730000000        4.2585000000
 CTL2        4.7585000000        3.8030000000        6.3315000000
 HAL2        5.1215000000        4.3170000000        7.2205000000
 HAL2        3.6695000000        3.8030000000        6.3315000000
 CTL2        5.2415000000        2.4360000000        6.3315000000
 HAL2        6.3305000000        2.4360000000        6.3315000000
 HAL2        4.8785000000        1.9230000000        5.4415000000
 CTL2        4.7585000000        1.7530000000        7.5155000000
 HAL2        5.1215000000        2.2660000000        8.4045000000
 HAL2        3.6695000000        1.7530000000        7.5155000000
 CTL3        5.2415000000        0.3860000000        7.5155000000
 HAL3        6.3305000000        0.3860000000        7.5155000000
 HAL3        4.9055000000       -0.0900000000        8.3385000000
 HAL3        4.8785000000       -0.1280000000        6.6255000000
    &END
    &KIND H
      BASIS_SET SZV-GTH
      POTENTIAL GTH-PADE-q1
    &END KIND
    &KIND C
      BASIS_SET SZV-GTH
      POTENTIAL GTH-PADE-q4
    &END KIND
    &TOPOLOGY
      CHARGE_BETA
      COORD_FILE_NAME ../sample_pdb/C11H24.pdb
      COORDINATE pdb
    &END TOPOLOGY
  &END SUBSYS
&END FORCE_EVAL
&GLOBAL
  PROJECT constr_hb_qm
  PRINT_LEVEL MEDIUM
  RUN_TYPE MD
&END GLOBAL
&MOTION
  &CONSTRAINT
   &HBONDS
     EXCLUDE_MM
   &END
  &END
  &MD
    ENSEMBLE NVE
    STEPS 2
    TIMESTEP 0.2
  &END MD
&END MOTION
