&FORCE_EVAL
  METHOD QMMM
  &DFT
    CHARGE -12
    BASIS_SET_FILE_NAME ../GTH_BASIS_SETS
    POTENTIAL_FILE_NAME ../POTENTIAL
    &MGRID
      COMMENSURATE
      CUTOFF 50
    &END MGRID
    &POISSON
      PERIODIC NONE
      POISSON_SOLVER MT
      &MT
        ALPHA 7.0
        REL_CUTOFF 1.0
      &END MT
    &END POISSON
    &QS
      EPS_DEFAULT 1.0E-8
      EPS_FILTER_MATRIX 0.0e0
    &END QS
    &SCF
      EPS_SCF 1.0E-6
      MAX_SCF 1
      &MIXING
          METHOD DIRECT_P_MIXING
          ALPHA   0.2
      &END
      SCF_GUESS ATOMIC
    &END SCF
    &XC
      &XC_FUNCTIONAL Pade
      &END XC_FUNCTIONAL
    &END XC
  &END DFT
  &MM
    &FORCEFIELD
      &NONBONDED
        &WILLIAMS
          atoms SI O
          A 208920748.3395
          B 4.87318
          C 1549614.30961
          RCUT 5.0
        &END WILLIAMS
        &WILLIAMS
          atoms SI OZ
          A 208920748.3395
          B 4.87318
          C 1549614.30961
          RCUT 5.0
        &END WILLIAMS
        &WILLIAMS
          atoms SI SI
          A 0.0
          B 0.0
          C 0.0
          RCUT 5.0
        &END WILLIAMS
        &WILLIAMS
          atoms O O
          A 16115719.1363
          B 2.76000
          C 2030750.05696
          RCUT 5.0
        &END WILLIAMS
        &WILLIAMS
          atoms O OZ
          A 16115719.1363
          B 2.76000
          C 2030750.05696
          RCUT 5.0
        &END WILLIAMS
        &WILLIAMS
          atoms OZ OZ
          A 16115719.1363
          B 2.76000
          C 2030750.05696
          RCUT 5.0
        &END WILLIAMS
        &WILLIAMS
          atoms SI H1
          A 0.0
          B 0.0
          C 0.0
          RCUT 2.0
        &END WILLIAMS
        &WILLIAMS
          atoms SI H2
          A 0.0
          B 0.0
          C 0.0
          RCUT 2.0
        &END WILLIAMS
        &WILLIAMS
          atoms SI H3
          A 0.0
          B 0.0
          C 0.0
          RCUT 2.0
        &END WILLIAMS
        &WILLIAMS
          atoms OZ H1
          A 0.0
          B 0.0
          C 0.0
          RCUT 2.0
        &END WILLIAMS
        &WILLIAMS
          atoms OZ H2
          A 0.0
          B 0.0
          C 0.0
          RCUT 2.0
        &END WILLIAMS
        &WILLIAMS
          atoms OZ H3
          A 0.0
          B 0.0
          C 0.0
          RCUT 2.0
        &END WILLIAMS
        &WILLIAMS
          atoms O H1
          A 0.0
          B 0.0
          C 0.0
          RCUT 2.0
        &END WILLIAMS
        &WILLIAMS
          atoms O H2
          A 0.0
          B 0.0
          C 0.0
          RCUT 2.0
        &END WILLIAMS
        &WILLIAMS
          atoms O H3
          A 0.0
          B 0.0
          C 0.0
          RCUT 2.0
        &END WILLIAMS
        &WILLIAMS
          atoms H1 H1
          A 0.0
          B 0.0
          C 0.0
          RCUT 2.0
        &END WILLIAMS
        &WILLIAMS
          atoms H2 H2
          A 0.0
          B 0.0
          C 0.0
          RCUT 2.0
        &END WILLIAMS
        &WILLIAMS
          atoms H3 H3
          A 0.0
          B 0.0
          C 0.0
          RCUT 2.0
        &END WILLIAMS
        &WILLIAMS
          atoms H1 H2
          A 0.0
          B 0.0
          C 0.0
          RCUT 2.0
        &END WILLIAMS
        &WILLIAMS
          atoms H2 H3
          A 0.0
          B 0.0
          C 0.0
          RCUT 2.0
        &END WILLIAMS
        &WILLIAMS
          atoms H1 H3
          A 0.0
          B 0.0
          C 0.0
          RCUT 2.0
        &END WILLIAMS
      &END NONBONDED
    &END FORCEFIELD
    &POISSON
      &EWALD
        EWALD_TYPE ewald
        ALPHA .44
        GMAX 51
      &END EWALD
    &END POISSON
  &END MM
  &QMMM
    MM_POTENTIAL_FILE_NAME ../MM_POTENTIAL
    &CELL
      ABC 12.0 10.0 12.0
    &END
    ECOUPL GAUSS
    NOCOMPATIBILITY
    &PRINT
      &QMMM_CHARGES SILENT
      &END QMMM_CHARGES
    &END PRINT
    &QM_KIND Si
      MM_INDEX 9 11 25 29 30 31
    &END QM_KIND
    &QM_KIND O
      MM_INDEX 56 60 61 96 103 104
    &END QM_KIND
    &QM_KIND OZ
      MM_INDEX 55 57 58 59 62 77 95 97 100 102 113 105
    &END QM_KIND
  #
  # QM_KINDS
  #
  #
  # MM_KINDS
  #
  #
  # LINK
  #
  &END QMMM
  &SUBSYS
    &CELL
      ABC 40.0 40.0 40.0
    &END CELL
    &COORD
     SI         2.9548060272        4.3764542511        4.3406638776
     SI         4.6336373131        1.0364131305        7.9854489687
     SI         2.9121971288        4.2904299200        9.6882780909
     SI         5.2427836311        3.3165733799        6.0261435235
     SI         5.2671569446        3.3038654347       11.5152840105
     SI         4.6997716212        5.6950773958        2.2205132252
     SI         2.7021888675        8.6820069250        4.1487662874
     SI         5.1460382072        8.2614464640        0.5976996591
     SI         4.8207863363        5.7965302886        8.0151140592
     SI         2.9183151705        8.9628620761        9.5947877909
     SI         4.9171452595        8.1077605188        6.0624901295
     SI         4.8610762960        5.6104071510       13.3720163002
     SI         4.9371724042        8.2077982752       11.5072920535
     SI         4.6770207622       10.5837191856        2.6983860820
     SI         4.7067841877       10.6427901871        7.8849116701
     SI         5.0867073720       12.9155785071        6.0631537586
     SI         6.9479507457        1.7962352470        4.2278033635
     SI         8.9825493377        3.4530783854        2.4271952520
     SI        11.2978111325        3.9727945301        4.5650699886
     SI         7.1607443793        1.8117274061        9.3961940393
     SI         9.0641346375        0.6860120570        6.2134432042
     SI         9.1637259966        3.2245680845        7.6417369659
     SI        11.0940759989        4.1721306093        9.8347135627
     SI         7.0921865864        6.7744314616       -0.9691731975
     SI         6.9908768636        6.7887617207        4.1528929332
     SI         9.4093473246        5.7621042377        0.6552200609
     SI         9.0064056037        8.2082165669        2.5026836436
     SI        11.2820535948        8.9031293066        4.6121505555
     SI         7.0782385917        6.7581891877        9.6626553472
     SI         9.4908283858        5.8730594475        5.7185521721
     SI         9.0989502154        8.1083272779        7.7212960099
     SI        11.2754771869        9.0980846578        9.4710584330
     SI         7.0536370364        6.6769941937       15.1372489001
     SI         9.1951862619        5.6079309820       11.7794867748
     SI         8.9981426615        8.1714918596       13.3310902626
     SI         6.9960672453       11.4675310653        4.2341301399
     SI         7.0278075754       11.3612154829        9.7163648205
     SI         9.4408596254       10.7754319155        5.9970467481
     SI         9.0597734651       12.8705710077        8.1003342247
     SI         9.3781700046       10.4458863733       11.3535573074
      O         5.5083229137        1.1723235001        4.0084172688
      O         6.6203160734        2.9938328853        5.3263157167
      O         3.9306173938        3.7436298838        5.2287363956
      O         3.1649905965        0.8771213301        8.7007123324
      O         4.7760592270        2.2588703317        7.0868904956
      O         5.9316742266        0.9853261973        8.7964900270
      O         6.3609344361        2.5970086393       10.6370623833
      O         3.9662438347        3.6086615256       10.6069400152
      O         5.6864069066        5.8773340938       -1.1086343546
      O         6.6681221451        7.9387734189        0.0357417572
      O         4.2421853994        7.9782151361       -0.6196653836
      O         3.4309835164        5.2073218886        3.1731921702
      O         5.3252054026        4.7904216643        1.1819947172
      O         4.7297183236        7.2533533834        1.8299859670
     OZ         5.9387367710        5.7596590874        3.6007424538
      O         6.2161931847        7.5640809970        5.3277138364
     OZ         3.6022292453        7.8448172320        5.2064621379
     OZ         3.4027290907        5.2054460291        8.4219654114
     OZ         5.4758498419        4.8786308046        6.9101085644
      O         4.6431331754        7.2222142858        7.3617981021
      O         5.8751432703        5.8016523189        9.2046454896
     OZ         6.5589974414        7.8223341885       10.6881156003
      O         3.9164995200        7.9098042035       10.1859886840
      O         3.4333773823        4.9943169557       13.5918398730
      O         5.6020025928        4.5256666317       12.3709952770
      O         4.8531385372        7.0051688697       12.5533398023
      O         5.8806401928        5.7643939421       14.6218076809
      O         6.4539799759        7.6828926611       16.2937658329
      O         3.3647380692        9.7793038263        3.3001481663
      O         5.0582858285        9.6856594868        1.3838501242
      O         4.6438094743       12.1020465911        2.5695852638
      O         5.8558362257       10.3348051350        3.8463290056
      O         6.4214621380       12.3827989326        5.4557431815
      O         3.9094304715       12.8945939820        4.9408434315
      O         2.7002769961       10.0294440131       10.8906076208
      O         3.4279659906        9.7564626054        8.3526917158
     OZ         5.1054629654        9.6321196791        6.4067475698
      O         4.6680150011       12.1196367448        7.3054791384
      O         6.0090064994       10.4781251184        8.8059132362
      O         6.4496293687       11.7154128245       11.0839893562
      O         5.0438831198        9.7037267157       11.9170796646
      O         8.1119325358        0.8890490261        4.9620939073
      O         7.7280584060        2.6442997521        3.0843209661
      O         9.6526291118        2.6851443850        1.2947585057
      O        10.0879159279        3.6624274040        3.6205508438
      O        11.7931556533        2.8918764014        5.6837404289
      O         8.3991743895       -0.1187519773        7.4518842678
      O         8.4576410574        1.0848912347        9.7422410587
      O         7.7093885581        2.9745028044        8.3268077578
      O         9.5946003352        2.0923022100        6.6182656572
      O        10.3024368651        3.6069235867        8.7056541406
      O        10.6583824942        4.9102664659        0.3696691279
      O         8.4080024844        6.0822555815       -0.5917398970
      O         8.6177271917        4.9556482159        1.8843195784
     OZ        10.9292729491        5.5906626768        5.0833400753
      O         8.2704524926        6.0288640420        4.7145442765
     OZ         7.4958334725        7.8870017322        3.1314483766
      O         9.4734672285        7.2394422917        1.3603587426
      O        10.2273229048        8.5155253428        3.5619775475
     OZ         9.0617784524        4.7644582122        6.7379150447
      O        10.4378639646        4.8455844819       10.9990092784
     OZ         8.1774514985        5.7796925244       10.2304484460
      O         7.7944852998        7.4732292389        8.3954710395
      O         9.6470625765        7.2886557082        6.4474652433
     OZ        10.2743975162        7.9413927626        8.7814224141
      O         8.2302538221        4.8975123799       12.7590465677
      O         7.6323643520        7.5259495699       13.9268430077
      O         9.4100280413        7.1648899814       12.0983880667
      O         9.9358930163        7.9927967724       14.5372784473
      O        10.7980455295        9.9263099016        5.6248625138
      O         8.3087475559       10.7018943046        4.8297498937
      O         7.2096089087       12.2586792717        2.9459484499
     OZ         8.7402950445        9.5736309428        7.2334617306
      O        10.6908199440        9.7235489404       10.8093732234
      O         8.3737084099       10.5117819740       10.1454120514
      O         7.6650632927       12.5110081041        8.7209503792
      O         9.3146783693       12.1784815180        6.7383081136
      O        10.2798174868       12.4708392871        9.1073904452
      O        11.5050643084       10.3347057042        8.3672186877
      O         8.9376126635        9.6420744803       12.6201089590
     H1         1.8375576724        3.5145493091        3.9744563239
     H1         2.6821866538        5.2875671216        5.4528460213
     H2         4.8385724081       -0.0052788883        7.0108676730
     H1         1.9800139389        3.2780033573        9.1790934106
     H1         2.3749652567        5.1354039156       10.7455922715
     H2         4.7344040798        2.4525845786       12.5562975785
     H1         1.9814608868        7.7346466646        3.3140705325
     H1         1.9060341334        9.3043784941        5.2002938153
     H2         1.7137425799        8.2607737239        9.2138548857
     H2         5.4697473864       14.2335374511        6.5183821019
     H2        12.3264422362        4.2707679923        3.5922080556
     H2        10.3219337191        0.1657229893        5.7210597951
     H1        12.2003238699        3.2950052615       10.1973696091
     H1        11.4174689076        5.2344966021        8.8890249959
     H2         7.5044895715        7.3891244735       -2.2175395915
     H2         8.8141222669        9.5463542603        1.9869990907
     H1        12.0522584721        7.8776506459        5.2897784311
     H1        12.0361820336        9.7268856306        3.6741183571
     H2        12.4684740539        8.2992851634        9.6754580972
     H2         8.1097106323        5.8646311620       15.6934134144
     H2         8.9458438402       14.2888741744        7.8429194866
     H2         9.5135255379       11.8217408326       11.7465140489
     H3         4.8574347259        1.8203758987        4.0816266452
     H3         2.8363789342        1.6749279241        9.0175520022
     H3         4.9630079008        6.5152856767       -1.1519251086
     H3         3.3555421275        8.0404830069       -0.4412984612
     H3         5.4587926692        5.1371018393        0.2806252721
     H3         3.4198387346        4.5725734231       14.3936141683
     H3         6.0403462328        8.4076250021       15.9383147535
     H3         5.5621459069       12.3975704241        2.4920368509
     H3         4.1169165974       12.6496406440        4.0313952128
     H3         2.3604248349       10.8398780763       10.6504105577
     H3         5.9628305686       10.9856291144       11.4926336560
     H3         4.1365817918        9.9871935676       11.6777402586
     H3         9.9173738518        1.8303915848        1.4328410466
     H3        11.0220092806        2.5631515399        6.1439153807
     H3         8.4738565546        0.2300211411        8.3512922520
     H3         9.1726463168        1.6894875406        9.7412237997
     H3        10.4869095314        3.9832636223        0.5354823867
     H3         7.3183531473        4.7930371721       12.5249893429
     H3        10.8062975307        8.0410117464       14.3020437472
     H3         7.8021522451       11.9255067317        2.3443995895
     H3        10.8061389091       11.7013928072        8.8329408363
     H3        11.3769343646       10.1616674344        7.4410570384
    &END COORD
    &KIND SI
      BASIS_SET SZV-GTH
      POTENTIAL GTH-PADE-q4
    &END KIND
    &KIND O
      BASIS_SET SZV-GTH
      POTENTIAL GTH-PADE-q6
    &END KIND
    &KIND OZ
      BASIS_SET SZV-GTH
      CORE_CORRECTION 0.4
      ELEMENT O
      POTENTIAL GTH-PADE-q6
    &END KIND
    &KIND H
      BASIS_SET SZV-GTH
      POTENTIAL GTH-PADE-q1
    &END KIND
    &KIND H1
      ELEMENT H
    &END KIND
    &KIND H2
      ELEMENT H
    &END KIND
    &KIND H3
      ELEMENT H
    &END KIND
    &TOPOLOGY
      CONN_FILE_NAME ../sample_psf/sio2.psf
      CONNECTIVITY UPSF
    &END TOPOLOGY
  &END SUBSYS
&END FORCE_EVAL
&GLOBAL
  PROJECT sio2-qmmm-gauss-1
  RUN_TYPE MD
  PRINT_LEVEL MEDIUM
&END GLOBAL
&MOTION
  &MD
    ENSEMBLE NVE
    STEPS 1
    TIMESTEP 0.5
    TEMPERATURE 298
  &END MD
&END MOTION
