&GLOBAL
  PROJECT water_3_dist
  RUN_TYPE MD
&END GLOBAL

&MOTION
  &CONSTRAINT
    &COLLECTIVE
      COLVAR 1
      MOLNAME MOL1
      TARGET 1.8897268
    &END COLLECTIVE
    &COLLECTIVE
      COLVAR 2
      MOLNAME MOL1
      TARGET 1.8897268
    &END COLLECTIVE
    &COLLECTIVE
      COLVAR 3
      MOLNAME MOL1
      TARGET 3.0859239
    &END COLLECTIVE
  &END CONSTRAINT
  &MD
    ENSEMBLE NVE
    STEPS 3
    TEMPERATURE 298
    TIMESTEP 1.0
  &END MD
&END MOTION

&FORCE_EVAL
  METHOD QMMM
  &DFT
    BASIS_SET_FILE_NAME ../GTH_BASIS_SETS
    POTENTIAL_FILE_NAME ../POTENTIAL
    &MGRID
      COMMENSURATE
      CUTOFF 50
      &INTERPOLATOR
        EPS_R 1.0e-6
        EPS_X 1.0e-6
        MAXITER 100
      &END INTERPOLATOR
    &END MGRID
    &QS
    &END QS
    &SCF
      IGNORE_CONVERGENCE_FAILURE
      MAX_SCF 5
      SCF_GUESS atomic
    &END SCF
    &XC
      &XC_FUNCTIONAL pade
      &END XC_FUNCTIONAL
    &END XC
  &END DFT
  &MM
    &FORCEFIELD
      PARMTYPE CHM
      PARM_FILE_NAME ../sample_pot/../../../Fist/sample_pot/water.pot
      &CHARGE
        ATOM OT
        CHARGE -0.8476
      &END CHARGE
      &CHARGE
        ATOM HT
        CHARGE 0.4238
      &END CHARGE
    &END FORCEFIELD
    &POISSON
      &EWALD
        ALPHA .44
        EWALD_TYPE pme
        NS_MAX 25
      &END EWALD
    &END POISSON
  &END MM
  &QMMM
    ECOUPL GAUSS
    MM_POTENTIAL_FILE_NAME ../MM_POTENTIAL
    NOCOMPATIBILITY
    USE_GEEP_LIB 4
    &CELL
      ABC 6.0 6.0 6.0
    &END CELL
    &MM_KIND H
      RADIUS 0.54
    &END MM_KIND
    &MM_KIND O
      RADIUS 0.73
    &END MM_KIND
    &PRINT
      &MM_POTENTIAL
      &END MM_POTENTIAL
    &END PRINT
    &QM_KIND H
      MM_INDEX 2 3
    &END QM_KIND
    &QM_KIND O
      MM_INDEX 1
    &END QM_KIND
  &END QMMM
  &SUBSYS
    &CELL
      ABC 24.955 24.955 24.955
    &END CELL
    &COLVAR
      &DISTANCE
        ATOMS 1 2
      &END DISTANCE
    &END COLVAR
    &COLVAR
      &DISTANCE
        ATOMS 1 3
      &END DISTANCE
    &END COLVAR
    &COLVAR
      &DISTANCE
        ATOMS 2 3
      &END DISTANCE
    &END COLVAR
    &COORD
      OT   -0.757  -5.616  -7.101    MOL1
      HT   -1.206  -5.714  -6.262    MOL1
      HT    0.024  -5.102  -6.896    MOL1
      OT  -11.317  -2.629  -9.689    MOL2
      HT  -11.021  -3.080 -10.480    MOL2
      HT  -10.511  -2.355  -9.252    MOL2
    &END COORD
    &KIND H
      BASIS_SET SZV-GTH
      POTENTIAL GTH-PADE-q1
    &END KIND
    &KIND O
      BASIS_SET SZV-GTH
      POTENTIAL GTH-PADE-q6
    &END KIND
    &TOPOLOGY
    &END TOPOLOGY
  &END SUBSYS
&END FORCE_EVAL
