&GLOBAL
  PRINT_LEVEL medium
  PROJECT H2O-NONE
  RUN_TYPE MD
&END GLOBAL

&MOTION
  &MD
    ENSEMBLE NVE
    STEPS 3
    TEMPERATURE 300.0
    TIMESTEP 0.5
  &END MD
  &PRINT
    &RESTART
      &EACH
        MD 1
      &END EACH
    &END RESTART
  &END PRINT
&END MOTION

&FORCE_EVAL
  METHOD Quickstep
  &DFT
    BASIS_SET_FILE_NAME BASIS_SET
    POTENTIAL_FILE_NAME POTENTIAL
    &MGRID
      CUTOFF 200
    &END MGRID
    &QS
      EPS_DEFAULT 1.0E-8
    &END QS
    &SCF
      EPS_SCF 1.0E-3
      IGNORE_CONVERGENCE_FAILURE
      MAX_SCF 10
      SCF_GUESS ATOMIC
      &OT
      &END OT
    &END SCF
    &XC
      &XC_FUNCTIONAL PADE
      &END XC_FUNCTIONAL
    &END XC
  &END DFT
  &SUBSYS
    &CELL
      ABC 8.0 8.0 8.0
    &END CELL
    &COORD
      O   0.000000    0.000000   -0.065587
      H   0.000000   -0.757136    0.520545
      H   0.000000    0.757136    0.520545
      Ne  2.0         2.0         2.0
    &END COORD
    &KIND Ne
      BASIS_SET NONE
      GHOST
    &END KIND
    &KIND H
      BASIS_SET DZVP-GTH-BLYP
      POTENTIAL GTH-BLYP-q1
    &END KIND
    &KIND O
      BASIS_SET DZVP-GTH-BLYP
      POTENTIAL GTH-BLYP-q6
    &END KIND
  &END SUBSYS
&END FORCE_EVAL
