&GLOBAL
  PRINT_LEVEL MEDIUM
  PROJECT CELL_DEBUG
  RUN_TYPE CELL_OPT
&END GLOBAL

&EXT_RESTART
  RESTART_DEFAULT T
  RESTART_FILE_NAME CELL_DEBUG-1.restart
&END EXT_RESTART

&MOTION
  &CELL_OPT
    EXTERNAL_PRESSURE [bar] 1.0
    KEEP_ANGLES
    MAX_DR 0.02
    MAX_FORCE 0.002
    MAX_ITER 4
    OPTIMIZER CG
    RMS_DR 0.01
    RMS_FORCE 0.001
    TYPE GEO_OPT
    &CG
      &LINE_SEARCH
        TYPE 2PNT
        &2PNT
        &END 2PNT
      &END LINE_SEARCH
    &END CG
  &END CELL_OPT
  &GEO_OPT
    MAX_ITER 300
    MINIMIZER BFGS
  &END GEO_OPT
&END MOTION

#CPQA DEPENDS cell-1.inp
&FORCE_EVAL
  METHOD Quickstep
  STRESS_TENSOR ANALYTICAL
  &DFT
    BASIS_SET_FILE_NAME GTH_BASIS_SETS
    POTENTIAL_FILE_NAME GTH_POTENTIALS
    &MGRID
      CUTOFF 100
    &END MGRID
    &QS
    &END QS
    &SCF
      SCF_GUESS RESTART
    &END SCF
    &XC
      &XC_FUNCTIONAL Pade
      &END XC_FUNCTIONAL
    &END XC
  &END DFT
  &SUBSYS
    &CELL
      ABC 6.0 6.0 6.0
      &CELL_REF
        ABC 6.0 6.0 6.0
      &END CELL_REF
    &END CELL
    &COORD
      Ar   0.000000  0.000000  0.000000
    &END COORD
    &KIND Ar
      BASIS_SET SZV-GTH
      POTENTIAL GTH-PADE-q8
    &END KIND
  &END SUBSYS
&END FORCE_EVAL
