&FORCE_EVAL
  METHOD Quickstep
  &DFT
    CHARGE +1
    BASIS_SET_FILE_NAME BASIS_SET
    POTENTIAL_FILE_NAME POTENTIAL
    &MGRID
      CUTOFF 200
    &END MGRID
    &QS
    &END QS
    &SCF
      EPS_SCF 1.0E-6
      SCF_GUESS ATOMIC
    &END SCF
    &XC
      &XC_FUNCTIONAL Pade
      &END XC_FUNCTIONAL
    &END XC
    &POISSON
      POISSON_SOLVER MT  
      PERIODIC NONE
    &END
    &EXTERNAL_POTENTIAL
      FUNCTION A
      PARAMETERS A 
      VALUES [eV] 10.0 
    &END
    &PRINT 
      &DERIVATIVES
      &END
    &END
  &END DFT
  &SUBSYS
    &CELL
      ABC 6.0 6.0 6.0
    &END CELL
    &COORD
    H   0.000000    0.000000    0.000000
    &END COORD
    &KIND H
      BASIS_SET DZVP-GTH-PADE
      POTENTIAL GTH-PADE-q1
    &END KIND
    &TOPOLOGY
      &CENTER_COORDINATES
      &END
    &END
  &END SUBSYS
  &PRINT
    &FORCES
    &END
  &END
&END FORCE_EVAL
&GLOBAL
  PROJECT H-extpot
  RUN_TYPE ENERGY_FORCE
  PRINT_LEVEL LOW
&END GLOBAL
