&GLOBAL
  PRINT_LEVEL LOW
  PROJECT h2o-otdiag
  RUN_TYPE ENERGY_FORCE
&END GLOBAL

&FORCE_EVAL
  METHOD Quickstep
  &DFT
    BASIS_SET_FILE_NAME BASIS_SET
    POTENTIAL_FILE_NAME POTENTIAL
    &MGRID
      CUTOFF 200
    &END MGRID
    &QS
      EPS_DEFAULT 1.0E-8
    &END QS
    &SCF
      ADDED_MOS 2
      EPS_DIIS 1.0
      EPS_SCF 1.0E-6
      IGNORE_CONVERGENCE_FAILURE
      MAX_SCF 5
      SCF_GUESS RANDOM
      &DIAGONALIZATION
        ALGORITHM OT
        EPS_ADAPT 0.01
        MAX_ITER 50
        &OT
          MINIMIZER DIIS
          PRECONDITIONER FULL_KINETIC
        &END OT
      &END DIAGONALIZATION
      &SMEAR ON
        ELECTRONIC_TEMPERATURE [K] 300
        METHOD FERMI_DIRAC
      &END SMEAR
    &END SCF
    &XC
      &XC_FUNCTIONAL PADE
      &END XC_FUNCTIONAL
    &END XC
  &END DFT
  &SUBSYS
    &CELL
      ABC 5.0 5.0 5.0
    &END CELL
    &COORD
      O   0.000000    0.000000   -0.065587
      H   0.000000   -0.757136    0.520545
      H   0.000000    0.757136    0.520545
    &END COORD
    &KIND H
      BASIS_SET DZVP-GTH-BLYP
      POTENTIAL GTH-BLYP-q1
    &END KIND
    &KIND O
      BASIS_SET DZVP-GTH-BLYP
      POTENTIAL GTH-BLYP-q6
    &END KIND
  &END SUBSYS
&END FORCE_EVAL
