&FORCE_EVAL
  METHOD Quickstep
  &DFT
    BASIS_SET_FILE_NAME BASIS_SET
    POTENTIAL_FILE_NAME POTENTIAL
    &MGRID
      CUTOFF 200
    &END MGRID
    &QS
      EPS_DEFAULT 1.0E-8
    &END QS
    &SCF
      SCF_GUESS RANDOM
      EPS_SCF 1.0E-6
      EPS_DIIS 1.0
      MAX_SCF 5
      ADDED_MOS 2
      &SMEAR  ON
        METHOD FERMI_DIRAC
        ELECTRONIC_TEMPERATURE [K] 300
      &END SMEAR
      &DIAGONALIZATION
         ALGORITHM OT
         EPS_ADAPT 0.01
         MAX_ITER 50
         &OT
            MINIMIZER DIIS
            PRECONDITIONER FULL_KINETIC
         &END OT
      &END DIAGONALIZATION
    &END SCF
    &XC
      &XC_FUNCTIONAL PADE
      &END XC_FUNCTIONAL
    &END XC
  &END DFT
  &SUBSYS
    &CELL
      ABC 5.0 5.0 5.0
    &END CELL
    &COORD
    O   0.000000    0.000000   -0.065587
    H   0.000000   -0.757136    0.520545
    H   0.000000    0.757136    0.520545
    &END COORD
    &KIND H
      BASIS_SET DZVP-GTH-BLYP
      POTENTIAL GTH-BLYP-q1
    &END KIND
    &KIND O
      BASIS_SET DZVP-GTH-BLYP
      POTENTIAL GTH-BLYP-q6
    &END KIND
  &END SUBSYS
&END FORCE_EVAL
&GLOBAL
  PROJECT h2o-otdiag
  RUN_TYPE ENERGY_FORCE
  PRINT_LEVEL LOW
&END GLOBAL
