&FORCE_EVAL
  METHOD Quickstep
  &DFT
    BASIS_SET_FILE_NAME BASIS_SET
    POTENTIAL_FILE_NAME POTENTIAL
    &POISSON
       PERIODIC NONE
       POISSON WAVELET
       &WAVELET
          SCF_TYPE 14
       &END WAVELET
    &END POISSON
    &MGRID
      CUTOFF 100
    &END MGRID
    &QS
      EPS_DEFAULT 1.0E-8
    &END QS
    &SCF
      EPS_SCF 1.0E-4
      SCF_GUESS ATOMIC
    &END SCF
    &XC
      &XC_FUNCTIONAL Pade
      &END XC_FUNCTIONAL
    &END XC
  &END DFT
  &SUBSYS
    &CELL
      ABC 8.0 8.0 8.0
      PERIODIC NONE
    &END CELL
    &COORD
    O   3.000000    4.000000    2.934413
    H   3.000000    3.242800    3.520545
    H   3.000000    3.757136    3.520545
    &END COORD
    &KIND H
      BASIS_SET DZVP-GTH-PADE
      POTENTIAL GTH-PADE-q1
    &END KIND
    &KIND O
      BASIS_SET DZVP-GTH-PADE
      POTENTIAL GTH-PADE-q6
    &END KIND
  &END SUBSYS
&END FORCE_EVAL
&GLOBAL
  PROJECT H2O_wavelet_free
  RUN_TYPE ENERGY
  PRINT_LEVEL LOW
&END GLOBAL
