&GLOBAL
  PROJECT NO2-EFG-1
  PRINT_LEVEL LOW
  RUN_TYPE WFN_OPT
&END GLOBAL
&FORCE_EVAL
  &DFT
    BASIS_SET_FILE_NAME ../../../data/GTH_BASIS_SETS
    POTENTIAL_FILE_NAME ../../../data/GTH_POTENTIALS
    LSD
    &MGRID
      CUTOFF 100
    &END MGRID
    &QS
    &END QS
    &SCF
      MAX_SCF 4
      SCF_GUESS ATOMIC
    &END SCF
    &XC
      &XC_FUNCTIONAL PADE
      &END XC_FUNCTIONAL
    &END XC
    &PRINT
      &ELECTRIC_FIELD_GRADIENT
         INTERPOLATION
         DEBUG
      &END ELECTRIC_FIELD_GRADIENT
    &END PRINT
  &END DFT
  &SUBSYS
    &CELL
      ABC 6.0 6.0 6.0 
    &END CELL
    &COORD
  N 3.000000  0.000000  0.000000
  O 3.000000  0.000000  1.207900
  O 3.872252  0.000000 -0.835583
    &END COORD
    &KIND N
      BASIS_SET DZVP-GTH
      POTENTIAL GTH-PADE-q5
    &END KIND
    &KIND O
      BASIS_SET DZVP-GTH
      POTENTIAL GTH-PADE-q6
    &END KIND
  &END SUBSYS
&END FORCE_EVAL
