&GLOBAL
  PRINT_LEVEL LOW
  PROGRAM_NAME CP2K
  PROJECT test-pdb
  RUN_TYPE MD
&END GLOBAL

&MOTION
  &MD
    ENSEMBLE NVT
    STEPS 2
    TEMPERATURE 298.15
    TIMESTEP 0.25
    &THERMOSTAT
      &NOSE
      &END NOSE
    &END THERMOSTAT
  &END MD
  &PRINT
    &RESTART
      &EACH
        MD 10
      &END EACH
    &END RESTART
    &TRAJECTORY
      FORMAT DCD
      &EACH
        MD -1
      &END EACH
    &END TRAJECTORY
    &VELOCITIES OFF
    &END VELOCITIES
  &END PRINT
&END MOTION

&FORCE_EVAL
  ! QM subsystem reference run
  METHOD QS
  &DFT
    BASIS_SET_FILE_NAME GTH_BASIS_SETS
    CHARGE 0
    MULTIPLICITY 1
    POTENTIAL_FILE_NAME POTENTIAL
    ! Just to check that in case of failure ATOMIC is the preferred choice..
    RESTART_FILE_NAME NULL_RESTART
    &MGRID
      CUTOFF 50
    &END MGRID
    &QS
      EPS_DEFAULT 1.0E-8
      EPS_FILTER_MATRIX 0.0e0
    &END QS
    &SCF
      IGNORE_CONVERGENCE_FAILURE
      MAX_SCF 4
      SCF_GUESS ATOMIC
    &END SCF
    &XC
      &XC_FUNCTIONAL PBE
      &END XC_FUNCTIONAL
      &XC_GRID
        XC_DERIV SPLINE2
        XC_SMOOTH_RHO NN50
      &END XC_GRID
    &END XC
  &END DFT
  &SUBSYS
    &CELL
      ABC 10.0 12.0 12.0
      PERIODIC NONE
    &END CELL
    &KIND H
      BASIS_SET SZV-GTH
      POTENTIAL GTH-PBE-q1
    &END KIND
    &KIND C
      BASIS_SET SZV-GTH
      POTENTIAL GTH-PBE-q4
    &END KIND
    &KIND N
      BASIS_SET SZV-GTH
      POTENTIAL GTH-PBE-q5
    &END KIND
    &KIND O
      BASIS_SET SZV-GTH
      POTENTIAL GTH-PBE-q6
    &END KIND
    &TOPOLOGY
      COORDINATE PDB
      COORD_FILE_NAME qm-subsys.pdb
    &END TOPOLOGY
  &END SUBSYS
&END FORCE_EVAL
