&GLOBAL
  PRINT_LEVEL LOW
  PROJECT H2Op
  RUN_TYPE DEBUG
&END GLOBAL

&DEBUG
  DE 0.002
  DEBUG_DIPOLE .FALSE.
  DEBUG_FORCES .FALSE.
  DEBUG_POLARIZABILITY .TRUE.
  DEBUG_STRESS_TENSOR .FALSE.
  EPS_NO_ERROR_CHECK 5.e-5
  STOP_ON_MISMATCH T
&END DEBUG

&FORCE_EVAL
  METHOD Quickstep
  &DFT
    BASIS_SET_FILE_NAME BASIS_MOLOPT_UZH
    POTENTIAL_FILE_NAME POTENTIAL_UZH
    &EFIELD
    &END EFIELD
    &POISSON
      PERIODIC NONE
      POISSON_SOLVER MT
    &END POISSON
    &PRINT
      &MOMENTS ON
        PERIODIC .FALSE.
        REFERENCE COM
      &END MOMENTS
    &END PRINT
    &QS
      EPS_DEFAULT 1.e-10
      GAPW_ACCURATE_XCINT T
      METHOD GAPW
    &END QS
    &SCF
      EPS_SCF 1.0E-6
      MAX_SCF 10
      SCF_GUESS ATOMIC
      &OT
        MINIMIZER DIIS
        PRECONDITIONER FULL_ALL
      &END OT
      &OUTER_SCF
        EPS_SCF 1.0E-6
        MAX_SCF 10
      &END OUTER_SCF
    &END SCF
    &XC
      &XC_FUNCTIONAL Pade
      &END XC_FUNCTIONAL
    &END XC
  &END DFT
  &PROPERTIES
    &LINRES
      EPS 1.e-8
      PRECONDITIONER FULL_ALL
      &POLAR
        DO_RAMAN T
        PERIODIC_DIPOLE_OPERATOR F
      &END POLAR
    &END LINRES
  &END PROPERTIES
  &SUBSYS
    &CELL
      ABC [angstrom] 4.0 4.0 4.0
      PERIODIC NONE
    &END CELL
    &COORD
      O   0.000000    0.000000   -0.065587
      H   0.000000   -0.757136    0.520545
      H   0.000000    0.757136    0.520545
    &END COORD
    &KIND H
      BASIS_SET SVP-MOLOPT-GGA-ae
      POTENTIAL ALL
    &END KIND
    &KIND O
      BASIS_SET SVP-MOLOPT-GGA-ae
      POTENTIAL ALL
    &END KIND
    &TOPOLOGY
      &CENTER_COORDINATES
      &END CENTER_COORDINATES
    &END TOPOLOGY
  &END SUBSYS
&END FORCE_EVAL
