&GLOBAL
  PRINT_LEVEL LOW
  PROJECT N2
  RUN_TYPE DEBUG
&END GLOBAL

&DEBUG
  CHECK_ATOM_FORCE 1 z
  DEBUG_FORCES T
  DEBUG_STRESS_TENSOR F
  DX 0.0002
  STOP_ON_MISMATCH T
&END DEBUG

&FORCE_EVAL
  METHOD Quickstep
  &DFT
    BASIS_SET_FILE_NAME BASIS_ADMM_UZH
    POTENTIAL_FILE_NAME POTENTIAL_UZH
    &ENERGY_CORRECTION
      DEBUG_FORCES
      ENERGY_FUNCTIONAL DCDFT
      &RESPONSE_SOLVER
        EPS 1.0E-08
        METHOD MO_SOLVER
        PRECONDITIONER FULL_ALL
      &END RESPONSE_SOLVER
      &XC
        &XC_FUNCTIONAL PBE0
        &END XC_FUNCTIONAL
      &END XC
    &END ENERGY_CORRECTION
    &MGRID
      CUTOFF 300
      REL_CUTOFF 60
    &END MGRID
    &POISSON
      PERIODIC NONE
      POISSON_SOLVER MT
    &END POISSON
    &QS
      METHOD GAPW
    &END QS
    &SCF
      EPS_SCF 1.0E-7
      MAX_SCF 100
      SCF_GUESS ATOMIC
      &OT
        LINESEARCH ADAPT
        MINIMIZER DIIS
        PRECONDITIONER FULL_ALL
      &END OT
    &END SCF
    &XC
      &XC_FUNCTIONAL PBE
      &END XC_FUNCTIONAL
    &END XC
  &END DFT
  &PRINT
    &FORCES ON
    &END FORCES
  &END PRINT
  &SUBSYS
    &CELL
      ABC 5.0 5.0 5.0
      PERIODIC NONE
    &END CELL
    &COORD
      N     0.000000     0.000000     0.650000
      N     0.000000     0.000000    -0.650000
    &END COORD
    &KIND N
      BASIS_SET ORB admm-dzp-q5
      POTENTIAL GTH-GGA-q5
    &END KIND
  &END SUBSYS
&END FORCE_EVAL
