&FORCE_EVAL
  METHOD Quickstep
  &DFT
    &PRINT
      &MOMENTS
      &END
      &DERIVATIVES
      &END
    &END
    &QS
      METHOD xTB
      &xTB
         DO_EWALD F
      &END XTB
    &END QS
    &SCF
      EPS_SCF 1.e-7
      MAX_SCF 30
      &OT
         MINIMIZER        DIIS
         PRECONDITIONER   FULL_S_INVERSE
      &END OT
    &END SCF
    &POISSON
      &EWALD
       ALPHA  10.0
       EWALD_TYPE SPME
       GMAX 75
      &END EWALD
    &END POISSON
    #&PERIODIC_EFIELD
    #   POLARISATION -1 -1 -1
    #   INTENSITY 0.001
    #&END    
    &EFIELD
       POLARISATION 0 0.5 1
       INTENSITY 0.05
    &END    
  &END DFT
  &SUBSYS
    &CELL
      ABC 30.0 30.0 30.0
    &END CELL
    &COORD
    O   0.000000    0.000000   -0.065587 H2O
    H   0.000000   -0.757136    0.520545 H2O
    H   0.000000    0.757136    0.520545 H2O
    &END COORD
  &END SUBSYS
&END FORCE_EVAL
&GLOBAL
  PROJECT H2O-field
  PRINT_LEVEL LOW
  RUN_TYPE DEBUG 
  #RUN_TYPE ENERGY_FORCE
&END GLOBAL
&DEBUG
   DEBUG_FORCES T
   DEBUG_STRESS_TENSOR F
   STOP_ON_MISMATCH F
   DX 0.0001
&END DEBUG

