&FORCE_EVAL
  METHOD Quickstep
  &DFT
    &PRINT
      &MOMENTS
        PERIODIC T
      &END
    &END
    &PERIODIC_EFIELD
       POLARISATION 1 0 0
       INTENSITY 0.001
    &END
    &QS
      METHOD xTB
      EPS_DEFAULT 1.0E-12
      &xTB
        DO_EWALD T
      &END xTB
    &END QS
    &KPOINTS
       SCHEME GAMMA
    &END
    &SCF
      EPS_SCF 1.0E-6
      SCF_GUESS ATOMIC
      MAX_SCF 60
    &END SCF
    &POISSON
      &EWALD
       ALPHA  1.0
       EWALD_TYPE SPME
       GMAX 75
      &END EWALD
    &END POISSON
  &END DFT
  &SUBSYS
    &CELL
      ABC 6.0 6.0 6.0
    &END CELL
    &COORD
    O   0.000000    0.000000   -0.065587 H2O
    H   0.000000   -0.757136    0.520545 H2O
    H   0.000000    0.757136    0.520545 H2O
    &END COORD
  &END SUBSYS
&END FORCE_EVAL
&GLOBAL
  PROJECT H2O-field-gopt
  PRINT_LEVEL MEDIUM
  RUN_TYPE GEO_OPT
&END GLOBAL
&MOTION
   &GEO_OPT
      MAX_ITER 3
   &END
&END

