&GLOBAL
  PRINT_LEVEL LOW
  PROJECT HF
  RUN_TYPE ENERGY
&END GLOBAL

&FORCE_EVAL
  METHOD Quickstep
  &DFT
    &EFIELD
      INTENSITY 0.01
      POLARISATION 1 2 5
    &END EFIELD
    &PRINT
      &MOMENTS
        PERIODIC F
      &END MOMENTS
    &END PRINT
    &QS
      METHOD xTB
    &END QS
  &END DFT
  &SUBSYS
    &CELL
      A 6.0 0.0 0.0
      B 0.0 6.0 0.0
      C 0.0 0.0 6.0
      PERIODIC NONE
    &END CELL
    &COORD
      H   0.000000    0.000000    0.000000
      F   0.940000    0.000000    0.000000
    &END COORD
  &END SUBSYS
&END FORCE_EVAL
