&FORCE_EVAL
  METHOD Quickstep
  &DFT
    &PRINT
      &MOMENTS
        PERIODIC F
      &END
    &END
    &EFIELD
       POLARISATION 1 2 5
       INTENSITY 0.01
    &END
    &QS
      METHOD xTB
    &END QS
  &END DFT
  &SUBSYS
    &CELL
      A  6.0  0.0  0.0
      B  0.0  6.0  0.0
      C  0.0  0.0  6.0
      PERIODIC NONE
    &END CELL
    &COORD
    H   0.000000    0.000000    0.000000
    F   0.940000    0.000000    0.000000
    &END COORD
  &END SUBSYS
&END FORCE_EVAL
&GLOBAL
  PROJECT HF
  PRINT_LEVEL LOW
  RUN_TYPE ENERGY
&END GLOBAL
