&GLOBAL
  PRINT_LEVEL LOW
  PROJECT dip
  RUN_TYPE DEBUG
&END GLOBAL

&DEBUG
  DE 0.002
  DEBUG_DIPOLE .FALSE.
  DEBUG_FORCES .FALSE.
  DEBUG_POLARIZABILITY .TRUE.
  DEBUG_STRESS_TENSOR .FALSE.
  EPS_NO_ERROR_CHECK 5.e-5
&END DEBUG

&FORCE_EVAL
  METHOD Quickstep
  &DFT
    BASIS_SET_FILE_NAME BASIS_SET
    BASIS_SET_FILE_NAME BASIS_ADMM
    &AUXILIARY_DENSITY_MATRIX_METHOD
      ADMM_PURIFICATION_METHOD NONE
      EXCH_CORRECTION_FUNC PBEX
      EXCH_SCALING_MODEL NONE
      METHOD BASIS_PROJECTION
    &END AUXILIARY_DENSITY_MATRIX_METHOD
    &EFIELD
    &END EFIELD
    &MGRID
      CUTOFF 100
    &END MGRID
    &PRINT
      &MOMENTS ON
        PERIODIC .FALSE.
        REFERENCE COM
      &END MOMENTS
    &END PRINT
    &QS
      EPS_DEFAULT 1.e-10
      METHOD GAPW
    &END QS
    &SCF
      EPS_SCF 1.0E-6
      MAX_SCF 10
      SCF_GUESS ATOMIC
      &OT
        MINIMIZER DIIS
        PRECONDITIONER FULL_SINGLE_INVERSE
      &END OT
      &OUTER_SCF
        EPS_SCF 1.0E-6
        MAX_SCF 10
      &END OUTER_SCF
    &END SCF
    &XC
      &XC_FUNCTIONAL PBE0
      &END XC_FUNCTIONAL
    &END XC
  &END DFT
  &PROPERTIES
    &LINRES
      EPS 1.e-5
      PRECONDITIONER FULL_ALL
      &POLAR
        DO_RAMAN T
        PERIODIC_DIPOLE_OPERATOR F
      &END POLAR
    &END LINRES
  &END PROPERTIES
  &SUBSYS
    &CELL
      ABC [angstrom] 4.0 4.0 4.0
      PERIODIC NONE
    &END CELL
    &COORD
      O   0.000000    0.000000   -0.065587
      H   0.000000   -0.757136    0.520545
      H   0.000000    0.757136    0.520545
    &END COORD
    &KIND H
      BASIS_SET ORB SZV-GTH-PADE
      BASIS_SET AUX_FIT cfit3
      POTENTIAL GTH-PADE-q1
    &END KIND
    &KIND O
      BASIS_SET ORB SZV-GTH-PADE
      BASIS_SET AUX_FIT cfit3
      POTENTIAL GTH-PADE-q6
    &END KIND
    &TOPOLOGY
      &CENTER_COORDINATES
      &END CENTER_COORDINATES
    &END TOPOLOGY
  &END SUBSYS
&END FORCE_EVAL
