&GLOBAL
  PRINT_LEVEL LOW
  PROJECT dipole
  RUN_TYPE DEBUG
&END GLOBAL

&DEBUG
  DE 0.002
  DEBUG_DIPOLE .FALSE.
  DEBUG_FORCES .FALSE.
  DEBUG_POLARIZABILITY .TRUE.
  DEBUG_STRESS_TENSOR .FALSE.
  EPS_NO_ERROR_CHECK 1.e-4
&END DEBUG

&FORCE_EVAL
  METHOD Quickstep
  &DFT
    LSD
    &EFIELD
    &END EFIELD
    &PRINT
      &MOMENTS ON
        PERIODIC .FALSE.
        REFERENCE COM
      &END MOMENTS
    &END PRINT
    &QS
      EPS_DEFAULT 1.e-14
      METHOD GPW
    &END QS
    &SCF
      EPS_SCF 1.0E-7
      MAX_SCF 10
      SCF_GUESS ATOMIC
      &OT
        MINIMIZER DIIS
        PRECONDITIONER FULL_SINGLE_INVERSE
      &END OT
      &OUTER_SCF
        EPS_SCF 1.0E-7
        MAX_SCF 10
      &END OUTER_SCF
    &END SCF
    &XC
      &XC_FUNCTIONAL
        &MGGA_C_TPSS
        &END MGGA_C_TPSS
        &MGGA_X_TPSS
        &END MGGA_X_TPSS
      &END XC_FUNCTIONAL
      2ND_DERIV_ANALYTICAL F
    &END XC
  &END DFT
  &PROPERTIES
    &LINRES
      EPS 1.e-09
      PRECONDITIONER FULL_ALL
      &POLAR
        DO_RAMAN T
        PERIODIC_DIPOLE_OPERATOR F
      &END POLAR
    &END LINRES
  &END PROPERTIES
  &SUBSYS
    &CELL
      ABC [angstrom] 6.0 6.0 6.0
      PERIODIC NONE
    &END CELL
    &COORD
      O   0.000000    0.000000   -0.065587
      H   0.000000   -0.757136    0.520545
      H   0.000000    0.757136    0.520545
    &END COORD
    &KIND H
      BASIS_SET DZV-GTH-PADE
      POTENTIAL GTH-PADE-q1
    &END KIND
    &KIND O
      BASIS_SET DZVP-GTH-PADE
      POTENTIAL GTH-PADE-q6
    &END KIND
    &TOPOLOGY
      &CENTER_COORDINATES
      &END CENTER_COORDINATES
    &END TOPOLOGY
  &END SUBSYS
&END FORCE_EVAL
