# Global settings
&GLOBAL
  ECHO_INPUT .false.
  PRINT_LEVEL low
  PROGRAM_NAME cp2k
  PROJECT_NAME ethylene-pbe-4A
  RUN_TYPE energy
  SAVE_MEM .true.
  WALLTIME 01:00:00
  &TIMINGS
    THRESHOLD 1.0e-3
  &END
&END GLOBAL
# Energy & forces calculation
&FORCE_EVAL
  # Electronic structure
  METHOD qs
  STRESS_TENSOR none
  # DFT settings
  &DFT
    # Basis set & pseudopotentials
    BASIS_SET_FILE_NAME GTH_BASIS_SETS
    POTENTIAL_FILE_NAME POTENTIAL
    # Charge & multiplicity
    CHARGE 1
    MULTIPLICITY 2
    SPIN_POLARIZED .true.
    # Realspace multi-grids
    &MGRID
      CUTOFF 150.0 
      REL_CUTOFF 50.0
    &END MGRID
    # QuickStep solver setting
    &QS
      EPS_DEFAULT 1.0e-12
      EXTRAPOLATION ps
      EXTRAPOLATION_ORDER 3 
    &END QS
    # SCF procedure
    &SCF
      MAX_SCF 50
      SCF_GUESS atomic
      EPS_SCF 1.0e-7
      ADDED_MOS 8
      &OT off
      &END OT
      &DIAGONALIZATION on
        ALGORITHM standard
      &END DIAGONALIZATION
      &PRINT
        &RESTART off
        &END
      &END
    &END SCF
    # Exchange-correlation functional
    &XC
      &XC_FUNCTIONAL pbe
      &END XC_FUNCTIONAL
    &END XC
    # Poission solver
    &POISSON
      POISSON_SOLVER wavelet
      PERIODIC none
    &END POISSON
  &END DFT
  # Electronic coupling
  &PROPERTIES
    &ET_COUPLING
      &PROJECTION
        # Donor
        &BLOCK
          ATOMS  1..6
          NELECTRON 12
#          &PRINT
#            MO_COEFF_ATOM 1 2
#            MO_COEFF_ATOM_STATE 6
#            &MO_CUBES
#              MO_LIST 5 6 7
#            &END MO_CUBES
#          &END PRINT
        &END BLOCK
        # Acceptor
        &BLOCK
          ATOMS  7..12
          NELECTRON 12
#          &PRINT
#            MO_COEFF_ATOM 7 8
#            MO_COEFF_ATOM_STATE 6
#            &MO_CUBES
#              NHOMO 2
#              NLUMO 1
#            &END MO_CUBES
#          &END PRINT
        &END BLOCK
        # Restart
        RESTART off
        # Data
#        &PRINT
#          &HAMILTONIAN
#          &END HAMILTONIAN
#          &WAVEFUNCTION
#          &END WAVEFUNCTION
#          &TRANSF_MATRIX_F
#          &END TRANSF_MATRIX_F
#          &TRANSF_MATRIX_R
#          &END TRANSF_MATRIX_R
#          &COUPLING_ELEMENTS
#          &END COUPLING_ELEMENTS
#        &END PRINT
      &END PROJECTION
    &END ET_COUPLING
  &END PROPERTIES
  # System description
  &SUBSYS
    # Cell vectors [A]
    &CELL
      ABC 15.000 15.000 15.000
      ALPHA_BETA_GAMMA 90.0 90.0 90.0
      PERIODIC none
    &END CELL
    # Coordinates [A]
    &COORD
 C         7.5000000731       5.4999998040       6.8371002788
 C         7.5000000707       5.4999996905       8.1631673915
 H         8.4209879288       5.4999999905       6.2692070093
 H         6.5790118631       5.5000000402       6.2692069694
 H         8.4212801266       5.5000002305       8.7306592284
 H         6.5787199379       5.5000002441       8.7306591228
 C         7.5000000731       9.4999998040       6.8371002788
 C         7.5000000707       9.4999996905       8.1631673915
 H         8.4209879288       9.4999999905       6.2692070093
 H         6.5790118631       9.5000000402       6.2692069694
 H         8.4212801266       9.5000002305       8.7306592284
 H         6.5787199379       9.5000002441       8.7306591228
    &END COORD
    # Atomic types
    &KIND H
      BASIS_SET SZV-GTH
      POTENTIAL GTH-PBE
    &END KIND
    &KIND C
      BASIS_SET SZV-GTH
      POTENTIAL GTH-PBE
    &END KIND
  &END SUBSYS
&END FORCE_EVAL
