# Global settings
&GLOBAL
  ECHO_INPUT .false.
  PRINT_LEVEL low
  PROGRAM_NAME cp2k
  PROJECT_NAME furane-pbe-4A
  RUN_TYPE energy
  SAVE_MEM .true.
  WALLTIME 01:00:00
  &TIMINGS
    THRESHOLD 1.0e-3
  &END
&END GLOBAL
# Energy & forces calculation
&FORCE_EVAL
  # Electronic structure
  METHOD qs
  STRESS_TENSOR none
  # DFT settings
  &DFT
    # Basis set & pseudopotentials
    BASIS_SET_FILE_NAME GTH_BASIS_SETS
    POTENTIAL_FILE_NAME POTENTIAL
    # Charge & multiplicity
    CHARGE 1
    MULTIPLICITY 2
    SPIN_POLARIZED .true.
    # Realspace multi-grids
    &MGRID
      CUTOFF 150.0 
      REL_CUTOFF 50.0
    &END MGRID
    # QuickStep solver setting
    &QS
      EPS_DEFAULT 1.0e-12
      EXTRAPOLATION ps
      EXTRAPOLATION_ORDER 3 
    &END QS
    # SCF procedure
    &SCF
      MAX_SCF 50
      SCF_GUESS atomic
      EPS_SCF 1.0e-6
      ADDED_MOS 8
      &OT off
      &END OT
      &DIAGONALIZATION on
        ALGORITHM standard
      &END DIAGONALIZATION
      &PRINT
        &RESTART off
        &END
      &END
    &END SCF
    # Exchange-correlation functional
    &XC
      &XC_FUNCTIONAL pbe
      &END XC_FUNCTIONAL
    &END XC
    # Poission solver
    &POISSON
      POISSON_SOLVER wavelet
      PERIODIC none
    &END POISSON
  &END DFT
  # Electronic coupling
  &PROPERTIES
    &ET_COUPLING
      &PROJECTION
        # Donor
        &BLOCK
          ATOMS  1..9
        &END BLOCK
        # Acceptor
        &BLOCK
          ATOMS  10..18
        &END BLOCK
      &END PROJECTION
    &END ET_COUPLING
  &END PROPERTIES
  # System description
  &SUBSYS
    # Cell vectors [A]
    &CELL
      ABC 15.0 15.0 15.0
      ALPHA_BETA_GAMMA 90.0 90.0 90.0
      PERIODIC none
    &END CELL
    # Coordinates [A]
    &COORD
 C         6.7665581235       5.5000000199       6.7791973437
 C         6.7676417627       5.5000000382       8.2143160679
 C         8.0673260121       5.4999999797       6.4032175002
 O         8.8843295882       5.4999998846       7.5035516885
 C         8.0671578824       5.5000000121       8.6005010339
 H         5.9114186995       5.5000000432       8.8656924142
 H         5.9113218720       5.5000000136       6.1265335853
 H         8.5653286312       5.5000000098       5.4514539610
 H         8.5589174281       5.4999999990       9.5555364051
 C         6.7665581235       9.5000000199       6.7791973437
 C         6.7676417627       9.5000000382       8.2143160679
 C         8.0673260121       9.4999999797       6.4032175002
 O         8.8843295882       9.4999998846       7.5035516885
 C         8.0671578824       9.5000000121       8.6005010339
 H         5.9114186995       9.5000000432       8.8656924142
 H         5.9113218720       9.5000000136       6.1265335853
 H         8.5653286312       9.5000000098       5.4514539610
 H         8.5589174281       9.4999999990       9.5555364051
    &END COORD
    # Atomic types
    &KIND H
      BASIS_SET SZV-GTH
      POTENTIAL GTH-PBE
    &END KIND
    &KIND C
      BASIS_SET SZV-GTH
      POTENTIAL GTH-PBE
    &END KIND
    &KIND O
      BASIS_SET SZV-GTH
      POTENTIAL GTH-PBE
    &END KIND
  &END SUBSYS
&END FORCE_EVAL
