# Global settings
&GLOBAL
  ECHO_INPUT .false.
  PRINT_LEVEL low
  PROGRAM_NAME cp2k
  PROJECT_NAME hellium-blyp-4A
  RUN_TYPE energy
  SAVE_MEM .true.
  WALLTIME 01:00:00
  &TIMINGS
    THRESHOLD 1.0e-3
  &END
&END GLOBAL
# Energy & forces calculation
&FORCE_EVAL
  # Electronic structure
  METHOD qs
  STRESS_TENSOR none
  # DFT settings
  &DFT
    # Basis set & pseudopotentials
    BASIS_SET_FILE_NAME EMSL_BASIS_SETS
    POTENTIAL_FILE_NAME POTENTIAL
    # Charge & multiplicity
    CHARGE 1
    MULTIPLICITY 2
    SPIN_POLARIZED .true.
    # Realspace multi-grids
    &MGRID
      CUTOFF 150.0 
      REL_CUTOFF 50.0
    &END MGRID
    # QuickStep solver setting
    &QS
      EPS_DEFAULT 1.0e-12
      EXTRAPOLATION ps
      EXTRAPOLATION_ORDER 3 
      METHOD GAPW
    &END QS
    # SCF procedure
    &SCF
      MAX_SCF 50
      SCF_GUESS atomic
      EPS_SCF 1.0e-8
      &OT on
        MINIMIZER diis
        PRECONDITIONER full_all
        ENERGY_GAP 0.01
        STEPSIZE 0.15
      &END OT
      &PRINT
        &RESTART off
        &END
      &END
    &END SCF
    # Exchange-correlation functional
    &XC
      &XC_FUNCTIONAL blyp
      &END XC_FUNCTIONAL
    &END XC
    # Poission solver
    &POISSON
      POISSON_SOLVER wavelet
      PERIODIC none
    &END POISSON
  &END DFT
  # Electronic coupling
  &PROPERTIES
    &ET_COUPLING
      &PROJECTION
        # Donor
        &BLOCK
          ATOMS 1
          NELECTRON 1
        &END BLOCK
        # Acceptor
        &BLOCK
          ATOMS 2
          NELECTRON 1
        &END BLOCK
      &END PROJECTION
    &END ET_COUPLING
  &END PROPERTIES
  # System description
  &SUBSYS
    # Cell vectors [A]
    &CELL
      ABC 15.0 15.0 15.0
      ALPHA_BETA_GAMMA 90.0 90.0 90.0
      PERIODIC none
    &END CELL
    # Coordinates [A]
    &COORD
      He   7.500  7.500  5.500
      He   7.500  7.500  9.500
    &END COORD
    # Atomic types
    &KIND He
      BASIS_SET Ahlrichs-def2-QZVP
      POTENTIAL ALL
    &END KIND
  &END SUBSYS
&END FORCE_EVAL
