&GLOBAL
  PROJECT taxol
  RUN_TYPE ENERGY
  PRINT_LEVEL LOW
&END GLOBAL
&FORCE_EVAL
  METHOD QS
  &DFT
    BASIS_SET_FILE_NAME BASIS_MINIX
    POTENTIAL_FILE_NAME POTENTIAL
    &MGRID
      CUTOFF 200
      REL_CUTOFF  30
    &END MGRID
    &QS
      METHOD GAPW
      EPS_DEFAULT 1.e-16
    &END QS
    &SCF
      SCF_GUESS ATOMIC
      MAX_SCF 1
      EPS_SCF 1.0e-6
    &END SCF
    &XC
      &XC_FUNCTIONAL NONE
      &END XC_FUNCTIONAL
      &HF
        &SCREENING
          EPS_SCHWARZ 1.0E-10
        &END
      &END
      &vdW_POTENTIAL
         DISPERSION_FUNCTIONAL PAIR_POTENTIAL
         &PAIR_POTENTIAL
            TYPE DFTD3(BJ)
            D3BJ_SCALING 1.0000 0.4171 0.8777 2.9149
            PARAMETER_FILE_NAME dftd3.dat
            SHORT_RANGE_CORRECTION TRUE
            SHORT_RANGE_CORRECTION_PARAMETERS 0.03 0.70 1.50 0.75
            &PRINT_DFTD
            &END
         &END PAIR_POTENTIAL
      &END vdW_POTENTIAL
      &gcp_potential
         GLOBAL_PARAMETERS  0.1290 1.1549 1.1763 1.1526
         DELTA_ENERGY   H    0.04240
         DELTA_ENERGY   O    0.47901
         DELTA_ENERGY   C    0.27995
         DELTA_ENERGY   N    0.35791
         VERBOSE T
#        elem   emiss   nbas    elem   emiss   nbas    elem   emiss   nbas
#          h    0.04240    1      he   0.02832    1      li   0.17787    5
#          be   0.17160    5      b    0.22424    5      c    0.27995    5
#          n    0.35791    5      o    0.47901    5      f    0.63852    5
#          ne   0.83235    5      na   1.11411    9      mg   1.27115    9
#          al   1.44695   14      si   1.61098   14      p    1.76661   14
#          s    1.98823   14      cl   2.22845   14      ar   2.48796   14
#          k    0.37425   11      ca   0.46097   11      sc   0.44489   21
#          ti   0.40499   21      v    0.37841   21      cr   0.37344   21
#          mn   0.36125   21      fe   0.36001   21      co   0.36293   21
#          ni   0.24380   21      cu   0.40530   21      zn   0.39651   21
#          ga   0.35002   32      ge   0.34578   32      as   0.34953   32
#          se   0.36731   32      br   0.38201   32      kr   0.39971   32
      &END GCP_POTENTIAL
    &END XC
    &POISSON
      PERIODIC NONE
      PSOLVER MT
    &END
  &END DFT
  &SUBSYS
    &CELL
      ABC 20.0 20.0 20.0
      PERIODIC NONE
    &END CELL
    &COORD
       UNIT bohr
   C   -2.75422175362833        4.88205595547640       -3.35668019764011
   C   -4.89636437694867        3.48111474498741       -4.66577349906772
   C   -3.14587898089591        7.00916526986790       -1.47767402736533
   C   -0.39112727923381        3.98833834149900       -3.64501356107012
   C   -4.65506670157627        0.68960657647565       -3.78685362412784
   C   -2.31332074784111        5.93805020424707        1.12814603019323
   C    0.09089322841768        1.46235809123155       -4.91230651085006
   C    1.96693005487524        5.26082579230782       -2.70107385817416
   C   -7.61685041311990        4.41676098862359       -4.27367586421650
   O   -5.62383954061628        8.03714545877456       -1.33049858660306
   C   -4.52045648245173        3.65946126011641       -7.55996679527227
   H   -1.84177110780185        8.57576662860584       -1.89303703430124
   C   -5.13243580268152        0.40403946264478       -0.86393188517975
   C   -3.71347095525440        3.79294546628795        2.51849054375829
   O   -6.61168374546654       -0.65386883548323       -5.01235773979409
   C   -2.10762359900994       -0.42898639683603       -4.65782103220549
   O   -0.35238413511144        6.74945463069459        1.94980804066986
   O    2.22524359337752        0.24754838843429       -3.69760951132643
   C   -5.97657298910859       10.44092860818972       -2.08867755277763
   H   -5.84453199337999        2.39429290249141       -8.50026768917311
   H   -2.61949375929026        3.18064406703739       -8.16681889075526
   H   -4.90473711850306        5.58947877125332       -8.16765575917408
   H   -8.88162145572969        3.15570277168137       -5.30027698963047
   H   -7.83825477939877        6.30836465515381       -5.04920693291460
   H   -8.21625444059990        4.43661593457266       -2.31510552529948
   H    3.48574782410364        4.97906414496096       -4.06580553999356
   H    2.55751755667330        4.45198098416919       -0.89670761081202
   H    1.69543966453997        7.28141481571322       -2.43557502863277
   H    0.62286616389413        1.72785562695556       -6.90321258147153
   C   -3.03248696059022        1.28827683819439        1.03261433538677
   C   -2.66036475699012        3.90306380603502        5.31049897601019
   C   -6.55109930013046        4.33728093195026        2.78265895208614
   O   -5.68447896699966       -2.24003494226763       -0.49225534896911
   H   -6.77127058463450       -2.30742873301951       -4.24721563014199
   C    4.38919515350772       -0.01727680729772       -4.92750625715577
   H   -2.42067549348539       -1.33700865832034       -6.48496725784320
   H   -1.53950069221244       -1.90354293785717       -3.33566589444156
   H   -6.89722109959338        1.40039398258999       -0.45980320279725
   C   -8.65977934424017       11.25189491756870       -1.60795349896372
   O   -4.36186712637548       11.73356468493966       -3.00602571174966
   C   -2.13846158901065       -0.93507487124965        2.71225450939085
   C   -0.17601450117489        2.48050180266109        5.63641123557416
   O   -4.46642024637622        3.09117055703745        7.08004603516665
   H   -1.32761907425908        1.71171379305483       -0.06004279427161
   C   -7.88079656414129       -2.86785289931735        0.62024273043224
   H   -6.79663808729591        5.91464781461330        4.08330652620012
   H   -7.51403163140735        2.69902445675473        3.57087654500199
   H   -7.44886189316021        4.84692014828003        1.01541211055408
   H   -2.32994502928741        5.91837360344958        5.70368188588543
   C    6.23640343719723       -1.71691542074622       -3.48505893590230
   O    4.90608977364205        0.96358302217710       -6.91255859364461
   H   -8.95018172414545       13.14957685773710       -2.33874539972598
   H   -9.01383089081425       11.21828386500458        0.41939820347943
   H   -9.95426564852871        9.93490300004304       -2.51423269320752
   C   -0.50442470804037       -0.30326765337150        5.04548880188861
   C   -3.95357943210590       -2.16405001923217        4.61989078502303
   O   -0.96833297587134       -2.66006294543500        0.96045744368580
   H   -4.06828240944650        1.37755551634343        7.62563495419667
   H    1.26792608465731        3.28800786551726        4.41183663823650
   H    0.44887388611826        2.66812100457173        7.59556351117105
   O   -9.37033865414920       -1.34693826681822        1.43115546398267
   C   -8.23241043866238       -5.64735838430951        0.77816295700356
   C    8.46218736839208       -0.05304708887146       -2.51253314803634
   O    5.02077123832797       -3.02350801140142       -1.53581458156187
   H    6.99182242704328       -3.10269620933609       -4.83385300940165
   O   -2.33116640649002       -1.49977678243844        6.67761982092692
   C    0.01884127140618       -4.88468883322427        1.64225736838665
   H   -4.16500289381031       -4.21140182964611        4.43716572795657
   H   -5.80481804486070       -1.25624563717105        4.78335998170243
   H    1.30702395724853       -1.30312799473358        5.09896111525751
   C  -10.31931343489841       -6.56118929268801        2.10750154472034
   C   -6.53872425052417       -7.33640405183194       -0.33144081060646
   C   10.75166785917711       -1.53835912450025       -1.65885800844686
   N    7.46999111101415        1.63117940305486       -0.54579410827088
   H    9.03497087444481        1.17943011266750       -4.08134444025290
   H    3.72272508337098       -1.95075651250539       -0.78857749276112
   O    0.26038541584440       -5.62138263220708        3.77448961105768
   C    0.79020534468577       -6.42909118298574       -0.62945542330994
   C  -10.69898451734659       -9.14038461994881        2.33461325654239
   C   -6.92948455519594       -9.91464865360206       -0.09902701044444
   H  -11.61898838013555       -5.22445034257893        2.95781253200858
   H   -4.92664885367749       -6.62377821613846       -1.37394969966546
   C   13.06741392749892       -0.28224600190127       -1.57185466919596
   C   10.64491807061757       -4.07394950684923       -0.96743510107778
   C    6.30353106105665        0.59634471844069        1.57090033564930
   H    6.24477407196677        2.88198412021953       -1.34346073680208
   H   -0.45167574558374       -8.06746588469714       -0.73469509421189
   H    2.71612645607674       -7.09512152613059       -0.35626910730471
   H    0.66378643268868       -5.34375908969597       -2.36648836149020
   C   -9.00331942114607      -10.81657464414146        1.23519826465783
   H  -12.31610332239828       -9.85003552359730        3.37248177184792
   H   -5.61190905597755      -11.22746482819311       -0.95799714348069
   C   15.23250461685864       -1.53138908472102       -0.78543460344008
   C   12.81584681145065       -5.32131711143592       -0.18580328467309
   O    4.13643431181960        1.19055530546031        2.07477806937000
   C    7.85671181743914       -1.03597887652096        3.23907719586055
   H   13.16708189075178        1.69320102500146       -2.11033513523406
   H    8.86964807254477       -5.08894394415900       -0.99666723342523
   H   -9.29830568244296      -12.83574606425507        1.41784191742182
   C   15.11010391360424       -4.05696073250481       -0.08711166034559
   C   10.32350874633572       -0.34179122139165        3.85153710083126
   C    6.79252560972846       -3.18951151680852        4.32074038536061
   H   17.01806987741279       -0.52911033379028       -0.71754578030844
   H   12.70545902828425       -7.29286656425878        0.36073524265411
   C   11.72953198165022       -1.82482837492992        5.48955863706336
   C    8.21575004808072       -4.68013477485924        5.93615318804377
   H   16.79925354836453       -5.03600851477630        0.53276304207989
   H   11.11963623702429        1.36747523392382        3.05057597822599
   H    4.86666579164096       -3.70660320433175        3.85606162241743
   C   10.68418523664758       -4.00288306661292        6.51656221602793
   H   13.64856556643712       -1.28400567524983        5.96139006086769
   H    7.39457824978855       -6.36991639262988        6.75199678774226
   H   11.79525679743083       -5.16879168381238        7.78319070073019
    &END COORD
    &KIND DEFAULT
      BASIS_SET minix
      POTENTIAL ALL
    &END
  &END SUBSYS
&END FORCE_EVAL
