&GLOBAL
  PRINT_LEVEL LOW
  PROJECT_NAME CH4
  RUN_TYPE ENERGY
&END GLOBAL

&FORCE_EVAL
  METHOD QS
  &DFT
    BASIS_SET_FILE_NAME BASIS_MOLOPT
    POTENTIAL_FILE_NAME GTH_POTENTIALS
    &MGRID
      CUTOFF 300
    &END MGRID
    &QS
      EPS_DEFAULT 1.E-10
    &END QS
    &SCF
      EPS_DIIS 5.E-01
      EPS_SCF 1.E-07
      MAX_SCF 8
      SCF_GUESS ATOMIC
      &OT T
        MAX_SCF_DIIS 50
        MINIMIZER DIIS
        PRECONDITIONER FULL_SINGLE_INVERSE
      &END OT
      &OUTER_SCF T
        EPS_SCF 1.E-07
        MAX_SCF 10
      &END OUTER_SCF
    &END SCF
    &XC
      &XC_FUNCTIONAL PADE
      &END XC_FUNCTIONAL
    &END XC
  &END DFT
  &SUBSYS
    &CELL
      ABC 7.0 7.0 7.0
    &END CELL
    &COORD
      UNIT bohr
      C    0.00026474546374     -0.00004944796225      0.00002011067719
      H   -1.55635438095221      1.24733156953716     -0.70878205698662
      H    1.24690064087469      1.55729579391513      0.70759640303611
      H    1.55553937841721     -1.24908941102871     -0.70744831954402
      H   -1.24924039242637     -1.55494872170066      0.70839433108420
    &END COORD
    &KIND C
      BASIS_SET ORB DZVP-MOLOPT-SR-GTH
      POTENTIAL GTH-PBE-q4
    &END KIND
    &KIND H
      BASIS_SET ORB DZVP-MOLOPT-SR-GTH
      POTENTIAL GTH-PBE-q1
    &END KIND
    &TOPOLOGY
      &CENTER_COORDINATES
      &END CENTER_COORDINATES
    &END TOPOLOGY
  &END SUBSYS
&END FORCE_EVAL
