&FORCE_EVAL
  METHOD Quickstep
  &DFT
  BASIS_SET_FILE_NAME BASIS_SET
  POTENTIAL_FILE_NAME POTENTIAL
    LSD
    &MGRID
      CUTOFF 200
    &END MGRID
    &QS
      EPS_DEFAULT 1.0E-12
    &END QS
    &SCF
      EPS_SCF 1.0E-6
      MAX_SCF 3
      SCF_GUESS ATOMIC
      &OT ON
      &END OT
    &END SCF
    &XC
      &XC_FUNCTIONAL Pade
      &END XC_FUNCTIONAL
    &END XC
  &END DFT
  &SUBSYS
    &CELL
      ABC 4.0 4.0 4.0
    &END CELL
    &COORD
    H   0.000000  0.0000 0.0000
    &END COORD
    &KIND H
      BASIS_SET DZV-GTH-PADE
      POTENTIAL GTH-PADE-q1
    &END KIND
  &END SUBSYS
&END FORCE_EVAL
&GLOBAL
  PROJECT H-1
  PRINT_LEVEL LOW
&END GLOBAL
&MOTION
  &MD
    ENSEMBLE NVE
    STEPS 5
    TIMESTEP 0.1
    TEMPERATURE 300.0
  &END MD
&END MOTION
