&GLOBAL
  PRINT_LEVEL MEDIUM
  PROJECT H2_trip
  RUN_TYPE ENERGY
&END GLOBAL

&FORCE_EVAL
  METHOD QUICKSTEP
  &DFT
    BASIS_SET_FILE_NAME BASIS_SET
    LSD
    MULTIP 3
    POTENTIAL_FILE_NAME POTENTIAL
    &MGRID
      CUTOFF 200
    &END MGRID
    &QS
      METHOD GPW
    &END QS
    &SCF
      EPS_SCF 1.0E-6
      IGNORE_CONVERGENCE_FAILURE
      MAX_SCF 4
      SCF_GUESS ATOMIC
      &OT ON
        PRECONDITIONER FULL_ALL
      &END OT
    &END SCF
    &XC
      &XC_FUNCTIONAL PADE
      &END XC_FUNCTIONAL
    &END XC
  &END DFT
  &SUBSYS
    &CELL
      ABC 6.0 6.0 6.0
      PERIODIC NONE
    &END CELL
    &COORD
      H     0.000000     0.000000     0.000000
      H     0.720000     0.000000     0.000000
    &END COORD
    &KIND H
      BASIS_SET DZVP-GTH-PADE
      POTENTIAL GTH-PADE-q1
    &END KIND
  &END SUBSYS
&END FORCE_EVAL
