
&FORCE_EVAL
  METHOD Quickstep
  &DFT
  BASIS_SET_FILE_NAME ../../../data/BASIS_SET
  POTENTIAL_FILE_NAME ../../../data/POTENTIAL
    LSD
    &MGRID
      CUTOFF 200
    &END MGRID
    &QS
      EXTRAPOLATION PS 
      EXTRAPOLATION_ORDER 1
    &END QS
    &SCF
      MAX_SCF 2
      SCF_GUESS ATOMIC
      &OT OFF
      &END OT
    &END SCF
    &SIC
      sic_method AD
    &END SIC
    &XC
      &XC_FUNCTIONAL PADE
      &END XC_FUNCTIONAL
    &END XC
  &END DFT
  &SUBSYS
    &CELL
      ABC 5.0 5.0 5.0
    &END CELL
    &COORD
    O   0.000000    0.000000   -0.065587
    H   0.000000   -0.757136    0.520545
    H   0.000000    0.757136    0.520545
    &END COORD
    &KIND O
      BASIS_SET DZVP-GTH-PADE
      POTENTIAL GTH-PADE-q6
    &END KIND
    &KIND H
      BASIS_SET DZVP-GTH-PADE
      POTENTIAL GTH-PADE-q1
    &END KIND
  &END SUBSYS
&END FORCE_EVAL
&GLOBAL
  PROJECT H2O-sic
  PRINT_LEVEL MEDIUM
&END GLOBAL
