&FORCE_EVAL
  METHOD Quickstep
  &DFT
  BASIS_SET_FILE_NAME ../BASIS_SET
  POTENTIAL_FILE_NAME ../POTENTIAL
    &MGRID
      CUTOFF 50
    &END MGRID
    &QS
      &DISTRIBUTION
        &CLUSTERING
           METHOD H_ON_HEAVIER
        &END
        BASIC_OPTIMIZATION T
        COST_MODEL BLOCK_COUNT
      &END
    &END QS
    &SCF
      MAX_SCF 2
      SCF_GUESS ATOMIC
      EPS_SCF 1.0E-4
    &END SCF
    &XC
      &XC_FUNCTIONAL PADE
      &END XC_FUNCTIONAL
    &END XC
  &END DFT
  &SUBSYS
    &CELL
      A  7.07106781186547 7.07106781186547 0.0
      B -7.07106781186547 7.07106781186547 0.0
      C  0.0              0.0             10.0
    &END CELL
    &COORD
    O      0.000000000000000   0.000000000000000  -0.065587000000000
    H     -0.535375999880458  -0.535375999880458   0.520545000000000
    H      0.535375999880458   0.535375999880458   0.520545000000000
    O      2.121320343559642  -2.121320343559642  -0.065587000000000
    H      1.585944343679185  -2.656696343440100   0.520545000000000
    H      2.656696343440100  -1.585944343679185   0.520545000000000
    &END COORD
    &KIND O
      BASIS_SET SZV-GTH-PADE
      POTENTIAL GTH-PADE-q6
    &END KIND
    &KIND H
      BASIS_SET SZV-GTH-PADE
      POTENTIAL GTH-PADE-q1
    &END KIND
  &END SUBSYS
&END FORCE_EVAL
&GLOBAL
  PROJECT H2O
  PRINT_LEVEL MEDIUM
&END GLOBAL

