&GLOBAL
  PRINT_LEVEL MEDIUM
  PROJECT H2O-1
&END GLOBAL

&FORCE_EVAL
  METHOD Quickstep
  &DFT
    BASIS_SET_FILE_NAME BASIS_SET
    POTENTIAL_FILE_NAME POTENTIAL
    &MGRID
      CUTOFF 200
    &END MGRID
    &QS
      EXTRAPOLATION PS
      EXTRAPOLATION_ORDER 1
    &END QS
    &SCF
      IGNORE_CONVERGENCE_FAILURE
      MAX_SCF 1
      SCF_GUESS ATOMIC
      &OT
      &END OT
    &END SCF
    &XC
      &XC_FUNCTIONAL PADE
      &END XC_FUNCTIONAL
    &END XC
  &END DFT
  &SUBSYS
    &CELL
      ABC 5.0 5.0 5.0
    &END CELL
    &COORD
      O   0.000000    0.000000   -0.065587
      H   0.000000   -0.757136    0.520545
      H   0.000000    0.757136    0.520545
    &END COORD
    &KIND O
      BASIS_SET DZVP-GTH-PADE
      ELEC_CONF 2 4
      POTENTIAL GTH-PADE-q6
    &END KIND
    &KIND H
      BASIS_SET DZVP-GTH-PADE
      ELEC_CONF 1
      POTENTIAL GTH-PADE-q1
    &END KIND
  &END SUBSYS
&END FORCE_EVAL
