&FORCE_EVAL
  METHOD Quickstep
  &DFT
  BASIS_SET_FILE_NAME BASIS_SET
  POTENTIAL_FILE_NAME POTENTIAL
    &MGRID
      CUTOFF 200
    &END MGRID
    &QS
    &END QS
    &SCF
      MAX_SCF 5
      SCF_GUESS ATOMIC
      EPS_SCF 1.0E-4
      &OT 
        MINIMIZER BROYDEN
        BROYDEN_SIGMA 0.4
        BROYDEN_BETA  0.7
        BROYDEN_GAMMA  0.5
      &END OT
    &END SCF
    &XC
      &XC_FUNCTIONAL PADE
      &END XC_FUNCTIONAL
    &END XC
  &END DFT
  &SUBSYS
    &CELL
      ABC 5.0 5.0 5.0
    &END CELL
    &COORD
    O   0.000000    0.000000   -0.065587
    H   0.000000   -0.757136    0.520545
    H   0.000000    0.757136    0.520545
    &END COORD
    &KIND O
      BASIS_SET DZVP-GTH-PADE
      POTENTIAL GTH-PADE-q6
    &END KIND
    &KIND H
      BASIS_SET DZVP-GTH-PADE
      POTENTIAL GTH-PADE-q1
    &END KIND
  &END SUBSYS
&END FORCE_EVAL
&GLOBAL
  PROJECT H2O-broy
  PRINT_LEVEL MEDIUM
&END GLOBAL
