&FORCE_EVAL
  METHOD Quickstep
  &DFT
  BASIS_SET_FILE_NAME ../../../data/BASIS_SET
  POTENTIAL_FILE_NAME ../../../data/POTENTIAL
    &MGRID
      CUTOFF 50
    &END MGRID
    &QS
      &DISTRIBUTION
        BASIC_OPTIMIZATION T
      &END
    &END QS
    &SCF
      MAX_SCF 2
      SCF_GUESS ATOMIC
      EPS_SCF 1.0E-4
    &END SCF
    &XC
      &XC_FUNCTIONAL PADE
      &END XC_FUNCTIONAL
    &END XC
  &END DFT
  &SUBSYS
    &CELL
      ABC 10.0 10.0 10.0
    &END CELL
    &COORD
    O   0.000000    0.000000   -0.065587
    H   0.000000   -0.757136    0.520545
    H   0.000000    0.757136    0.520545
    O   3.000000    0.000000   -0.065587
    H   3.000000   -0.757136    0.520545
    H   3.000000    0.757136    0.520545
    &END COORD
    &KIND O
      BASIS_SET SZV-GTH-PADE
      POTENTIAL GTH-PADE-q6
    &END KIND
    &KIND H
      BASIS_SET SZV-GTH-PADE
      POTENTIAL GTH-PADE-q1
    &END KIND
  &END SUBSYS
&END FORCE_EVAL
&GLOBAL
  PROJECT H2O-dist-8
  PRINT_LEVEL LOW
&END GLOBAL
