&GLOBAL
  PRINT_LEVEL MEDIUM
  PROJECT H2O-sic
&END GLOBAL

#CPQA DEPENDS H2O-sic-ad-1.inp
&FORCE_EVAL
  METHOD Quickstep
  &DFT
    BASIS_SET_FILE_NAME BASIS_SET
    LSD
    POTENTIAL_FILE_NAME POTENTIAL
    RESTART_FILE_NAME H2O-sic-RESTART.wfn
    &MGRID
      CUTOFF 200
    &END MGRID
    &QS
      EXTRAPOLATION PS
      EXTRAPOLATION_ORDER 1
    &END QS
    &SCF
      IGNORE_CONVERGENCE_FAILURE
      MAX_SCF 3
      SCF_GUESS RESTART
      &OT ON
      &END OT
    &END SCF
    &SIC
      SIC_METHOD AD
    &END SIC
    &XC
      &XC_FUNCTIONAL PADE
      &END XC_FUNCTIONAL
    &END XC
  &END DFT
  &SUBSYS
    &CELL
      ABC 5.0 5.0 5.0
    &END CELL
    &COORD
      O   0.000000    0.000000   -0.065587
      H   0.000000   -0.757136    0.520545
      H   0.000000    0.757136    0.520545
    &END COORD
    &KIND O
      BASIS_SET DZVP-GTH-PADE
      POTENTIAL GTH-PADE-q6
    &END KIND
    &KIND H
      BASIS_SET DZVP-GTH-PADE
      POTENTIAL GTH-PADE-q1
    &END KIND
  &END SUBSYS
&END FORCE_EVAL
