&GLOBAL
  PRINT_LEVEL LOW
  PROJECT H2O-dist-8
&END GLOBAL

&FORCE_EVAL
  METHOD Quickstep
  &DFT
    BASIS_SET_FILE_NAME BASIS_SET
    POTENTIAL_FILE_NAME POTENTIAL
    &MGRID
      CUTOFF 50
    &END MGRID
    &QS
      &DISTRIBUTION
        BASIC_SPATIAL_OPTIMIZATION T
      &END DISTRIBUTION
    &END QS
    &SCF
      EPS_SCF 1.0E-4
      IGNORE_CONVERGENCE_FAILURE
      MAX_SCF 2
      SCF_GUESS ATOMIC
    &END SCF
    &XC
      &XC_FUNCTIONAL PADE
      &END XC_FUNCTIONAL
    &END XC
  &END DFT
  &SUBSYS
    &CELL
      ABC 10.0 10.0 10.0
    &END CELL
    &COORD
      O   0.000000    0.000000   -0.065587
      H   0.000000   -0.757136    0.520545
      H   0.000000    0.757136    0.520545
      O   3.000000    0.000000   -0.065587
      H   3.000000   -0.757136    0.520545
      H   3.000000    0.757136    0.520545
    &END COORD
    &KIND O
      BASIS_SET SZV-GTH-PADE
      POTENTIAL GTH-PADE-q6
    &END KIND
    &KIND H
      BASIS_SET SZV-GTH-PADE
      POTENTIAL GTH-PADE-q1
    &END KIND
  &END SUBSYS
&END FORCE_EVAL
