#CPQA DEPENDS N3-1.inp

&FORCE_EVAL
  METHOD Quickstep
  &DFT
  BASIS_SET_FILE_NAME ../../../data/BASIS_SET
  POTENTIAL_FILE_NAME ../../../data/POTENTIAL
    WFN_RESTART_FILE_NAME RESTART
    ROKS
    &MGRID
      CUTOFF 200
    &END MGRID
    &QS
      EXTRAPOLATION PS
      EXTRAPOLATION_ORDER 1
    &END QS
    &SCF
      MAX_SCF 2
      SCF_GUESS RESTART
      &OT ON
        MINIMIZER DIIS
        ROTATION
      &END OT
    &END SCF
    &SIC
      sic_method MAURI_SPZ
      SIC_SCALING_A 0.2
      SIC_SCALING_B 0.0
    &END SIC
    &XC
      &XC_FUNCTIONAL BLYP
      &END XC_FUNCTIONAL
    &END XC
  &END DFT
  &SUBSYS
    &CELL
      ABC 8.0 5.0 5.0
    &END CELL
    &COORD
     N 0.0 0.0 0.0
     N -1.19 0.0 0.0
     N +1.19 0.0 0.0
    &END COORD
    &KIND N
      BASIS_SET DZVP-GTH-PADE
      POTENTIAL GTH-PADE-q5
    &END KIND
  &END SUBSYS
&END FORCE_EVAL
&GLOBAL
  PROJECT N3
  PRINT_LEVEL LOW
&END GLOBAL
