
&FORCE_EVAL
  METHOD Quickstep
  &DFT
  BASIS_SET_FILE_NAME BASIS_SET
  POTENTIAL_FILE_NAME POTENTIAL
    LSD
    &MGRID
      CUTOFF 150
    &END MGRID
    &PRINT
      &DFT_CONTROL_PARAMETERS
      &END DFT_CONTROL_PARAMETERS
    &END PRINT
    &QS
    &END QS
    &SCF
      MAX_SCF 1
      SCF_GUESS ATOMIC
      &PRINT
        &RESTART
           FILENAME =RESTART
        &END
      &END
    &END SCF
    &XC
      &XC_FUNCTIONAL Pade
      &END XC_FUNCTIONAL
    &END XC
  &END DFT
  &SUBSYS
    &CELL
      ABC 8.0 5.0 5.0
    &END CELL
    &COORD
     N 0.0 0.0 0.0
     N -1.19 0.0 0.0
     N +1.19 0.0 0.0
    &END COORD
    &KIND N
      BASIS_SET DZVP-GTH-PADE
      POTENTIAL GTH-PADE-q5
    &END KIND
  &END SUBSYS
&END FORCE_EVAL
&GLOBAL
  PROJECT N3
  PRINT_LEVEL MEDIUM
&END GLOBAL
