&FORCE_EVAL
  METHOD FIST
  &MM
    &FORCEFIELD
      VDW_SCALE14   1.0
      EI_SCALE14   0.5
      PARM_FILE_NAME water.pot
      PARMTYPE CHM
      &spline
       rcut_nb 7.0
      &end
    &END FORCEFIELD
    &POISSON
      &EWALD
        EWALD_TYPE spme
        ALPHA .4
        GMAX 27
        O_SPLINE 4
        #EWALD_TYPE PME
        #ALPHA .4
        #NS_MAX 25
      &END EWALD
    &END POISSON
    &PRINT
      #&FF_INFO
      #  SPLINE_INFO
      #&END
    &END
  &END MM
  &SUBSYS
    &CELL
      ABC 20.0 20.0 20.0
    &END CELL
    &TOPOLOGY
      CONN_FILE water.gtop
      CONNECTIVITY G96
      COORDINATE G96
      COORD_FILE water.g96
      #PARA_RES F
    &END TOPOLOGY
    &PRINT
      &TOPOLOGY_INFO
        #GTOP_INFO
        #G96_INFO
      &END TOPOLOGY_INFO
    &END
  &END SUBSYS
&END FORCE_EVAL
&GLOBAL
  PROJECT water_2
  PRINT_LEVEL LOW
  PROGRAM CP2K
  RUN_TYPE md
&END GLOBAL
&MOTION
  &MD
    ENSEMBLE NVT
    STEPS 100
    TIMESTEP 0.5
    TEMPERATURE 298
    &THERMOSTAT
      &NOSE
        TIMECON 10
      &END NOSE
    &END
  &END MD
  &PRINT
    &RESTART OFF
    &END
    &RESTART_HISTORY OFF
    &END
    &TRAJECTORY OFF
    &END
    &VELOCITIES OFF
    &END
  &END
&END MOTION
