&GLOBAL
  PRINT_LEVEL low
  PROJECT ch2o_pbe_rks_t_tddfpt
  RUN_TYPE energy
&END GLOBAL

&FORCE_EVAL
  METHOD Quickstep
  &DFT
    BASIS_SET_FILE_NAME GTH_BASIS_SETS
    POTENTIAL_FILE_NAME POTENTIAL
    &MGRID
      CUTOFF 200
    &END MGRID
    &POISSON
      PERIODIC none
      POISSON_SOLVER wavelet
    &END POISSON
    &QS
      METHOD gpw
    &END QS
    &SCF
      EPS_SCF 1e-7
      MAX_SCF 30
      SCF_GUESS atomic
    &END SCF
    &XC
      &XC_FUNCTIONAL pbe
      &END XC_FUNCTIONAL
      &XC_GRID
        XC_DERIV SPLINE3
      &END XC_GRID
    &END XC
  &END DFT
  &PROPERTIES
    &TDDFPT
      CONVERGENCE [eV] 1.0e-3
      MAX_ITER 10
      NSTATES 3
      RKS_TRIPLETS .true.
    &END TDDFPT
  &END PROPERTIES
  &SUBSYS
    &CELL
      ABC 6.0 6.0 6.0
      PERIODIC NONE
    &END CELL
    &COORD
      O         0.094933   -0.000368    0.895642
      C        -0.031077   -0.000121   -0.307326
      H        -0.090437    0.947608   -0.895642
      H        -0.094933   -0.947608   -0.895562
    &END COORD
    &KIND O
      BASIS_SET aug-TZV2P-GTH
      POTENTIAL GTH-PBE-q6
    &END KIND
    &KIND C
      BASIS_SET aug-TZV2P-GTH
      POTENTIAL GTH-PBE-q4
    &END KIND
    &KIND H
      BASIS_SET aug-TZV2P-GTH
      POTENTIAL GTH-PBE-q1
    &END KIND
    &TOPOLOGY
      &CENTER_COORDINATES
      &END CENTER_COORDINATES
    &END TOPOLOGY
  &END SUBSYS
&END FORCE_EVAL
