&GLOBAL
  PRINT_LEVEL low
  PROJECT ch2o_pbe0_rks_s_tddfpt
  RUN_TYPE energy
&END GLOBAL

&FORCE_EVAL
  METHOD Quickstep
  &DFT
    BASIS_SET_FILE_NAME GTH_BASIS_SETS
    POTENTIAL_FILE_NAME POTENTIAL
    &MGRID
      CUTOFF 200
    &END MGRID
    &POISSON
      PERIODIC none
      POISSON_SOLVER wavelet
    &END POISSON
    &QS
      METHOD gpw
    &END QS
    &SCF
      EPS_SCF 1e-7
      MAX_SCF 30
      SCF_GUESS atomic
    &END SCF
    &XC
      &HF
        &SCREENING
          EPS_SCHWARZ 1.0E-10
        &END SCREENING
      &END HF
      &XC_FUNCTIONAL pbe0
      &END XC_FUNCTIONAL
    &END XC
  &END DFT
  &PROPERTIES
    &TDDFPT
      CONVERGENCE [eV] 1.0e-3
      MAX_ITER 10
      NSTATES 3
    &END TDDFPT
  &END PROPERTIES
  &SUBSYS
    &CELL
      ABC 6.0 6.0 6.0
      PERIODIC NONE
    &END CELL
    &COORD
      O         0.9588431900        1.1234806613        1.8643358699
      C         1.0045827842        1.0372747429        0.6713062328
      H         1.0304990091        1.9328340670        0.0202209074
      H         1.0234151411        0.0574091066        0.1554705073
    &END COORD
    &KIND O
      BASIS_SET DZVP-GTH
      POTENTIAL GTH-PBE-q6
    &END KIND
    &KIND C
      BASIS_SET DZVP-GTH
      POTENTIAL GTH-PBE-q4
    &END KIND
    &KIND H
      BASIS_SET DZVP-GTH
      POTENTIAL GTH-PBE-q1
    &END KIND
    &TOPOLOGY
      &CENTER_COORDINATES
      &END CENTER_COORDINATES
    &END TOPOLOGY
  &END SUBSYS
&END FORCE_EVAL
