&FORCE_EVAL
    METHOD Quickstep
    &DFT
        BASIS_SET_FILE_NAME BASIS_ccGRB_UZH
        POTENTIAL_FILE_NAME POTENTIAL_UZH
        SORT_BASIS EXP
        AUTO_BASIS RI_HFX SMALL
        &QS
           METHOD GPW
           PW_GRID_BLOCKED FALSE
        &END
        &MGRID
            CUTOFF 120
            REL_CUTOFF 30
        &END MGRID
        &SCF
            SCF_GUESS ATOMIC
            MAX_SCF 2
        &END SCF
        &XC
            &XC_FUNCTIONAL
               &PBE
                  SCALE_X 0.75
               &END
            &END XC_FUNCTIONAL
            &HF
                FRACTION 0.25
                &RI
                   RI_METRIC IDENTITY
                   NGROUPS 2
                   EPS_FILTER 1.0E-10
                   MEMORY_CUT 2
                   USE_DELTA_P FALSE
                &END
                &INTERACTION_POTENTIAL
                    !this is too small for a real calculation. The only requirement is that it is
                    !smaller than N_kp * L/2 in each direction. Potential range has a drastic effect
                    !on efficiency, as it greatly increses the number of periodic images to consider
                    POTENTIAL_TYPE IDENTITY
                &END
            &END
        &END XC 
       &KPOINTS
          SCHEME  MONKHORST-PACK  2 2 1
       &END KPOINTS
    &END DFT
    &SUBSYS
        &CELL
            !note: this is not a realistic cell, but denser cells would be too expensive for a test
            ABC 7.0 7.0 15.0
            ALPHA_BETA_GAMMA 90.0 90.0 120.0
        &END CELL
        &TOPOLOGY
        &END
        &COORD
           SCALED
           B 0.3333333 0.6666667 0.0
           N 0.6666667 0.3333333 0.0
        &END COORD
        &KIND B
            BASIS_SET ccGRB-D-q3
            POTENTIAL GTH-PBE0-q3
        &END KIND
        &KIND N
            BASIS_SET ccGRB-D-q5
            POTENTIAL GTH-PBE0-q5
        &END KIND
    &END SUBSYS
&END FORCE_EVAL
&GLOBAL
    PROJECT hBN_gpw_pbe0
    PRINT_LEVEL MEDIUM
    RUN_TYPE GEO_OPT
&END GLOBAL
&MOTION
   &GEO_OPT
      MAX_ITER 1
   &END GEO_OPT
&END MOTION
