&GLOBAL
  PRINT_LEVEL MEDIUM
  PROJECT LiH
  RUN_TYPE ENERGY_FORCE
&END GLOBAL

&FORCE_EVAL
  METHOD Quickstep
  STRESS_TENSOR ANALYTICAL
  &DFT
    AUTO_BASIS RI_HFX SMALL
    BASIS_SET_FILE_NAME BASIS_pob
    POTENTIAL_FILE_NAME POTENTIAL
    SORT_BASIS EXP
    &KPOINTS
      SCHEME MONKHORST-PACK 2 2 2
    &END KPOINTS
    &MGRID
      CUTOFF 300
      REL_CUTOFF 50
    &END MGRID
    &QS
      EPS_PGF_ORB 1.0E-6
      METHOD GAPW
      PW_GRID_BLOCKED FALSE
    &END QS
    &SCF
      IGNORE_CONVERGENCE_FAILURE
      MAX_SCF 2
      SCF_GUESS ATOMIC
    &END SCF
    &XC
      &HF
        FRACTION 1.0
        &INTERACTION_POTENTIAL
          !this is too small for a real calculation. The only requirement is that it is
          !smaller than N_kp * L/2 in each direction. Potential range has a drastic effect
          !on efficiency, as it greatly increses the number of periodic images to consider
          CUTOFF_RADIUS 1.5
          POTENTIAL_TYPE TRUNCATED
        &END INTERACTION_POTENTIAL
        &RI
          EPS_FILTER 1.0E-12
          EPS_PGF_ORB 1.0E-6
          MEMORY_CUT 2
          NGROUPS 2
          RI_METRIC IDENTITY
        &END RI
        &SCREENING
          EPS_SCHWARZ 1.0E-10
          EPS_SCHWARZ_FORCES 1.0E-10
        &END SCREENING
      &END HF
      &XC_FUNCTIONAL NONE
      &END XC_FUNCTIONAL
    &END XC
  &END DFT
  &PRINT
    &STRESS_TENSOR
      COMPONENTS
    &END STRESS_TENSOR
  &END PRINT
  &SUBSYS
    &CELL
      !this is not a realistic cell, but denser systems would be too expensive for a test
      ABC 6.0 6.0 6.0
      ALPHA_BETA_GAMMA 60.0 60.0 60.0
      MULTIPLE_UNIT_CELL 1 1 1
    &END CELL
    &COORD
      SCALED
      Li  0.00000000  0.00000000  0.00000000
      H   0.50000000  0.50000000  0.50000000
    &END COORD
    &KIND Li
      BASIS_SET pob-DZVP-rev2
      POTENTIAL ALL
    &END KIND
    &KIND H
      BASIS_SET pob-DZVP-rev2
      POTENTIAL ALL
    &END KIND
    &TOPOLOGY
      MULTIPLE_UNIT_CELL 1 1 1
    &END TOPOLOGY
  &END SUBSYS
&END FORCE_EVAL
