&FORCE_EVAL
    METHOD Quickstep
    STRESS_TENSOR ANALYTICAL
    &PRINT
      &STRESS_TENSOR
         COMPONENTS
      &END
    &END
    &DFT
        BASIS_SET_FILE_NAME BASIS_pob
        POTENTIAL_FILE_NAME POTENTIAL
        SORT_BASIS EXP
        AUTO_BASIS RI_HFX SMALL
        &QS
           METHOD GAPW
           PW_GRID_BLOCKED FALSE
           EPS_PGF_ORB 1.0E-6
        &END
        &MGRID
            CUTOFF 300
            REL_CUTOFF 50
        &END MGRID
        &SCF
            SCF_GUESS ATOMIC
            MAX_SCF 2
        &END SCF
        &XC
            &XC_FUNCTIONAL NONE
            &END XC_FUNCTIONAL
            &HF
                FRACTION 1.0
                &RI
                   RI_METRIC IDENTITY
                   MEMORY_CUT 2
                   NGROUPS 2
                   EPS_FILTER 1.0E-12
                   EPS_PGF_ORB 1.0E-6
                &END
                &INTERACTION_POTENTIAL
                    POTENTIAL_TYPE TRUNCATED
                    !this is too small for a real calculation. The only requirement is that it is
                    !smaller than N_kp * L/2 in each direction. Potential range has a drastic effect
                    !on efficiency, as it greatly increses the number of periodic images to consider
                    CUTOFF_RADIUS 1.5
                &END
                &SCREENING
                  EPS_SCHWARZ 1.0E-10
                  EPS_SCHWARZ_FORCES 1.0E-10
                &END
            &END
        &END XC 
        &KPOINTS
           SCHEME  MONKHORST-PACK  2 2 2
        &END KPOINTS
    &END DFT
    &SUBSYS
        &CELL
            !this is not a realistic cell, but denser systems would be too expensive for a test
            ABC 6.0 6.0 6.0
            ALPHA_BETA_GAMMA 60.0 60.0 60.0
            MULTIPLE_UNIT_CELL 1 1 1
        &END CELL
        &TOPOLOGY
            MULTIPLE_UNIT_CELL 1 1 1
        &END
        &COORD
           SCALED
             Li  0.00000000  0.00000000  0.00000000
             H   0.50000000  0.50000000  0.50000000
        &END COORD
        &KIND Li
            BASIS_SET pob-DZVP-rev2
            POTENTIAL ALL
        &END KIND
        &KIND H
            BASIS_SET pob-DZVP-rev2
            POTENTIAL ALL
        &END KIND
    &END SUBSYS
&END FORCE_EVAL
&GLOBAL
    PROJECT LiH
    PRINT_LEVEL MEDIUM
    RUN_TYPE ENERGY_FORCE
&END GLOBAL
