
&FORCE_EVAL
  METHOD QUICKSTEP
  &DFT
    LSD
    CHARGE +1
    &REAL_TIME_PROPAGATION
       DENSITY_PROPAGATION
       MAX_ITER 5 
       MAT_EXP BCH
       EPS_ITER 1.0E-9
       MCWEENY_MAX_ITER 1
       INITIAL_WFN SCF_WFN
       &PRINT
         &CURRENT
           &EACH
              MD 1
           &END EACH
           STRIDE 3 3 3
         &END CURRENT
       &END PRINT
    &END
    BASIS_SET_FILE_NAME BASIS_SET
    POTENTIAL_FILE_NAME POTENTIAL
    &MGRID
      CUTOFF 100
    &END MGRID
    &POISSON
       POISSON MT
       PERIODIC NONE
    &END
    &QS
      EPS_DEFAULT 1.0E-10
      MAP_CONSISTENT
      LS_SCF
    &END QS
    &SCF
      MAX_SCF 20
      EPS_SCF 1.0E-6
      SCF_GUESS ATOMIC
      &OUTER_SCF
        EPS_SCF 1.0E-6
        MAX_SCF 10
      &END
      &OT ON
        ROTATION
      &END OT
    &END SCF
    &LS_SCF
      EPS_FILTER 1.0E-10
      EPS_LANCZOS 1.0E-8
      MAX_ITER_LANCZOS 30
      SIGN_SQRT_ORDER 3
    &END LS_SCF
    &XC
      &XC_FUNCTIONAL PADE
      &END XC_FUNCTIONAL
    &END XC
  &END DFT
  &SUBSYS
    &CELL
      ABC 6.0 6.0 6.0
    &END CELL
    &COORD
   H  6.000000   4.5000000   6.000000
   H  6.000000   1.5000000    6.000000
    &END COORD
    &KIND H
      BASIS_SET DZVP-GTH-PBE
      POTENTIAL GTH-PBE-q1
    &END KIND
    &KIND HX
      ELEMENT H
      GHOST T
      BASIS_SET DZVP-GTH-PBE
      POTENTIAL GTH-PBE-q1
    &END KIND
    &KIND O
      BASIS_SET DZVP-GTH-PBE
      POTENTIAL GTH-PBE-q6
    &END KIND
  &END SUBSYS
&END FORCE_EVAL
&GLOBAL
  PROJECT TEST
  RUN_TYPE RT_PROPAGATION
  PRINT_LEVEL LOW
&END GLOBAL
&MOTION
  &MD
    ENSEMBLE NVE
    STEPS 2
    TIMESTEP [au_t] 0.25
    TEMPERATURE 300.0
  &END MD
&END MOTION
