&GLOBAL
  PROJECT      EPR
  RUN_TYPE     ENERGY
  PRINT_LEVEL  MEDIUM
&END GLOBAL
&FORCE_EVAL
  METHOD QS
  &SUBSYS
    &CELL
      ABC 5.0 5.0 5.0
      PERIODIC NONE
    &END CELL
    &COORD
    O   0.000000    0.000000   -0.065587
    H   0.000000   -0.757136    0.520545
    H   0.000000    0.757136    0.520545
    &END COORD
    &TOPOLOGY    
      &CENTER_COORDINATES
      &END CENTER_COORDINATES
    &END TOPOLOGY    
    &KIND O
      BASIS_SET DZVP-ALL
      POTENTIAL ALL
    &END KIND
    &KIND H
      BASIS_SET DZVP-ALL
      POTENTIAL ALL
    &END KIND
  &END SUBSYS
  &DFT
    LSD
    BASIS_SET_FILE_NAME BASIS_SET
    POTENTIAL_FILE_NAME POTENTIAL
    MULTIPLICITY 2
    CHARGE  1
    &MGRID
      NGRIDS 5
      REL_CUTOFF 50
      COMMENSURATE
      CUTOFF 400
    &END MGRID
    &QS
      METHOD GAPW
      EPS_DEFAULT  1.0E-14
    &END QS
    &POISSON
      PERIODIC NONE
      POISSON  ANALYTIC
      &WAVELET
      &END WAVELET
    &END POISSON
    &SCF
      MAX_SCF     40
      EPS_SCF     1.0E-5
      SCF_GUESS   ATOMIC 
      &DIAGONALIZATION T
         ALGORITHM STANDARD
         MAX_ITER  20
      &END DIAGONALIZATION
      &MIXING
      &END MIXING
    &END SCF  
    &XC
      &XC_FUNCTIONAL PBE
      &END XC_FUNCTIONAL
    &END XC
    &PRINT
      &HYPERFINE_COUPLING_TENSOR
      &END HYPERFINE_COUPLING_TENSOR
    &END PRINT
  &END DFT
&END FORCE_EVAL
