&GLOBAL
  PROJECT NO2-EPR-2
  PRINT_LEVEL LOW
  RUN_TYPE LINEAR_RESPONSE
&END GLOBAL
&FORCE_EVAL
  &DFT
    BASIS_SET_FILE_NAME GTH_BASIS_SETS
    POTENTIAL_FILE_NAME GTH_POTENTIALS
    LSD
    &MGRID
      CUTOFF 150
    &END MGRID
    &QS
      METHOD GAPW
    &END QS
    &SCF
      MAX_SCF 5
      SCF_GUESS ATOMIC
    &END SCF
    &XC
      &XC_FUNCTIONAL PADE
      &END XC_FUNCTIONAL
    &END XC
  &END DFT
  &PROPERTIES
    &LINRES
       MAX_ITER  5
       PRECONDITIONER FULL_ALL
       &LOCALIZE
         MAX_ITER 10
         METHOD CRAZY
       &END LOCALIZE
       &CURRENT
          GAUGE R_AND_STEP_FUNCTION
       &END CURRENT
       &EPR
         &PRINT
            &G_TENSOR
	       SOO_RHO_HARD
               &XC
                 &XC_FUNCTIONAL
                    &XALPHA
                    &END XALPHA
                 &END XC_FUNCTIONAL
               &END XC
            &END G_TENSOR
         &END PRINT
       &END
    &END
  &END
  &SUBSYS
    &CELL
      ABC 6.0 6.0 6.0 
    &END CELL
    &COORD
  N 0.000000  0.000000  0.000000
  O 0.000000  0.000000  1.207900
  O 0.872252  0.000000 -0.835583
    &END COORD
    &KIND N
      BASIS_SET DZVP-GTH
      POTENTIAL GTH-PADE-q5
    &END KIND
    &KIND O
      BASIS_SET DZVP-GTH
      POTENTIAL GTH-PADE-q6
    &END KIND
  &END SUBSYS
&END FORCE_EVAL
