&GLOBAL
  PROJECT water
  RUN_TYPE ENERGY_FORCE
  &PRINT DEBUG
  &END
&END GLOBAL
&FORCE_EVAL
  &PRINT
   &FORCES
   &END
  &END
  METHOD FIST
  &MM
    &FORCEFIELD
      &NONBONDED
        &DEEPMD
           ATOMS H
           ATOMS_DEEPMD_TYPE 1
           POT_FILE_NAME DeePMD/H2O-DPLR-model.pb
        &END DEEPMD
      &END NONBONDED
    &END FORCEFIELD
    &POISSON
      &EWALD
        EWALD_TYPE none
      &END EWALD
    &END POISSON
  &END MM
  &SUBSYS
    &CELL
      ABC 9.85 9.85 9.85
#      MULTIPLE_UNIT_CELL 4 4 4
    &END CELL
#     coordinates must be ordered by atomic number
    &COORD
H     42.886169670000001   -0.055681660000000001      38.329161120000002
H     34.202588720000001              -0.6185484      37.365568080000003
    &END COORD
  &TOPOLOGY
#   MULTIPLE_UNIT_CELL 4 4 4
  &END
  &END SUBSYS
&END FORCE_EVAL
