&GLOBAL
  PROJECT W
  RUN_TYPE ENERGY_FORCE
  &PRINT DEBUG
  &END PRINT
&END GLOBAL

&FORCE_EVAL
  METHOD FIST
  &MM
    &FORCEFIELD
      &NONBONDED
        &DEEPMD
          ATOMS W
          ATOMS_DEEPMD_TYPE 0
          POT_FILE_NAME DeePMD/W.pb
        &END DEEPMD
      &END NONBONDED
    &END FORCEFIELD
    &POISSON
      &EWALD
        EWALD_TYPE none
      &END EWALD
    &END POISSON
  &END MM
  &PRINT
    &FORCES
    &END FORCES
  &END PRINT
  &SUBSYS
    &CELL
      ABC 5.06227038 5.06227038 5.06227038
    &END CELL
    &COORD
      W  1.2656  0.0000  2.5311
      W  3.7967  0.0000  2.5311
      W  0.0000  2.5311  1.2656
      W  0.0000  2.5311  3.7967
      W  2.5311  3.7967  0.0000
      W  2.5311  1.2656  0.0000
      W  0.0000  0.0000  0.0000
      W  2.5311  2.5311  2.5311
    &END COORD
    &TOPOLOGY
    &END TOPOLOGY
  &END SUBSYS
&END FORCE_EVAL
