&FORCE_EVAL
  METHOD Quickstep
  &DFT
    BASIS_SET_FILE_NAME BASIS_MOLOPT
    POTENTIAL_FILE_NAME GTH_POTENTIALS
    &QS
      LS_SCF
    &END QS
    &POISSON
      PERIODIC NONE
      PSOLVER  MT
    &END POISSON
    &LS_SCF
      MAX_SCF     25
      EPS_SCF     1.0E-8
      EPS_FILTER  1.0E-8
      S_PRECONDITIONER  NONE
      REPORT_ALL_SPARSITIES OFF
      PURIFICATION_METHOD TRS4
      EXTRAPOLATION_ORDER  1
      &PAO
        RESTART_FILE H2O_pao_rotinv-1_0.pao
        MAX_PAO    1
        PARAMETERIZATION ROTINV
        &LINE_SEARCH
          METHOD ADAPT
        &END LINE_SEARCH
      &END PAO
    &END
    &XC
      &XC_FUNCTIONAL PBE
      &END XC_FUNCTIONAL
    &END XC
  &END DFT
  &SUBSYS
    &CELL
      ABC 4.0 4.0 4.0
      PERIODIC NONE
    &END CELL
    &COORD
      ! rotated by 42 radians :-)
      O   2.77080   -4.05878   4.1629480502
      H   3.46436   -3.52495   4.5850871241
      H   2.33835   -3.46159   3.5277353471
    &END COORD
    &KIND H
      BASIS_SET DZVP-MOLOPT-SR-GTH
      POTENTIAL GTH-PBE
      PAO_BASIS_SIZE 4
      &PAO_POTENTIAL
        MAXL 4
      &END PAO_POTENTIAL
    &END KIND
    &KIND O
      BASIS_SET DZVP-MOLOPT-SR-GTH
      POTENTIAL GTH-PBE
      PAO_BASIS_SIZE 4
      &PAO_POTENTIAL
        MAXL 4
      &END PAO_POTENTIAL
    &END KIND
    &TOPOLOGY
       &CENTER_COORDINATES
       &END
    &END
  &END SUBSYS
&END FORCE_EVAL
&GLOBAL
  PROJECT H2O_pao_rotinv_restart
  RUN_TYPE ENERGY
&END GLOBAL
