&FORCE_EVAL
  METHOD Quickstep
  &DFT
    BASIS_SET_FILE_NAME BASIS_MOLOPT
    POTENTIAL_FILE_NAME GTH_POTENTIALS
    &QS
      LS_SCF
    &END QS
    &POISSON
      PERIODIC NONE
      PSOLVER  MT
    &END POISSON
    &LS_SCF
      MAX_SCF     25
      EPS_SCF     1.0E-8
      EPS_FILTER  1.0E-8
      S_PRECONDITIONER  NONE
      REPORT_ALL_SPARSITIES OFF
      PURIFICATION_METHOD TRS4
      EXTRAPOLATION_ORDER  1
      &PAO
        PREOPT_DM_FILE H2O_ref_LS_DM_SPIN_1_RESTART.dm
        EPS_PAO    1.0E-5
        MAX_PAO    3000
        PARAMETERIZATION GTH
        PRECONDITION YES
        &LINE_SEARCH
          METHOD ADAPT
        &END LINE_SEARCH
      &END PAO
    &END
    &XC
      &XC_FUNCTIONAL PBE
      &END XC_FUNCTIONAL
    &END XC
  &END DFT
  &SUBSYS
    &CELL
      ABC 4.0 4.0 4.0
      PERIODIC NONE
    &END CELL
    &COORD
      O         2.6116774290        4.1629472392        4.1629480502
      H         1.8450021896        4.5850871565        4.5850871241
      H         2.2373131663        3.5277354616        3.5277353471
    &END COORD
    &KIND H
      BASIS_SET DZVP-MOLOPT-SR-GTH-q1
      POTENTIAL GTH-PBE-q1
      PAO_BASIS_SIZE 4
      &PAO_POTENTIAL
        MAXL 2
        BETA 1.0
      &END PAO_POTENTIAL
    &END KIND
    &KIND O
      BASIS_SET DZVP-MOLOPT-SR-GTH-q6
      POTENTIAL GTH-PBE-q6
      PAO_BASIS_SIZE 4
      &PAO_POTENTIAL
        MAXL 2
        BETA 1.0
        MAX_PROJECTOR 1
      &END PAO_POTENTIAL
    &END KIND
    &TOPOLOGY
       &CENTER_COORDINATES
       &END
    &END
  &END SUBSYS
&END FORCE_EVAL
&GLOBAL
  PROJECT H2O_pao_gth
  RUN_TYPE ENERGY
&END GLOBAL
