&GLOBAL
  PROJECT H2O_lrigpw_molopt
  RUN_TYPE ENERGY_FORCE
  PRINT_LEVEL MEDIUM
&END GLOBAL
&FORCE_EVAL
  METHOD Quickstep
  &PRINT
    &FORCES
    &END
  &END
  &DFT
    BASIS_SET_FILE_NAME BASIS_MOLOPT
    POTENTIAL_FILE_NAME POTENTIAL
    &MGRID
      CUTOFF      300
      REL_CUTOFF   40
    &END MGRID
    &POISSON
       PERIODIC NONE
       POISSON_SOLVER MT
    &END
    &QS
     METHOD LRIGPW
     &LRIGPW
         RI_STATISTIC  T
         EPS_O3_INT   1.e-14
         PPL_RI T
         EXACT_1C_TERMS   F
         DISTANT_PAIR_APPROXIMATION  T
         DISTANT_PAIR_METHOD         LW
         DISTANT_PAIR_RADII    6.0 10.0
     &END
    &END QS
    &SCF
      SCF_GUESS ATOMIC
      MAX_SCF 3
      EPS_SCF 1.0E-6
      &DIAGONALIZATION
      &END
    &END SCF
    &XC
      &XC_FUNCTIONAL PBE
      &END XC_FUNCTIONAL
    &END XC
  &END DFT
  &SUBSYS
    &CELL
      ABC 10.0 10.0 10.0
      PERIODIC NONE
    &END CELL
    &COORD
O   -1.4052885749141482   1.4052885749141482   1.3390082449865897
H   -0.4620645455670112   1.5526157777219627   1.5268989388501466
H   -1.5526157777219627   0.4620645455670112   1.5268989388501466
    &END COORD
    &TOPOLOGY
     &CENTER_COORDINATES
     &END
    &END
    &KIND H
      BASIS_SET ORB DZVP-MOLOPT-GTH
      POTENTIAL GTH-PBE-q1
    &END KIND
    &KIND O
      BASIS_SET ORB DZVP-MOLOPT-GTH
      POTENTIAL GTH-PBE-q6
    &END KIND
  &END SUBSYS
&END FORCE_EVAL
