&GLOBAL
  PRINT_LEVEL LOW
  PROJECT H2O_lrigpw_inv_autoselect
  RUN_TYPE ENERGY
&END GLOBAL

&FORCE_EVAL
  METHOD Quickstep
  &DFT
    BASIS_SET_FILE_NAME BASIS_LRI
    CHARGE 0
    POTENTIAL_FILE_NAME POTENTIAL
    &MGRID
      CUTOFF 150
      REL_CUTOFF 30
    &END MGRID
    &POISSON
      PERIODIC XYZ
      POISSON_SOLVER PERIODIC
    &END POISSON
    &QS
      METHOD LRIGPW
      &LRIGPW
        LRI_OVERLAP_MATRIX AUTOSELECT
        MAX_CONDITION_NUM 10.0
        SHG_LRI_INTEGRALS .FALSE.
      &END LRIGPW
    &END QS
    &SCF
      EPS_SCF 1.0E-6
      MAX_SCF 30
      SCF_GUESS ATOMIC
      &DIAGONALIZATION
      &END DIAGONALIZATION
    &END SCF
    &XC
      &XC_FUNCTIONAL PBE
      &END XC_FUNCTIONAL
    &END XC
  &END DFT
  &SUBSYS
    &CELL
      ABC 5.0 5.0 5.0
      PERIODIC XYZ
    &END CELL
    &COORD
      O  0.000000    0.000000    0.117226
      H  0.000000    0.757136   -0.468906
      H  0.000000   -0.757136   -0.468906
    &END COORD
    &KIND H
      BASIS_SET ORB SZV-MOLOPT-GTH
      BASIS_SET LRI_AUX LRI_SZV-GTH
      POTENTIAL GTH-PBE-q1
    &END KIND
    &KIND O
      BASIS_SET ORB SZV-MOLOPT-GTH
      BASIS_SET LRI_AUX LRI_SZV-GTH
      POTENTIAL GTH-PBE-q6
    &END KIND
    &TOPOLOGY
      &CENTER_COORDINATES
      &END CENTER_COORDINATES
    &END TOPOLOGY
  &END SUBSYS
&END FORCE_EVAL
