&GLOBAL
  PRINT_LEVEL MEDIUM
  PROJECT lamol
  RUN_TYPE MD
&END GLOBAL

&MOTION
  &MD
    ENSEMBLE NVT
    STEPS 20
    TEMPERATURE 300.0
    TIMESTEP 0.5
    &THERMOSTAT
      REGION MOLECULE
      &NOSE
        LENGTH 3
        MTS 2
        TIMECON 200.
        YOSHIDA 3
      &END NOSE
    &END THERMOSTAT
  &END MD
  &PRINT
    &CELL
      &EACH
        MD 10
      &END EACH
    &END CELL
    &RESTART
      &EACH
        MD 100
      &END EACH
    &END RESTART
    &TRAJECTORY
      &EACH
        MD 10
      &END EACH
    &END TRAJECTORY
  &END PRINT
&END MOTION

&FORCE_EVAL
  METHOD FIST
  &MM
    &FORCEFIELD
      EI_SCALE14 0.8333333
      PARMTYPE AMBER
      PARM_FILE_NAME ../sample_top/lamol.top
      SHIFT_CUTOFF .FALSE.
      VDW_SCALE14 0.5
      &SPLINE
        EMAX_SPLINE 1.0
      &END SPLINE
    &END FORCEFIELD
    &POISSON
      &EWALD
        ALPHA .36
        EWALD_TYPE SPME
        GMAX 64
      &END EWALD
    &END POISSON
    &PRINT
      &FF_INFO OFF
      &END FF_INFO
    &END PRINT
  &END MM
  &SUBSYS
    &CELL
      ABC [angstrom] 70. 70. 70.
    &END CELL
    &TOPOLOGY
      CONNECTIVITY MOL_SET
      COORDINATE XYZ
      COORD_FILE_NAME ../sample_xyz/4mol.xyz
      &DUMP_PDB
      &END DUMP_PDB
      &DUMP_PSF
      &END DUMP_PSF
      &MOL_SET
        &MOLECULE
          CONNECTIVITY AMBER
          CONN_FILE_NAME ../sample_top/lamol.top
          NMOL 4
        &END MOLECULE
      &END MOL_SET
    &END TOPOLOGY
  &END SUBSYS
&END FORCE_EVAL
