&GLOBAL
  PREFERRED_FFT_LIBRARY FFTW3
  PRINT_LEVEL LOW
  PROJECT water_mm3
  RUN_TYPE ENERGY
&END GLOBAL

&FORCE_EVAL
  METHOD FIST
  &MM
    &FORCEFIELD
      &BEND
        ATOMS H O H
        K [au_e*rad^-2] 0.4
        KBS12 [au_e*au_l^-1*rad^-1] 0.3
        KBS32 [au_e*au_l^-1*rad^-1] 0.3
        KIND MM3
        R012 [au_l] 1.81111424
        R032 [au_l] 1.81111424
        THETA0 [rad] 1.82299609
      &END BEND
      &BOND
        ATOMS H O
        K [au_e*au_l^-2] 0
        R0 [au_l] 1.81111424
      &END BOND
      &CHARGE
        ATOM H
        CHARGE 0.0
      &END CHARGE
      &CHARGE
        ATOM O
        CHARGE 0.0
      &END CHARGE
      &NONBONDED
        &LENNARD-JONES
          ATOMS O H
          EPSILON [au_e] 0
          SIGMA [au_l] 1
        &END LENNARD-JONES
        &LENNARD-JONES
          ATOMS H H
          EPSILON [au_e] 0
          SIGMA [au_l] 1
        &END LENNARD-JONES
        &LENNARD-JONES
          ATOMS O O
          EPSILON [au_e] 0
          SIGMA [au_l] 1
        &END LENNARD-JONES
      &END NONBONDED
    &END FORCEFIELD
    &POISSON
      PERIODIC none
      &EWALD
        EWALD_TYPE none
      &END EWALD
    &END POISSON
  &END MM
  &SUBSYS
    &CELL
      ABC [angstrom] 10 10 10
    &END CELL
    &COORD
      O      0.000000     0.000000     0.000000
      H      0.807541     0.587080     0.000000
      H     -0.807541     0.587080     0.000000
    &END COORD
    &TOPOLOGY
      &GENERATE
        CREATE_MOLECULES
      &END GENERATE
    &END TOPOLOGY
  &END SUBSYS
&END FORCE_EVAL
