@SET RESTART_WFN              TRUE
@SET WFN_FILE                 HeH-noconstraint-1_0.wfn
@SET PROJECT_NAME             HeH-cdft-1
@SET WRITE_WFN                0
@SET CHARGE                   1
@SET WRITE_CUBE               FALSE
@SET CENTER_SYS               ON
@SET XYZFILE                  HeH.xyz
@SET HIRSHFELD_ACTIVE         TRUE
@SET HIRSHFELD_FRAGMENT       FALSE
@SET PRINT_WEIGHT_FUNCTION    FALSE
@SET MAX_SCF                  0
@SET HIRSHFELD_TARGET       1.0
@SET HIRSHFELD_STR          0.186894372937
@SET HIRSHFELD_SHAPEFN        DENSITY
&GLOBAL
  PREFERRED_DIAG_LIBRARY SL
  PRINT_LEVEL MEDIUM
  PROJECT ${PROJECT_NAME}
  RUN_TYPE ENERGY_FORCE
&END GLOBAL

&FORCE_EVAL
  METHOD QS
  @SET HIRSHFELD_STR ${HIRSHFELD_STR}
  @SET HIRSHFELD_TARGET ${HIRSHFELD_TARGET}
  @INCLUDE dft-common-params.inc
  @INCLUDE subsys.inc
&END FORCE_EVAL
