@SET RESTART_WFN          FALSE
@SET WFN_FILE             HeH-noconstraint-1_0.wfn
@SET PROJECT_NAME         HeH-noconstraint
@SET WRITE_WFN            1
@SET CHARGE               1
@SET WRITE_CUBE           FALSE
@SET CENTER_SYS               ON
@SET XYZFILE              HeH.xyz
@SET HIRSHFELD_ACTIVE         FALSE
&GLOBAL
  PREFERRED_DIAG_LIBRARY SL
  PRINT_LEVEL MEDIUM
  PROJECT ${PROJECT_NAME}
  RUN_TYPE ENERGY_FORCE
&END GLOBAL

&FORCE_EVAL
  METHOD QS
  @INCLUDE dft-common-params.inc
  @INCLUDE subsys.inc
&END FORCE_EVAL
