&GLOBAL
  PRINT_LEVEL LOW
  PROJECT H2O-256_C-NNP_MD-bitexact
  RUN_TYPE MD
&END GLOBAL

&MOTION
  &MD
    ENSEMBLE NVT
    STEPS 5
    TEMPERATURE 300
    TIMESTEP 0.5
    &PRINT
      FORCE_LAST
      &ENERGY
        &EACH
          MD 50
        &END EACH
      &END ENERGY
    &END PRINT
    &THERMOSTAT
      REGION GLOBAL
      TYPE CSVR
      &CSVR
        TIMECON 30.00
      &END CSVR
    &END THERMOSTAT
  &END MD
  &PRINT
    &TRAJECTORY
      &EACH
        MD 500
      &END EACH
    &END TRAJECTORY
  &END PRINT
&END MOTION

&FORCE_EVAL
  METHOD NNP
  &NNP
    NNP_INPUT_FILE_NAME NNP/bulkH2O-jcp2020-cnnp/nnp-1/input.nn
    SCALE_FILE_NAME NNP/bulkH2O-jcp2020-cnnp/nnp-1/scaling.data
    &MODEL
      WEIGHTS NNP/bulkH2O-jcp2020-cnnp/nnp-1/weights
    &END MODEL
    &MODEL
      WEIGHTS NNP/bulkH2O-jcp2020-cnnp/nnp-2/weights
    &END MODEL
    &MODEL
      WEIGHTS NNP/bulkH2O-jcp2020-cnnp/nnp-3/weights
    &END MODEL
    &MODEL
      WEIGHTS NNP/bulkH2O-jcp2020-cnnp/nnp-4/weights
    &END MODEL
    &MODEL
      WEIGHTS NNP/bulkH2O-jcp2020-cnnp/nnp-5/weights
    &END MODEL
    &MODEL
      WEIGHTS NNP/bulkH2O-jcp2020-cnnp/nnp-6/weights
    &END MODEL
    &MODEL
      WEIGHTS NNP/bulkH2O-jcp2020-cnnp/nnp-7/weights
    &END MODEL
    &MODEL
      WEIGHTS NNP/bulkH2O-jcp2020-cnnp/nnp-8/weights
    &END MODEL
    &PRINT
      &ENERGIES
        &EACH
          MD 100
        &END EACH
      &END ENERGIES
    &END PRINT
  &END NNP
  &SUBSYS
    &CELL
      ABC [angstrom] 24.84000000 24.84000000 12.42000000
      PERIODIC XYZ
    &END CELL
    &COORD
      O       17.85470000      14.89360000       4.30373000
      H       18.81710000      14.81910000       4.30668000
      H       17.60460000      14.06810000       4.71635000
      O        5.08473000      -2.09187000     -12.52020000
      H        5.79642000      -1.44510000     -12.70560000
      H        5.42957000      -2.91898000     -12.19440000
      O        4.02996000       7.60544000      -3.68524000
      H        4.27003000       6.94768000      -4.41446000
      H        4.77458000       8.28889000      -3.67208000
      O      -12.22650000      18.89220000      12.25860000
      H      -13.08640000      19.19600000      12.55890000
      H      -12.45140000      18.59980000      11.38190000
      O        1.36461000       4.68750000      16.07470000
      H        0.77220000       5.33188000      15.70890000
      H        0.92914100       4.08655000      16.73020000
      O       -3.42189000       3.99641000      12.57220000
      H       -2.47934000       4.05205000      12.38670000
      H       -3.57781000       4.18579000      13.49940000
      O      -12.45810000       5.26919000      -2.78020000
      H      -11.67410000       4.62996000      -2.73820000
      H      -13.15450000       4.83976000      -3.28648000
      O      -12.87460000      14.22990000      10.97500000
      H      -12.40850000      13.48810000      11.29410000
      H      -12.17020000      14.92310000      10.79950000
      O       16.21660000      10.92160000       2.09580000
      H       15.77660000      10.15310000       2.51719000
      H       16.70080000      10.54170000       1.31827000
      O       10.17360000      12.92940000       3.09205000
      H       10.77360000      12.63090000       3.73607000
      H        9.56179000      12.13220000       2.94022000
      O        7.77605000       4.98249000      -2.29855000
      H        8.07228000       4.60108000      -1.47153000
      H        6.99714000       5.40667000      -2.04022000
      O       14.58280000       2.43851000       2.33359000
      H       13.85980000       2.38788000       1.70989000
      H       14.40950000       3.36726000       2.62982000
      O       -6.66475000       9.71604000      21.73940000
      H       -6.28708000      10.17630000      20.91490000
      H       -5.93185000       9.37252000      22.22920000
      O        1.00730000       7.62893000      -3.71784000
      H        1.95122000       7.70838000      -3.49284000
      H        0.78209600       6.70589000      -3.39957000
      O       -2.00359000       8.81074000       4.64761000
      H       -2.33580000       9.40933000       3.96349000
      H       -1.02960000       8.88476000       4.52207000
      O       12.25120000      10.23950000       9.10079000
      H       12.66980000      10.95650000       8.67039000
      H       12.71420000       9.38279000       8.86118000
      O       -0.24441300      15.84350000      13.25460000
      H        0.00470418      16.62720000      12.75340000
      H       -0.42289200      15.22620000      12.52560000
      O       17.25350000      -6.21439000      18.95750000
      H       17.26240000      -7.18011000      18.92590000
      H       16.44650000      -5.96877000      18.52680000
      O        1.57232000       8.55013000       3.48535000
      H        1.78649000       8.35399000       4.39869000
      H        0.91633100       7.79040000       3.31060000
      O        9.73687000      10.53440000     -12.33500000
      H        9.33966000      11.43670000     -12.37350000
      H       10.71770000      10.62350000     -12.51260000
      O        3.19186000      -1.70399000       6.69143000
      H        2.64086000      -0.91080900       6.70096000
      H        3.29213000      -1.99342000       7.64120000
      O        5.01286000       3.41556000       7.01155000
      H        5.25540000       3.30163000       7.95343000
      H        5.82406000       3.47012000       6.52344000
      O       16.21560000      -0.86663700      -2.85105000
      H       17.05640000      -1.46010000      -2.85949000
      H       15.82330000      -0.94576600      -1.95729000
      O       18.39240000      15.45230000       9.37872000
      H       17.70210000      15.50250000      10.02480000
      H       19.03780000      16.17220000       9.59111000
      O       12.43740000      -8.71873000      -6.55194000
      H       13.24560000      -9.18214000      -6.25474000
      H       11.74430000      -9.43587000      -6.45253000
      O       -2.12768000      -4.80632000      13.63960000
      H       -1.96159000      -3.92263000      13.27480000
      H       -3.14023000      -4.92484000      13.58540000
      O        5.47695000     -12.78860000      18.12950000
      H        6.04948000     -12.92690000      18.88220000
      H        4.74944000     -13.43130000      18.27050000
      O        9.06380000      13.52840000      12.92680000
      H        9.07296000      14.42340000      12.64730000
      H        9.45712000      13.49050000      13.82760000
      O        6.54756000     -11.95970000      12.30680000
      H        5.90365000     -11.48740000      12.84550000
      H        7.46789000     -11.66100000      12.52900000
      O       -3.25432000      -2.19516000      15.18330000
      H       -3.21119000      -2.38945000      14.23370000
      H       -4.18029000      -2.00474000      15.49650000
      O       19.16120000      20.64270000       4.17300000
      H       18.25990000      20.42210000       4.00929000
      H       19.17920000      21.59520000       4.03867000
      O       16.62900000       4.75612000       3.61679000
      H       17.41650000       4.29018000       3.87743000
      H       15.90400000       4.43119000       4.10392000
      O      -14.46860000       1.26932000      -6.11559000
      H      -13.90410000       0.58683400      -6.47353000
      H      -14.78000000       1.12280000      -5.19548000
      O        2.42216000      12.91590000       4.10819000
      H        1.94154000      13.51420000       3.57260000
      H        2.79204000      12.34870000       3.45220000
      O       17.30610000      14.63850000       1.43734000
      H       16.39600000      14.75480000       1.71543000
      H       17.68200000      14.67460000       2.27931000
      O        3.42317000      13.87760000       8.37823000
      H        4.23289000      13.97000000       7.90067000
      H        3.52615000      13.14510000       8.97284000
      O       -4.91217000      23.61640000      20.12810000
      H       -4.02584000      23.47060000      19.75830000
      H       -4.83605000      24.14340000      20.97620000
      O       20.30930000       8.75645000      -1.55507000
      H       21.03230000       9.38853000      -1.42815000
      H       20.44040000       8.12820000      -2.30558000
      O       17.63270000       6.21611000      -1.45303000
      H       17.18510000       6.65247000      -2.18930000
      H       17.59600000       6.94078000      -0.77261100
      O      -11.85650000      -3.09341000       6.38427000
      H      -11.91870000      -3.99992000       6.73656000
      H      -10.96070000      -2.82121000       6.56532000
      O       14.34220000      -5.83286000       5.75163000
      H       14.20720000      -6.54550000       5.13562000
      H       14.05200000      -6.07263000       6.61672000
      O       -1.09658000       6.20827000       5.58702000
      H       -2.04987000       5.94104000       5.55373000
      H       -0.68250800       5.41005000       5.89003000
      O        8.13776000       2.00921000      16.81480000
      H        8.76908000       1.47311000      16.26590000
      H        8.54559000       2.38894000      17.63890000
      O        0.05855300      -0.59401100      17.45460000
      H        0.96214000      -0.31451700      17.27990000
      H        0.08964280      -1.51268000      17.79400000
      O       27.67350000       0.60729400      12.06030000
      H       28.34720000       0.76104100      12.69580000
      H       27.19490000      -0.15785700      12.45860000
      O        9.89541000      -7.95756000       8.17742000
      H        9.62897000      -8.79966000       8.58524000
      H        9.28724000      -7.36014000       8.69880000
      O       -4.41370000      20.18930000       8.05879000
      H       -3.76101000      20.81950000       7.70885000
      H       -4.49934000      19.50700000       7.38700000
      O       16.99780000       3.63080000      11.63730000
      H       17.31810000       3.30370000      12.51290000
      H       17.08550000       4.57727000      11.68570000
      O        6.48319000      10.92640000       3.40103000
      H        5.63763000      10.99260000       2.85932000
      H        6.32943000      11.66920000       4.05745000
      O        4.49883000       7.78536000      13.14360000
      H        3.57897000       7.92015000      12.89780000
      H        4.40785000       7.58602000      14.13040000
      O       22.38010000      -2.58249000      19.81360000
      H       22.50240000      -2.69404000      18.86030000
      H       23.27000000      -2.40926000      20.13910000
      O        7.60549000      20.11670000       1.52318000
      H        7.40576000      20.44790000       2.44617000
      H        6.89393000      19.54060000       1.16986000
      O       -9.80851000      15.18180000       5.82547000
      H       -8.98420000      15.49160000       6.23087000
      H       -9.53181000      14.61140000       5.10912000
      O        1.89878000       3.39080000       9.95468000
      H        2.53193000       3.64424000      10.67490000
      H        2.50766000       2.74971000       9.48478000
      O        9.54794000      13.95950000      -3.42910000
      H        8.80101000      13.54530000      -2.93926000
      H       10.27920000      13.98280000      -2.79475000
      O       -3.92553000      -7.74473000      -9.61729000
      H       -3.86420000      -6.99741000      -8.98787000
      H       -3.75817000      -8.54726000      -9.04343000
      O        0.44092400      10.71270000      12.05860000
      H        0.83931100       9.90666000      12.42840000
      H        0.35887600      10.57580000      11.11070000
      O       12.12770000       6.70656000       3.12351000
      H       11.86650000       6.60036000       4.03971000
      H       11.35860000       6.98032000       2.60943000
      O       26.48550000       8.45521000     -11.83130000
      H       26.44880000       8.37541000     -10.86690000
      H       25.91510000       7.70284000     -12.22220000
      O        8.76592000       6.61206000       4.83144000
      H        9.47545000       7.33383000       4.67087000
      H        7.97602000       7.11755000       4.74199000
      O       -4.62340000      16.47700000       6.19871000
      H       -3.86477000      16.34810000       6.84392000
      H       -4.32266000      17.35310000       5.96346000
      O       13.40050000       0.18383700      -4.66240000
      H       14.24900000       0.62818200      -4.64394000
      H       12.99810000       0.46925800      -5.47766000
      O        4.34821000       7.30338000       3.29043000
      H        3.53537000       7.62296000       3.70824000
      H        4.26206000       6.32561000       3.39956000
      O       19.59060000     -11.77550000      22.11300000
      H       19.37940000     -11.65870000      23.07720000
      H       19.24050000     -10.92170000      21.74620000
      O       17.85470000      27.31360000       4.30373000
      H       18.81710000      27.23910000       4.30668000
      H       17.60460000      26.48810000       4.71635000
      O        5.08473000      10.32813000     -12.52020000
      H        5.79642000      10.97490000     -12.70560000
      H        5.42957000       9.50102000     -12.19440000
      O        4.02996000      20.02544000      -3.68524000
      H        4.27003000      19.36768000      -4.41446000
      H        4.77458000      20.70889000      -3.67208000
      O      -12.22650000      31.31220000      12.25860000
      H      -13.08640000      31.61600000      12.55890000
      H      -12.45140000      31.01980000      11.38190000
      O        1.36461000      17.10750000      16.07470000
      H        0.77220000      17.75188000      15.70890000
      H        0.92914100      16.50655000      16.73020000
      O       -3.42189000      16.41641000      12.57220000
      H       -2.47934000      16.47205000      12.38670000
      H       -3.57781000      16.60579000      13.49940000
      O      -12.45810000      17.68919000      -2.78020000
      H      -11.67410000      17.04996000      -2.73820000
      H      -13.15450000      17.25976000      -3.28648000
      O      -12.87460000      26.64990000      10.97500000
      H      -12.40850000      25.90810000      11.29410000
      H      -12.17020000      27.34310000      10.79950000
      O       16.21660000      23.34160000       2.09580000
      H       15.77660000      22.57310000       2.51719000
      H       16.70080000      22.96170000       1.31827000
      O       10.17360000      25.34940000       3.09205000
      H       10.77360000      25.05090000       3.73607000
      H        9.56179000      24.55220000       2.94022000
      O        7.77605000      17.40249000      -2.29855000
      H        8.07228000      17.02108000      -1.47153000
      H        6.99714000      17.82667000      -2.04022000
      O       14.58280000      14.85851000       2.33359000
      H       13.85980000      14.80788000       1.70989000
      H       14.40950000      15.78726000       2.62982000
      O       -6.66475000      22.13604000      21.73940000
      H       -6.28708000      22.59630000      20.91490000
      H       -5.93185000      21.79252000      22.22920000
      O        1.00730000      20.04893000      -3.71784000
      H        1.95122000      20.12838000      -3.49284000
      H        0.78209600      19.12589000      -3.39957000
      O       -2.00359000      21.23074000       4.64761000
      H       -2.33580000      21.82933000       3.96349000
      H       -1.02960000      21.30476000       4.52207000
      O       12.25120000      22.65950000       9.10079000
      H       12.66980000      23.37650000       8.67039000
      H       12.71420000      21.80279000       8.86118000
      O       -0.24441300      28.26350000      13.25460000
      H        0.00470418      29.04720000      12.75340000
      H       -0.42289200      27.64620000      12.52560000
      O       17.25350000       6.20561000      18.95750000
      H       17.26240000       5.23989000      18.92590000
      H       16.44650000       6.45123000      18.52680000
      O        1.57232000      20.97013000       3.48535000
      H        1.78649000      20.77399000       4.39869000
      H        0.91633100      20.21040000       3.31060000
      O        9.73687000      22.95440000     -12.33500000
      H        9.33966000      23.85670000     -12.37350000
      H       10.71770000      23.04350000     -12.51260000
      O        3.19186000      10.71601000       6.69143000
      H        2.64086000      11.50919100       6.70096000
      H        3.29213000      10.42658000       7.64120000
      O        5.01286000      15.83556000       7.01155000
      H        5.25540000      15.72163000       7.95343000
      H        5.82406000      15.89012000       6.52344000
      O       16.21560000      11.55336300      -2.85105000
      H       17.05640000      10.95990000      -2.85949000
      H       15.82330000      11.47423400      -1.95729000
      O       18.39240000      27.87230000       9.37872000
      H       17.70210000      27.92250000      10.02480000
      H       19.03780000      28.59220000       9.59111000
      O       12.43740000       3.70127000      -6.55194000
      H       13.24560000       3.23786000      -6.25474000
      H       11.74430000       2.98413000      -6.45253000
      O       -2.12768000       7.61368000      13.63960000
      H       -1.96159000       8.49737000      13.27480000
      H       -3.14023000       7.49516000      13.58540000
      O        5.47695000      -0.36860000      18.12950000
      H        6.04948000      -0.50690000      18.88220000
      H        4.74944000      -1.01130000      18.27050000
      O        9.06380000      25.94840000      12.92680000
      H        9.07296000      26.84340000      12.64730000
      H        9.45712000      25.91050000      13.82760000
      O        6.54756000       0.46030000      12.30680000
      H        5.90365000       0.93260000      12.84550000
      H        7.46789000       0.75900000      12.52900000
      O       -3.25432000      10.22484000      15.18330000
      H       -3.21119000      10.03055000      14.23370000
      H       -4.18029000      10.41526000      15.49650000
      O       19.16120000      33.06270000       4.17300000
      H       18.25990000      32.84210000       4.00929000
      H       19.17920000      34.01520000       4.03867000
      O       16.62900000      17.17612000       3.61679000
      H       17.41650000      16.71018000       3.87743000
      H       15.90400000      16.85119000       4.10392000
      O      -14.46860000      13.68932000      -6.11559000
      H      -13.90410000      13.00683400      -6.47353000
      H      -14.78000000      13.54280000      -5.19548000
      O        2.42216000      25.33590000       4.10819000
      H        1.94154000      25.93420000       3.57260000
      H        2.79204000      24.76870000       3.45220000
      O       17.30610000      27.05850000       1.43734000
      H       16.39600000      27.17480000       1.71543000
      H       17.68200000      27.09460000       2.27931000
      O        3.42317000      26.29760000       8.37823000
      H        4.23289000      26.39000000       7.90067000
      H        3.52615000      25.56510000       8.97284000
      O       -4.91217000      36.03640000      20.12810000
      H       -4.02584000      35.89060000      19.75830000
      H       -4.83605000      36.56340000      20.97620000
      O       20.30930000      21.17645000      -1.55507000
      H       21.03230000      21.80853000      -1.42815000
      H       20.44040000      20.54820000      -2.30558000
      O       17.63270000      18.63611000      -1.45303000
      H       17.18510000      19.07247000      -2.18930000
      H       17.59600000      19.36078000      -0.77261100
      O      -11.85650000       9.32659000       6.38427000
      H      -11.91870000       8.42008000       6.73656000
      H      -10.96070000       9.59879000       6.56532000
      O       14.34220000       6.58714000       5.75163000
      H       14.20720000       5.87450000       5.13562000
      H       14.05200000       6.34737000       6.61672000
      O       -1.09658000      18.62827000       5.58702000
      H       -2.04987000      18.36104000       5.55373000
      H       -0.68250800      17.83005000       5.89003000
      O        8.13776000      14.42921000      16.81480000
      H        8.76908000      13.89311000      16.26590000
      H        8.54559000      14.80894000      17.63890000
      O        0.05855300      11.82598900      17.45460000
      H        0.96214000      12.10548300      17.27990000
      H        0.08964280      10.90732000      17.79400000
      O       27.67350000      13.02729400      12.06030000
      H       28.34720000      13.18104100      12.69580000
      H       27.19490000      12.26214300      12.45860000
      O        9.89541000       4.46244000       8.17742000
      H        9.62897000       3.62034000       8.58524000
      H        9.28724000       5.05986000       8.69880000
      O       -4.41370000      32.60930000       8.05879000
      H       -3.76101000      33.23950000       7.70885000
      H       -4.49934000      31.92700000       7.38700000
      O       16.99780000      16.05080000      11.63730000
      H       17.31810000      15.72370000      12.51290000
      H       17.08550000      16.99727000      11.68570000
      O        6.48319000      23.34640000       3.40103000
      H        5.63763000      23.41260000       2.85932000
      H        6.32943000      24.08920000       4.05745000
      O        4.49883000      20.20536000      13.14360000
      H        3.57897000      20.34015000      12.89780000
      H        4.40785000      20.00602000      14.13040000
      O       22.38010000       9.83751000      19.81360000
      H       22.50240000       9.72596000      18.86030000
      H       23.27000000      10.01074000      20.13910000
      O        7.60549000      32.53670000       1.52318000
      H        7.40576000      32.86790000       2.44617000
      H        6.89393000      31.96060000       1.16986000
      O       -9.80851000      27.60180000       5.82547000
      H       -8.98420000      27.91160000       6.23087000
      H       -9.53181000      27.03140000       5.10912000
      O        1.89878000      15.81080000       9.95468000
      H        2.53193000      16.06424000      10.67490000
      H        2.50766000      15.16971000       9.48478000
      O        9.54794000      26.37950000      -3.42910000
      H        8.80101000      25.96530000      -2.93926000
      H       10.27920000      26.40280000      -2.79475000
      O       -3.92553000       4.67527000      -9.61729000
      H       -3.86420000       5.42259000      -8.98787000
      H       -3.75817000       3.87274000      -9.04343000
      O        0.44092400      23.13270000      12.05860000
      H        0.83931100      22.32666000      12.42840000
      H        0.35887600      22.99580000      11.11070000
      O       12.12770000      19.12656000       3.12351000
      H       11.86650000      19.02036000       4.03971000
      H       11.35860000      19.40032000       2.60943000
      O       26.48550000      20.87521000     -11.83130000
      H       26.44880000      20.79541000     -10.86690000
      H       25.91510000      20.12284000     -12.22220000
      O        8.76592000      19.03206000       4.83144000
      H        9.47545000      19.75383000       4.67087000
      H        7.97602000      19.53755000       4.74199000
      O       -4.62340000      28.89700000       6.19871000
      H       -3.86477000      28.76810000       6.84392000
      H       -4.32266000      29.77310000       5.96346000
      O       13.40050000      12.60383700      -4.66240000
      H       14.24900000      13.04818200      -4.64394000
      H       12.99810000      12.88925800      -5.47766000
      O        4.34821000      19.72338000       3.29043000
      H        3.53537000      20.04296000       3.70824000
      H        4.26206000      18.74561000       3.39956000
      O       19.59060000       0.64450000      22.11300000
      H       19.37940000       0.76130000      23.07720000
      H       19.24050000       1.49830000      21.74620000
      O       30.27470000      14.89360000       4.30373000
      H       31.23710000      14.81910000       4.30668000
      H       30.02460000      14.06810000       4.71635000
      O       17.50473000      -2.09187000     -12.52020000
      H       18.21642000      -1.44510000     -12.70560000
      H       17.84957000      -2.91898000     -12.19440000
      O       16.44996000       7.60544000      -3.68524000
      H       16.69003000       6.94768000      -4.41446000
      H       17.19458000       8.28889000      -3.67208000
      O        0.19350000      18.89220000      12.25860000
      H       -0.66640000      19.19600000      12.55890000
      H       -0.03140000      18.59980000      11.38190000
      O       13.78461000       4.68750000      16.07470000
      H       13.19220000       5.33188000      15.70890000
      H       13.34914100       4.08655000      16.73020000
      O        8.99811000       3.99641000      12.57220000
      H        9.94066000       4.05205000      12.38670000
      H        8.84219000       4.18579000      13.49940000
      O       -0.03810000       5.26919000      -2.78020000
      H        0.74590000       4.62996000      -2.73820000
      H       -0.73450000       4.83976000      -3.28648000
      O       -0.45460000      14.22990000      10.97500000
      H        0.01150000      13.48810000      11.29410000
      H        0.24980000      14.92310000      10.79950000
      O       28.63660000      10.92160000       2.09580000
      H       28.19660000      10.15310000       2.51719000
      H       29.12080000      10.54170000       1.31827000
      O       22.59360000      12.92940000       3.09205000
      H       23.19360000      12.63090000       3.73607000
      H       21.98179000      12.13220000       2.94022000
      O       20.19605000       4.98249000      -2.29855000
      H       20.49228000       4.60108000      -1.47153000
      H       19.41714000       5.40667000      -2.04022000
      O       27.00280000       2.43851000       2.33359000
      H       26.27980000       2.38788000       1.70989000
      H       26.82950000       3.36726000       2.62982000
      O        5.75525000       9.71604000      21.73940000
      H        6.13292000      10.17630000      20.91490000
      H        6.48815000       9.37252000      22.22920000
      O       13.42730000       7.62893000      -3.71784000
      H       14.37122000       7.70838000      -3.49284000
      H       13.20209600       6.70589000      -3.39957000
      O       10.41641000       8.81074000       4.64761000
      H       10.08420000       9.40933000       3.96349000
      H       11.39040000       8.88476000       4.52207000
      O       24.67120000      10.23950000       9.10079000
      H       25.08980000      10.95650000       8.67039000
      H       25.13420000       9.38279000       8.86118000
      O       12.17558700      15.84350000      13.25460000
      H       12.42470418      16.62720000      12.75340000
      H       11.99710800      15.22620000      12.52560000
      O       29.67350000      -6.21439000      18.95750000
      H       29.68240000      -7.18011000      18.92590000
      H       28.86650000      -5.96877000      18.52680000
      O       13.99232000       8.55013000       3.48535000
      H       14.20649000       8.35399000       4.39869000
      H       13.33633100       7.79040000       3.31060000
      O       22.15687000      10.53440000     -12.33500000
      H       21.75966000      11.43670000     -12.37350000
      H       23.13770000      10.62350000     -12.51260000
      O       15.61186000      -1.70399000       6.69143000
      H       15.06086000      -0.91080900       6.70096000
      H       15.71213000      -1.99342000       7.64120000
      O       17.43286000       3.41556000       7.01155000
      H       17.67540000       3.30163000       7.95343000
      H       18.24406000       3.47012000       6.52344000
      O       28.63560000      -0.86663700      -2.85105000
      H       29.47640000      -1.46010000      -2.85949000
      H       28.24330000      -0.94576600      -1.95729000
      O       30.81240000      15.45230000       9.37872000
      H       30.12210000      15.50250000      10.02480000
      H       31.45780000      16.17220000       9.59111000
      O       24.85740000      -8.71873000      -6.55194000
      H       25.66560000      -9.18214000      -6.25474000
      H       24.16430000      -9.43587000      -6.45253000
      O       10.29232000      -4.80632000      13.63960000
      H       10.45841000      -3.92263000      13.27480000
      H        9.27977000      -4.92484000      13.58540000
      O       17.89695000     -12.78860000      18.12950000
      H       18.46948000     -12.92690000      18.88220000
      H       17.16944000     -13.43130000      18.27050000
      O       21.48380000      13.52840000      12.92680000
      H       21.49296000      14.42340000      12.64730000
      H       21.87712000      13.49050000      13.82760000
      O       18.96756000     -11.95970000      12.30680000
      H       18.32365000     -11.48740000      12.84550000
      H       19.88789000     -11.66100000      12.52900000
      O        9.16568000      -2.19516000      15.18330000
      H        9.20881000      -2.38945000      14.23370000