&GLOBAL
  PRINT_LEVEL LOW
  PROJECT hf-chain
  RUN_TYPE ENERGY
&END GLOBAL

&FORCE_EVAL
  METHOD QS
  &DFT
    BASIS_SET_FILE_NAME GTH_BASIS_SETS
    POTENTIAL_FILE_NAME GTH_POTENTIALS
    &ALMO_SCF
      ALMO_ALGORITHM DIAG
      ALMO_SCF_GUESS ATOMIC
      DELOCALIZE_METHOD XALMO_SCF
      EPS_FILTER 1.0E-8
      RETURN_ORTHOGONALIZED_MOS F
      XALMO_R_CUTOFF_FACTOR 1.2
      &ALMO_OPTIMIZER_DIIS
        EPS_ERROR 5.0E-4
        MAX_ITER 30
        N_DIIS 7
      &END ALMO_OPTIMIZER_DIIS
      &XALMO_OPTIMIZER_PCG
        CONJUGATOR FLETCHER
        EPS_ERROR 5.0E-4
        LIN_SEARCH_EPS_ERROR 0.05
        LIN_SEARCH_STEP_SIZE_GUESS 0.1
        MAX_ITER 100
        MAX_ITER_OUTER_LOOP 2
      &END XALMO_OPTIMIZER_PCG
    &END ALMO_SCF
    &MGRID
      CUTOFF 200  ! 320
      NGRIDS 5
    &END MGRID
    &QS
      ALMO_SCF T
      EPS_DEFAULT 1.0E-8  ! 1.0E-12
    &END QS
    &XC
      &XC_FUNCTIONAL BLYP
      &END XC_FUNCTIONAL
    &END XC
  &END DFT
  &SUBSYS
    &CELL
      @INCLUDE 'FH-chain.cell'
      MULTIPLE_UNIT_CELL 1 1 1
    &END CELL
    &COORD
      @INCLUDE 'FH-chain.xyz'
    &END COORD
    &KIND H
      BASIS_SET SZV-GTH
      POTENTIAL GTH-BLYP-q1
    &END KIND
    &KIND F
      BASIS_SET SZV-GTH
      POTENTIAL GTH-BLYP-q7
    &END KIND
    &TOPOLOGY
      MULTIPLE_UNIT_CELL 1 1 1
    &END TOPOLOGY
  &END SUBSYS
&END FORCE_EVAL
