&GLOBAL
  PRINT_LEVEL LOW
  PROJECT LiF
  RUN_TYPE ENERGY
&END GLOBAL

&FORCE_EVAL
  METHOD QS
  &DFT
    BASIS_SET_FILE_NAME GTH_BASIS_SETS
    POTENTIAL_FILE_NAME GTH_POTENTIALS
    &ALMO_SCF
      ALMO_ALGORITHM DIAG
      ALMO_SCF_GUESS ATOMIC
      DELOCALIZE_METHOD FULL_X_THEN_SCF
      EPS_FILTER 1.0E-8
      XALMO_R_CUTOFF_FACTOR 1.2
      &ALMO_OPTIMIZER_DIIS
        EPS_ERROR 5.0E-4
        MAX_ITER 10
        N_DIIS 5
      &END ALMO_OPTIMIZER_DIIS
      &XALMO_OPTIMIZER_PCG
        CONJUGATOR FLETCHER_REEVES
        EPS_ERROR 5.0E-4
        LIN_SEARCH_EPS_ERROR 0.1
        LIN_SEARCH_STEP_SIZE_GUESS 0.5
        MAX_ITER 100
        MAX_ITER_OUTER_LOOP 0
      &END XALMO_OPTIMIZER_PCG
    &END ALMO_SCF
    &MGRID
      CUTOFF 200  ! 320
      NGRIDS 5
    &END MGRID
    &QS
      ALMO_SCF T
      EPS_DEFAULT 1.0E-8  ! 1.0E-12
    &END QS
    &XC
      &XC_FUNCTIONAL BLYP
      &END XC_FUNCTIONAL
    &END XC
  &END DFT
  &SUBSYS
    &CELL
      ABC 4.0351 4.0351 4.0351
      MULTIPLE_UNIT_CELL 1 1 1
    &END CELL
    &COORD
      SCALED
      Li 0.0 0.0 0.0 Li-plus
      Li 0.5 0.5 0.0 Li-plus
      Li 0.5 0.0 0.5 Li-plus
      Li 0.0 0.5 0.5 Li-plus
      F  0.0 0.0 0.5 F-minus
      F  0.0 0.5 0.0 F-minus
      F  0.5 0.0 0.0 F-minus
      F  0.5 0.5 0.5 F-minus
    &END COORD
    &KIND Li
      BASIS_SET DZVP-GTH
      POTENTIAL GTH-BLYP-q3
      &BS
        &ALPHA
          L 0
          N 2
          NEL -1
        &END ALPHA
        ! BETA FUNCTION SHOULD BE THE SAME
        ! TO AVOID WARNINGS
        &BETA
          L 0
          N 2
          NEL -1
        &END BETA
      &END BS
    &END KIND
    &KIND F
      BASIS_SET DZVP-GTH
      POTENTIAL GTH-BLYP-q7
      &BS
        &ALPHA
          L 1
          N 2
          NEL +1
        &END ALPHA
        ! BETA FUNCTION SHOULD BE THE SAME
        ! TO AVOID WARNINGS
        &BETA
          L 1
          N 2
          NEL +1
        &END BETA
      &END BS
    &END KIND
    &TOPOLOGY
      MULTIPLE_UNIT_CELL 1 1 1
    &END TOPOLOGY
  &END SUBSYS
&END FORCE_EVAL
