&GLOBAL
  PROJECT iterate
  RUN_TYPE ENERGY
  PRINT_LEVEL LOW
&END GLOBAL
&FORCE_EVAL
  METHOD QS
  &DFT
    BASIS_SET_FILE_NAME GTH_BASIS_SETS
    POTENTIAL_FILE_NAME POTENTIAL
    &MGRID
      CUTOFF 200
      NGRIDS 4
    &END MGRID
    &QS
      ALMO_SCF T
      EPS_DEFAULT 1.0E-9
    &END QS

    &ALMO_SCF

      EPS_FILTER                 1.0E-8
      ALMO_ALGORITHM             DIAG
      DELOCALIZE_METHOD          XALMO_SCF
      XALMO_R_CUTOFF_FACTOR      0.6
      ALMO_SCF_GUESS             ATOMIC

      &MATRIX_ITERATE
        EPS_TARGET_FACTOR        100.
        EPS_LANCZOS              1.0E-3
        MAX_ITER_LANCZOS         64
        ORDER_LANCZOS            3
      &END MATRIX_ITERATE

      &ALMO_OPTIMIZER_DIIS
        MAX_ITER                 100
        N_DIIS                   5
        EPS_ERROR                1.0E-5
      &END ALMO_OPTIMIZER_DIIS

      &XALMO_OPTIMIZER_PCG
        MAX_ITER                 30
        EPS_ERROR                1.0E-7
        CONJUGATOR               HESTENES_STIEFEL
        PRECONDITIONER           DEFAULT
        LIN_SEARCH_EPS_ERROR     0.05
        LIN_SEARCH_STEP_SIZE_GUESS 0.1
        MAX_ITER_OUTER_LOOP      2
      &END XALMO_OPTIMIZER_PCG

    &END ALMO_SCF

    &XC
      &XC_FUNCTIONAL PBE
      &END XC_FUNCTIONAL
    &END XC

  &END DFT

  &SUBSYS
    &CELL
      ABC 4.0351 4.0351 4.0351
      MULTIPLE_UNIT_CELL 1 1 1
    &END CELL
    &TOPOLOGY
      MULTIPLE_UNIT_CELL 1 1 1
    &END
    &COORD
      SCALED
      Li 0.0 0.0 0.0 Li-plus
      Li 0.5 0.5 0.0 Li-plus
      Li 0.5 0.0 0.5 Li-plus
      Li 0.0 0.5 0.5 Li-plus
      F  0.0 0.0 0.5 F-minus
      F  0.0 0.5 0.0 F-minus
      F  0.5 0.0 0.0 F-minus
      F  0.5 0.5 0.5 F-minus
    &END COORD
    &KIND Li
      BASIS_SET DZVP-GTH
      POTENTIAL GTH-BLYP-q3
      &BS
        &ALPHA
          NEL -1
          L    0
          N    2
        &END
        ! BETA FUNCTION SHOULD BE THE SAME
        ! TO AVOID WARNINGS
        &BETA
          NEL -1
          L    0
          N    2
        &END
      &END
    &END KIND
    &KIND F
      BASIS_SET DZVP-GTH
      POTENTIAL GTH-BLYP-q7
      &BS
        &ALPHA
          NEL +1
          L    1
          N    2
        &END
        ! BETA FUNCTION SHOULD BE THE SAME
        ! TO AVOID WARNINGS
        &BETA
          NEL +1
          L    1
          N    2
        &END
      &END
    &END KIND
  &END SUBSYS
&END FORCE_EVAL

