&FORCE_EVAL
  METHOD Quickstep
  &DFT
    LSD
    &QS
      METHOD PM6
      &SE
      &END
    &END QS
    &SCF
      MAX_SCF 0
    &END SCF
  &END DFT
  &SUBSYS
    &CELL
#NbO Pm(-3)m (O^1_{h}, #221) & cP6
     A   4.21200000   .00000000   .00000000
     B    .00000000  4.21200000   .00000000
     C    .00000000   .00000000  4.21200000
    &END CELL
    &COORD
 SCALED
Nb   .00000000   .50000000   .50000000      .00000000  2.10600000  2.10600000
Nb   .50000000   .00000000   .50000000     2.10600000   .00000000  2.10600000
Nb   .50000000   .50000000   .00000000     2.10600000  2.10600000   .00000000
O    .50000000   .00000000   .00000000     2.10600000   .00000000   .00000000
O    .00000000   .50000000   .00000000      .00000000  2.10600000   .00000000
O    .00000000   .00000000   .50000000      .00000000   .00000000  2.10600000
    &END COORD
    &PRINT
      &SYMMETRY
       CHECK_SYMMETRY m<3>m
      &END
    &END
    &TOPOLOGY
      CONNECTIVITY OFF
    &END
  &END SUBSYS
&END FORCE_EVAL
&GLOBAL
  PROJECT c_32_NbO
  RUN_TYPE ENERGY
&END GLOBAL
