&FORCE_EVAL
  METHOD Quickstep
  &DFT
    &QS
      METHOD PM6
      &SE
      &END
    &END QS
    &SCF
      MAX_SCF 0
    &END SCF
  &END DFT
  &SUBSYS
    &CELL
#NiTi_2 & Fd(-3)m-O_h^7 #227 & cF96 & Pearson's Handbook Vol. IV, p. 4715
     A   0.00000000  5.65965000  5.65965000
     B   5.65965000  0.00000000  5.65965000
     C   5.65965000  5.65965000  0.00000000
    &END CELL
    &COORD
 SCALED
Ti  0.00000000  0.50000000  0.50000000     5.65965000  2.82982500  2.82982500
Ti  0.50000000  0.00000000  0.50000000     2.82982500  5.65965000  2.82982500
Ti  0.50000000  0.50000000  0.00000000     2.82982500  2.82982500  5.65965000
Ti  0.50000000  0.50000000  0.50000000     5.65965000  5.65965000  5.65965000
Ni  0.29580000  0.29580000  0.29580000     3.34824894  3.34824894  3.34824894
Ni  0.29580000  0.29580000  0.61260000     5.14122606  5.14122606  3.34824894
Ni  0.29580000  0.61260000  0.29580000     5.14122606  3.34824894  5.14122606
Ni  0.61260000  0.29580000  0.29580000     3.34824894  5.14122606  5.14122606
Ni -0.29580000 -0.29580000 -0.29580000    -3.34824894 -3.34824894 -3.34824894
Ni -0.29580000 -0.29580000 -0.61260000    -5.14122606 -5.14122606 -3.34824894
Ni -0.29580000 -0.61260000 -0.29580000    -5.14122606 -3.34824894 -5.14122606
Ni -0.61260000 -0.29580000 -0.29580000    -3.34824894 -5.14122606 -5.14122606
Ti  0.07190000  0.07190000 -0.32190000    -1.41491250 -1.41491250  0.81385767
Ti  0.07190000 -0.32190000  0.07190000    -1.41491250  0.81385767 -1.41491250
Ti -0.32190000  0.07190000  0.07190000     0.81385767 -1.41491250 -1.41491250
Ti  0.07190000 -0.32190000 -0.32190000    -3.64368267 -1.41491250 -1.41491250
Ti -0.32190000  0.07190000 -0.32190000    -1.41491250 -3.64368267 -1.41491250
Ti -0.32190000 -0.32190000  0.07190000    -1.41491250 -1.41491250 -3.64368267
Ti -0.07190000 -0.07190000  0.32190000     1.41491250  1.41491250 -0.81385767
Ti -0.07190000  0.32190000 -0.07190000     1.41491250 -0.81385767  1.41491250
Ti  0.32190000 -0.07190000 -0.07190000    -0.81385767  1.41491250  1.41491250
Ti -0.07190000  0.32190000  0.32190000     3.64368267  1.41491250  1.41491250
Ti  0.32190000 -0.07190000  0.32190000     1.41491250  3.64368267  1.41491250
Ti  0.32190000  0.32190000 -0.07190000     1.41491250  1.41491250  3.64368267
    &END COORD
    &PRINT
      &SYMMETRY
       CHECK_SYMMETRY m<3>m
      &END
    &END
    &TOPOLOGY
      CONNECTIVITY OFF
    &END
  &END SUBSYS
&END FORCE_EVAL
&GLOBAL
  PROJECT c_32_NiTi2
  RUN_TYPE ENERGY
&END GLOBAL
