&FORCE_EVAL
  METHOD Quickstep
  &DFT
    &QS
      METHOD PM6
      &SE
      &END
    &END QS
    &SCF
      MAX_SCF 0
    &END SCF
  &END DFT
  &SUBSYS
    &CELL
#8 atom bcc supercell of bcc with full symmetry & Im(-3)m & O_h^9 & #229 & cI16
     A  -2.87000000  2.87000000  2.87000000
     B   2.87000000 -2.87000000  2.87000000
     C   2.87000000  2.87000000 -2.87000000
    &END CELL
    &COORD
 SCALED
Cr  0.00000000  0.00000000  0.00000000     0.00000000  0.00000000  0.00000000
Fe  0.50000000  0.50000000  0.50000000     1.43500000  1.43500000  1.43500000
Fe  0.50000000  0.00000000  0.00000000    -1.43500000  1.43500000  1.43500000
Fe  0.00000000  0.50000000  0.00000000     1.43500000 -1.43500000  1.43500000
Fe  0.00000000  0.00000000  0.50000000     1.43500000  1.43500000 -1.43500000
Ni  0.00000000  0.50000000  0.50000000     2.87000000  0.00000000  0.00000000
Ni  0.50000000  0.00000000  0.50000000     0.00000000  2.87000000  0.00000000
Ni  0.50000000  0.50000000  0.00000000     0.00000000  0.00000000  2.87000000
    &END COORD
    &PRINT
      &SYMMETRY
       CHECK_SYMMETRY m<3>m
      &END
    &END
    &TOPOLOGY
      CONNECTIVITY OFF
    &END
  &END SUBSYS
&END FORCE_EVAL
&GLOBAL
  PROJECT c_32_hferrite16
  RUN_TYPE ENERGY
&END GLOBAL
