&FORCE_EVAL
  METHOD Quickstep
  &DFT
    &QS
      METHOD PM6
      &SE
      &END
    &END QS
    &SCF
      MAX_SCF 0
    &END SCF
  &END DFT
  &SUBSYS
    &CELL
#Cr_3 Si & Pm(-3)n-O_h^3 #223 & A15 & cP8 & Nevitt, Ch. 13 in Westbrook
     A   4.55000000  0.00000000  0.00000000
     B   0.00000000  4.55000000  0.00000000
     C   0.00000000  0.00000000  4.55000000
    &END CELL
    &COORD
 SCALED
Si  0.00000000  0.00000000  0.00000000     0.00000000  0.00000000  0.00000000
Si  0.50000000  0.50000000  0.50000000     2.27500000  2.27500000  2.27500000
Cr  0.25000000  0.50000000  0.00000000     1.13750000  2.27500000  0.00000000
Cr  0.75000000  0.50000000  0.00000000     3.41250000  2.27500000  0.00000000
Cr  0.00000000  0.25000000  0.50000000     0.00000000  1.13750000  2.27500000
Cr  0.00000000  0.75000000  0.50000000     0.00000000  3.41250000  2.27500000
Cr  0.50000000  0.00000000  0.25000000     2.27500000  0.00000000  1.13750000
Cr  0.50000000  0.00000000  0.75000000     2.27500000  0.00000000  3.41250000
    &END COORD
    &PRINT
      &SYMMETRY
       CHECK_SYMMETRY m<3>m
      &END
    &END
    &TOPOLOGY
      CONNECTIVITY OFF
    &END
  &END SUBSYS
&END FORCE_EVAL
&GLOBAL
  PROJECT c_32_Cr3Si
  RUN_TYPE ENERGY
&END GLOBAL
