&GLOBAL
  PROJECT c_32_Pt3O4
  RUN_TYPE ENERGY
&END GLOBAL

&FORCE_EVAL
  METHOD Quickstep
  &DFT
    &QS
      METHOD PM6
      &SE
      &END SE
    &END QS
    &SCF
      MAX_SCF 0
    &END SCF
  &END DFT
  &SUBSYS
    &CELL
      #Pt_3 O_4 & Im(-3)m & O_h^9 & # 229 & cI14
      A -3.11300000 3.11300000 3.11300000
      B 3.11300000 -3.11300000 3.11300000
      C 3.11300000 3.11300000 -3.11300000
    &END CELL
    &COORD
      SCALED
      Pt   .00000000   .50000000   .50000000     3.11300000   .00000000  -.00000000
      Pt   .50000000   .00000000   .50000000      .00000000  3.11300000  -.00000000
      Pt   .50000000   .50000000   .00000000      .00000000  -.00000000  3.11300000
      O    .50000000   .50000000   .50000000     1.55650000  1.55650000  1.55650000
      O    .50000000   .00000000   .00000000    -1.55650000  1.55650000  1.55650000
      O    .00000000   .50000000   .00000000     1.55650000 -1.55650000  1.55650000
      O    .00000000   .00000000   .50000000     1.55650000  1.55650000 -1.55650000
    &END COORD
    &PRINT
      &SYMMETRY
        CHECK_SYMMETRY m<3>m
      &END SYMMETRY
    &END PRINT
    &TOPOLOGY
      CONNECTIVITY OFF
    &END TOPOLOGY
  &END SUBSYS
&END FORCE_EVAL
