&FORCE_EVAL
  METHOD Quickstep
  &DFT
    LSD
    &QS
      METHOD PM6
      &SE
      &END
    &END QS
    &SCF
      MAX_SCF 0
    &END SCF
  &END DFT
  &SUBSYS
    &CELL
#Sb_2 Tl_7 & Im(-3)m & O_h^9 & #229 & cI54
     A  -5.80900000  5.80900000  5.80900000
     B   5.80900000 -5.80900000  5.80900000
     C   5.80900000  5.80900000 -5.80900000
    &END CELL
    &COORD
 SCALED
Tl  0.00000000  0.00000000  0.00000000     0.00000000  0.00000000  0.00000000
Tl  0.34080000  0.34080000  0.34080000     1.97970720  1.97970720  1.97970720
Tl  0.34080000  0.00000000  0.00000000    -1.97970720  1.97970720  1.97970720
Tl  0.00000000  0.34080000  0.00000000     1.97970720 -1.97970720  1.97970720
Tl  0.00000000  0.00000000  0.34080000     1.97970720  1.97970720 -1.97970720
Tl -0.34080000 -0.34080000 -0.34080000    -1.97970720 -1.97970720 -1.97970720
Tl -0.34080000  0.00000000  0.00000000     1.97970720 -1.97970720 -1.97970720
Tl  0.00000000 -0.34080000  0.00000000    -1.97970720  1.97970720 -1.97970720
Tl  0.00000000  0.00000000 -0.34080000    -1.97970720 -1.97970720  1.97970720
Sb  0.00000000  0.31380000  0.31380000     3.64572840  0.00000000  0.00000000
Sb  0.31380000  0.00000000  0.31380000     0.00000000  3.64572840  0.00000000
Sb  0.31380000  0.31380000  0.00000000     0.00000000  0.00000000  3.64572840
Sb  0.00000000 -0.31380000 -0.31380000    -3.64572840  0.00000000  0.00000000
Sb -0.31380000  0.00000000 -0.31380000     0.00000000 -3.64572840  0.00000000
Sb -0.31380000 -0.31380000  0.00000000     0.00000000  0.00000000 -3.64572840
Tl  0.69940000  0.34970000  0.34970000     0.00000000  4.06281460  4.06281460
Tl  0.34970000  0.69940000  0.34970000     4.06281460  0.00000000  4.06281460
Tl  0.34970000  0.34970000  0.69940000     4.06281460  4.06281460  0.00000000
Tl  0.00000000 -0.34970000  0.34970000     0.00000000  4.06281460 -4.06281460
Tl -0.34970000  0.00000000  0.34970000     4.06281460  0.00000000 -4.06281460
Tl -0.34970000  0.34970000  0.00000000     4.06281460 -4.06281460  0.00000000
Tl -0.69940000 -0.34970000 -0.34970000     0.00000000 -4.06281460 -4.06281460
Tl -0.34970000 -0.69940000 -0.34970000    -4.06281460  0.00000000 -4.06281460
Tl -0.34970000 -0.34970000 -0.69940000    -4.06281460 -4.06281460  0.00000000
Tl  0.00000000  0.34970000 -0.34970000     0.00000000 -4.06281460  4.06281460
Tl  0.34970000  0.00000000 -0.34970000    -4.06281460  0.00000000  4.06281460
Tl  0.34970000 -0.34970000  0.00000000    -4.06281460  4.06281460  0.00000000
    &END COORD
    &PRINT
      &SYMMETRY
       CHECK_SYMMETRY m<3>m
      &END
    &END
    &TOPOLOGY
      CONNECTIVITY OFF
    &END
  &END SUBSYS
&END FORCE_EVAL
&GLOBAL
  PROJECT c_32_Sb2Tl7
  RUN_TYPE ENERGY
&END GLOBAL
