&FORCE_EVAL
  METHOD Quickstep
  &DFT
    &QS
      METHOD PM6
      &SE
      &END
    &END QS
    &SCF
      MAX_SCF 0
    &END SCF
  &END DFT
  &SUBSYS
    &CELL
#CTi_2 & Fd(-3)m & #227 & O_h^7 & cF48
     A   0.00000000  4.30000000  4.30000000
     B   4.30000000  0.00000000  4.30000000
     C   4.30000000  4.30000000  0.00000000
    &END CELL
    &COORD
 SCALED
C   0.00000000  0.00000000  0.00000000     0.00000000  0.00000000  0.00000000
C   0.00000000  1.00000000  0.50000000     6.45000000  2.15000000  4.30000000
C   1.00000000  0.50000000  0.00000000     2.15000000  4.30000000  6.45000000
C   0.50000000  0.00000000  1.00000000     4.30000000  6.45000000  2.15000000
Ti  0.24500000  0.24500000  0.24500000     2.10700000  2.10700000  2.10700000
Ti  0.24500000  1.24500000 -0.23500000     4.34300000  0.04300000  6.40700000
Ti  1.24500000 -0.23500000  0.24500000     0.04300000  6.40700000  4.34300000
Ti -0.23500000  0.24500000  1.24500000     6.40700000  4.34300000  0.04300000
Ti -0.24500000 -0.24500000 -0.24500000    -2.10700000 -2.10700000 -2.10700000
Ti -0.24500000  0.75500000  1.23500000     8.55700000  4.25700000  2.19300000
Ti  0.75500000  1.23500000 -0.24500000     4.25700000  2.19300000  8.55700000
Ti  1.23500000 -0.24500000  0.75500000     2.19300000  8.55700000  4.25700000
    &END COORD
    &PRINT
      &SYMMETRY
       CHECK_SYMMETRY m<3>m
      &END
    &END
    &TOPOLOGY
      CONNECTIVITY OFF
    &END
  &END SUBSYS
&END FORCE_EVAL
&GLOBAL
  PROJECT c_32_Ca33Ge
  RUN_TYPE ENERGY
&END GLOBAL
