&GLOBAL
  PROJECT c_32_bcc
  RUN_TYPE ENERGY
&END GLOBAL

&FORCE_EVAL
  METHOD Quickstep
  &DFT
    LSD
    &QS
      METHOD PM6
      &SE
      &END SE
    &END QS
    &SCF
      MAX_SCF 0
    &END SCF
  &END DFT
  &SUBSYS
    &CELL
      #Nb (for W) & Im(-3)m & #229 & cI2 & A2 & Ashcroft and Mermin, 70
      A -1.65000000 1.65000000 1.65000000
      B 1.65000000 -1.65000000 1.65000000
      C 1.65000000 1.65000000 -1.65000000
    &END CELL
    &COORD
      SCALED
      Nb   .00000000   .00000000   .00000000      .00000000   .00000000   .00000000
    &END COORD
    &PRINT
      &SYMMETRY
        CHECK_SYMMETRY m<3>m
      &END SYMMETRY
    &END PRINT
    &TOPOLOGY
      CONNECTIVITY OFF
    &END TOPOLOGY
  &END SUBSYS
&END FORCE_EVAL
