&GLOBAL
  PROJECT c_32_CsCl
  RUN_TYPE ENERGY
&END GLOBAL

&FORCE_EVAL
  METHOD Quickstep
  &DFT
    &QS
      METHOD PM6
      &SE
      &END SE
    &END QS
    &SCF
      MAX_SCF 0
    &END SCF
  &END DFT
  &SUBSYS
    &CELL
      #CsCl & Pm(-3)m-O_h^1 #221 & cP2 & B2 & Kittel p. 17
      A 4.11000000 0.00000000 0.00000000
      B 0.00000000 4.11000000 0.00000000
      C 0.00000000 0.00000000 4.11000000
    &END CELL
    &COORD
      SCALED
      Cs  0.00000000  0.00000000  0.00000000     0.00000000  0.00000000  0.00000000
      Cl  0.50000000  0.50000000  0.50000000     2.05500000  2.05500000  2.05500000
    &END COORD
    &PRINT
      &SYMMETRY
        CHECK_SYMMETRY m<3>m
      &END SYMMETRY
    &END PRINT
    &TOPOLOGY
      CONNECTIVITY OFF
    &END TOPOLOGY
  &END SUBSYS
&END FORCE_EVAL
