&FORCE_EVAL
  METHOD Quickstep
  &DFT
    &QS
      METHOD PM6
      &SE
      &END
    &END QS
    &SCF
      MAX_SCF 0
    &END SCF
  &END DFT
  &SUBSYS
    &CELL
#U B_{12} & Fm(-3)m-O_h^5 #225 & cF52 & D2_f & Pearon's Alloys pp. 757-8
     A   0.00000000  3.73850000  3.73850000
     B   3.73850000  0.00000000  3.73850000
     C   3.73850000  3.73850000  0.00000000
    &END CELL
    &COORD
 SCALED
#replace U by Ti
Ti  0.00000000  0.00000000  0.00000000     0.00000000  0.00000000  0.00000000
B  -0.16666667  0.50000000  0.50000000     3.73850000  1.24616667  1.24616667
B   0.50000000 -0.16666667  0.50000000     1.24616667  3.73850000  1.24616667
B   0.50000000  0.50000000 -0.16666667     1.24616667  1.24616667  3.73850000
B   0.50000000  0.16666667 -0.16666667     0.00000000  1.24616667  2.49233333
B   0.16666667  0.50000000 -0.16666667     1.24616667  0.00000000  2.49233333
B   0.16666667 -0.16666667  0.50000000     1.24616667  2.49233333  0.00000000
B   0.16666667  0.50000000  0.50000000     3.73850000  2.49233333  2.49233333
B   0.50000000  0.16666667  0.50000000     2.49233333  3.73850000  2.49233333
B   0.50000000  0.50000000  0.16666667     2.49233333  2.49233333  3.73850000
B   0.50000000 -0.16666667  0.16666667     0.00000000  2.49233333  1.24616667
B  -0.16666667  0.50000000  0.16666667     2.49233333  0.00000000  1.24616667
B  -0.16666667  0.16666667  0.50000000     2.49233333  1.24616667  0.00000000
    &END COORD
    &PRINT
      &SYMMETRY
       CHECK_SYMMETRY m<3>m
      &END
    &END
    &TOPOLOGY
      CONNECTIVITY OFF
    &END
  &END SUBSYS
&END FORCE_EVAL
&GLOBAL
  PROJECT c_32_UB12
  RUN_TYPE ENERGY
&END GLOBAL
