&FORCE_EVAL
  METHOD Quickstep
  &DFT
    LSD
    &QS
      METHOD PM6
      &SE
      &END
    &END QS
    &SCF
      MAX_SCF 0
    &END SCF
  &END DFT
  &SUBSYS
    &CELL
#Cr_{23}C_6 & Fm(-3)m-O_h^5 #225 (acefh) & cF116 & D8_4
     A   0.00000000  5.32500000  5.32500000
     B   5.32500000  0.00000000  5.32500000
     C   5.32500000  5.32500000  0.00000000
    &END CELL
    &COORD
 SCALED
Mn  0.00000000  0.00000000  0.00000000     0.00000000  0.00000000  0.00000000
Fe  0.25000000  0.25000000  0.25000000     2.66250000  2.66250000  2.66250000
Fe  0.75000000  0.75000000  0.75000000     7.98750000  7.98750000  7.98750000
C  -0.27650000  0.27650000  0.27650000     2.94472500  0.00000000  0.00000000
C   0.27650000 -0.27650000 -0.27650000    -2.94472500  0.00000000  0.00000000
C   0.27650000 -0.27650000  0.27650000     0.00000000  2.94472500  0.00000000
C  -0.27650000  0.27650000 -0.27650000     0.00000000 -2.94472500  0.00000000
C   0.27650000  0.27650000 -0.27650000     0.00000000  0.00000000  2.94472500
C  -0.27650000 -0.27650000  0.27650000     0.00000000  0.00000000 -2.94472500
Ni  0.38090000  0.38090000  0.38090000     4.05658500  4.05658500  4.05658500
Ni  0.38090000  0.38090000 -1.14270000    -4.05658500 -4.05658500  4.05658500
Ni  0.38090000 -1.14270000  0.38090000    -4.05658500  4.05658500 -4.05658500
Ni -1.14270000  0.38090000  0.38090000     4.05658500 -4.05658500 -4.05658500
Ni -0.38090000 -0.38090000 -0.38090000    -4.05658500 -4.05658500 -4.05658500
Ni -0.38090000 -0.38090000  1.14270000     4.05658500  4.05658500 -4.05658500
Ni -0.38090000  1.14270000 -0.38090000     4.05658500 -4.05658500  4.05658500
Ni  1.14270000 -0.38090000 -0.38090000    -4.05658500  4.05658500  4.05658500
Cr  0.33980000  0.00000000  0.00000000     0.00000000  1.80943500  1.80943500
Cr  0.00000000  0.33980000 -0.33980000     0.00000000 -1.80943500  1.80943500
Cr  0.00000000 -0.33980000  0.33980000     0.00000000  1.80943500 -1.80943500
Cr -0.33980000  0.00000000  0.00000000     0.00000000 -1.80943500 -1.80943500
Cr  0.00000000  0.00000000  0.33980000     1.80943500  1.80943500  0.00000000
Cr  0.33980000 -0.33980000  0.00000000    -1.80943500  1.80943500  0.00000000
Cr -0.33980000  0.33980000  0.00000000     1.80943500 -1.80943500  0.00000000
Cr  0.00000000  0.00000000 -0.33980000    -1.80943500 -1.80943500  0.00000000
Cr  0.00000000  0.33980000  0.00000000     1.80943500  0.00000000  1.80943500
Cr -0.33980000  0.00000000  0.33980000     1.80943500  0.00000000 -1.80943500
Cr  0.33980000  0.00000000 -0.33980000    -1.80943500  0.00000000  1.80943500
Cr  0.00000000 -0.33980000  0.00000000    -1.80943500  0.00000000 -1.80943500
    &END COORD
    &PRINT
      &SYMMETRY
       CHECK_SYMMETRY m<3>m
      &END
    &END
    &TOPOLOGY
      CONNECTIVITY OFF
    &END
  &END SUBSYS
&END FORCE_EVAL
&GLOBAL
  PROJECT c_32_Cr23C6
  RUN_TYPE ENERGY
&END GLOBAL
