&FORCE_EVAL
  METHOD Quickstep
  &DFT
    &QS
      METHOD PM6
      &SE
      &END
    &END QS
    &SCF
      MAX_SCF 0
    &END SCF
  &END DFT
  &SUBSYS
    &CELL
#High-pressure Te & mP4 & P2_1-C_2^2 #4
     A   3.10400000  0.00000000  0.00000000
     B   0.00000000  7.51300000  0.00000000
     C  -0.22505656  0.00000000  4.75467660
    &END CELL
    &COORD
 SCALED
Te  0.25000000  0.23000000  0.48000000     0.66797285  1.72799000  2.28224477
Te -0.25000000  0.73000000 -0.48000000    -0.66797285  5.48449000 -2.28224477
Te  0.48000000  0.00000000  0.02000000     1.48541887  0.00000000  0.09509353
Te -0.48000000  0.50000000 -0.02000000    -1.48541887  3.75650000 -0.09509353
    &END COORD
    &PRINT
      &SYMMETRY
       CHECK_SYMMETRY 2
      &END
    &END
  &END SUBSYS
&END FORCE_EVAL
&GLOBAL
  PROJECT c_3_Te
  RUN_TYPE ENERGY
&END GLOBAL
