&FORCE_EVAL
  METHOD Quickstep
  &DFT
    &QS
      METHOD PM6
      &SE
      &END
    &END QS
    &SCF
      MAX_SCF 0
    &END SCF
  &END DFT
  &SUBSYS
    &CELL
#beta-Pu & mI34 & B2/m -- C_{2h}^3  (#12)
     A   5.91500000 -5.22450000  0.00000000
     B   5.91500000  5.22450000  0.00000000
     C  -6.92659710  0.00000000  6.09588230
    &END CELL
    &COORD
 SCALED
#replace Pu by Te
Te  0.00000000  0.00000000  0.00000000     0.00000000  0.00000000  0.00000000
Te -0.22000000  0.22000000  0.50000000    -3.46329855  2.29878000  3.04794115
Te  0.22000000 -0.22000000  0.50000000    -3.46329855 -2.29878000  3.04794115
Te  0.38700000  0.38700000  0.24100000     2.90890010  0.00000000  1.46910763
Te -0.38700000 -0.38700000 -0.24100000    -2.90890010  0.00000000 -1.46910763
Te -0.08200000 -0.08200000  0.25500000    -2.73634226  0.00000000  1.55444999
Te  0.08200000  0.08200000 -0.25500000     2.73634226  0.00000000 -1.55444999
Te  0.32800000  0.32800000 -0.23800000     5.52877011  0.00000000 -1.45081999
Te -0.32800000 -0.32800000  0.23800000    -5.52877011  0.00000000  1.45081999
Te -0.37600000  0.16000000  0.03700000    -1.53392409  2.80033200  0.22554765
Te  0.37600000 -0.16000000 -0.03700000     1.53392409 -2.80033200 -0.22554765
Te  0.16000000 -0.37600000  0.03700000    -1.53392409 -2.80033200  0.22554765
Te -0.16000000  0.37600000 -0.03700000     1.53392409  2.80033200 -0.22554765
Te  0.09700000  0.39700000  0.41400000     0.05439880  1.56735000  2.52369527
Te -0.09700000 -0.39700000 -0.41400000    -0.05439880 -1.56735000 -2.52369527
Te  0.39700000  0.09700000  0.41400000     0.05439880 -1.56735000  2.52369527
Te -0.39700000 -0.09700000 -0.41400000    -0.05439880  1.56735000 -2.52369527
    &END COORD
    &PRINT
      &SYMMETRY
       CHECK_SYMMETRY 2/m
      &END
    &END
    &TOPOLOGY
      CONNECTIVITY OFF
    &END
  &END SUBSYS
&END FORCE_EVAL
&GLOBAL
  PROJECT c_5_Pu
  RUN_TYPE ENERGY
&END GLOBAL
