&FORCE_EVAL
  METHOD Quickstep
  &DFT
    LSD
    &QS
      METHOD PM6
      &SE
      &END
    &END QS
    &SCF
      MAX_SCF 0
    &END SCF
  &END DFT
  &SUBSYS
    &CELL
#Au_5 Mn_2 & C2/m-C_{2h}^3 #12 (ai^3) & mC14 & Pearson Handbook I, Alloys 346-7
     A   4.59400000 -1.97700000  0.00000000
     B   4.59400000  1.97700000  0.00000000
     C  -0.85240550  0.00000000  6.42268210
    &END CELL
    &COORD
 SCALED
Au  0.00000000  0.00000000  0.00000000     0.00000000  0.00000000  0.00000000
Au  0.14300000  0.14300000  0.42900000     0.94820204  0.00000000  2.75533062
Au -0.14300000 -0.14300000 -0.42900000    -0.94820204  0.00000000 -2.75533062
Au  0.71400000  0.71400000  0.14300000     6.43833801  0.00000000  0.91844354
Au -0.71400000 -0.71400000 -0.14300000    -6.43833801  0.00000000 -0.91844354
Mn  0.42900000  0.42900000  0.28600000     3.69786403  0.00000000  1.83688708
Mn -0.42900000 -0.42900000 -0.28600000    -3.69786403  0.00000000 -1.83688708
    &END COORD
    &PRINT
      &SYMMETRY
       CHECK_SYMMETRY 2/m
      &END
    &END
    &TOPOLOGY
      CONNECTIVITY OFF
    &END
  &END SUBSYS
&END FORCE_EVAL
&GLOBAL
  PROJECT c_5_Au5Mn2
  RUN_TYPE ENERGY
&END GLOBAL
