&FORCE_EVAL
  METHOD Quickstep
  &DFT
    &QS
      METHOD PM6
      &SE
      &END
    &END QS
    &SCF
      MAX_SCF 0
    &END SCF
  &END DFT
  &SUBSYS
    &CELL
#Ag Au Te_4 & P2/c-C_{2h}^4 #13 & mP12 & E1_b & Pearson's Handbook v. I, p. 501
    A    8.96000000  0.00000000  0.00000000
    B    0.00000000  4.49000000  0.00000000
    C  -12.03859891  0.00000000  8.29557329
    &END CELL
    &COORD
 SCALED
Ag  0.00000000  0.00000000  0.00000000     0.00000000  0.00000000  0.00000000
Ag  0.00000000  0.00000000  0.50000000    -6.01929945  0.00000000  4.14778665
Au  0.00000000  0.43300000  0.25000000    -3.00964973  1.94417000  2.07389332
Au  0.00000000 -0.43300000 -0.25000000     3.00964973 -1.94417000 -2.07389332
Te  0.29800000  0.03100000 -0.00100000     2.68211860  0.13919000 -0.00829557
Te -0.29800000  0.03100000  0.50100000    -8.70141805  0.13919000  4.15608222
Te -0.29800000 -0.03100000  0.00100000    -2.68211860 -0.13919000  0.00829557
Te  0.29800000 -0.03100000  0.49900000    -3.33718086 -0.13919000  4.13949107
Te  0.27700000  0.42500000  0.23500000    -0.34715074  1.90825000  1.94945972
Te -0.27700000  0.42500000  0.26500000    -5.67214871  1.90825000  2.19832692
Te -0.27700000 -0.42500000 -0.23500000     0.34715074 -1.90825000 -1.94945972
Te  0.27700000 -0.42500000  0.73500000    -6.36645020 -1.90825000  6.09724637
    &END COORD
    &PRINT
      &SYMMETRY
       CHECK_SYMMETRY 2/m
      &END
    &END
    &TOPOLOGY
      CONNECTIVITY OFF
    &END
  &END SUBSYS
&END FORCE_EVAL
&GLOBAL
  PROJECT c_5_AgAuTe4
  RUN_TYPE ENERGY
&END GLOBAL
