&FORCE_EVAL
  METHOD Quickstep
  &DFT
    &QS
      METHOD PM6
      &SE
      &END
    &END QS
    &SCF
      MAX_SCF 0
    &END SCF
  &END DFT
  &SUBSYS
    &CELL
#GeS_2 & cF72 & Fdd2-C_{2v}^{17} (#43) & Wyckoff, Vol. I, pp. 324-6
     A   0.00000000 11.17000000  3.43000000
     B   5.83000000  0.00000000  3.43000000
     C   5.83000000 11.17000000  0.00000000
    &END CELL
    &COORD
 SCALED
Ge  0.00000000  0.00000000  0.00000000     0.00000000  0.00000000  0.00000000
Ge  0.25000000  0.25000000  0.25000000     2.91500000  5.58500000  1.71500000
Ge  0.01300000 -0.01300000  0.26300000     1.45750000  3.08292000  0.00000000
Ge -0.01300000  0.01300000 -0.26300000    -1.45750000 -3.08292000  0.00000000
Ge -0.01300000  0.51300000  0.23700000     4.37250000  2.50208000  1.71500000
Ge  0.51300000 -0.01300000  0.26300000     1.45750000  8.66792000  1.71500000
S   0.24200000  0.12400000 -0.08000000     0.25652000  1.80954000  1.25538000
S   0.12400000  0.24200000 -0.28600000    -0.25652000 -1.80954000  1.25538000
S   0.33000000  0.53600000  0.00800000     3.17152000  3.77546000  2.97038000
S   0.53600000  0.33000000  0.12600000     2.65848000  7.39454000  2.97038000
S  -0.35000000 -0.01600000  0.32200000     1.78398000 -0.31276000 -1.25538000
S  -0.01600000 -0.35000000  0.04400000    -1.78398000  0.31276000 -1.25538000
S  -0.07200000  0.20600000  0.60000000     4.69898000  5.89776000  0.45962000
S   0.20600000 -0.07200000  0.26600000     1.13102000  5.27224000  0.45962000
S  -0.21500000 -0.34100000  0.46500000     0.72292000  2.79250000 -1.90708000
S  -0.34100000 -0.21500000  0.09100000    -0.72292000 -2.79250000 -1.90708000
S  -0.21500000  0.15900000  0.46500000     3.63792000  2.79250000 -0.19208000
S   0.15900000 -0.21500000  0.59100000     2.19208000  8.37750000 -0.19208000
    &END COORD
    &PRINT
      &SYMMETRY
       CHECK_SYMMETRY 2/m
      &END
    &END
  &END SUBSYS
&END FORCE_EVAL
&GLOBAL
  PROJECT c_5_GeS2
  RUN_TYPE ENERGY
&END GLOBAL
