&FORCE_EVAL
  METHOD Quickstep
  &DFT
    &QS
      METHOD PM6
      &SE
      &END
    &END QS
    &SCF
      MAX_SCF 0
    &END SCF
  &END DFT
  &SUBSYS
    &CELL
#NiTi & P2_1/m-C_{2h}^2 & mP4 & Pearson's Handbook Vol. IV, p. 4715
     A   2.88400000  0.00000000  0.00000000
     B   0.00000000  4.11000000  0.00000000
     C  -0.65730425  0.00000000  4.61846036
    &END CELL
    &COORD
 SCALED
Ni  0.96600000  0.25000000  0.83000000     2.24038147  1.02750000  3.83332210
Ni -0.96600000  0.75000000 -0.83000000    -2.24038147  3.08250000 -3.83332210
Ti  0.56100000  0.25000000  0.26700000     1.44242377  1.02750000  1.23312892
Ti -0.56100000  0.75000000 -0.26700000    -1.44242377  3.08250000 -1.23312892
    &END COORD
    &PRINT
      &SYMMETRY
       CHECK_SYMMETRY 2/m
      &END
    &END
  &END SUBSYS
&END FORCE_EVAL
&GLOBAL
  PROJECT c_5_NiTi
  RUN_TYPE ENERGY
&END GLOBAL
