&FORCE_EVAL
  METHOD Quickstep
  &DFT
    &QS
      METHOD PM6
      &SE
      &END
    &END QS
    &SCF
      MAX_SCF 0
    &END SCF
  &END DFT
  &SUBSYS
    &CELL
#C_2 Ce Ni & Amm2 & C_{2v}^{14} & #38 & oC8 & Pearson's Handbook
     A   3.87500000  0.00000000  0.00000000
     B   0.00000000  2.27600000 -3.08100000
     C   0.00000000  2.27600000  3.08100000
    &END CELL
    &COORD
 SCALED
#replace Ce by Fe
Fe  0.00000000  0.00000000  0.00000000     0.00000000  0.00000000  0.00000000
Ni  0.50000000  0.38560000 -0.38560000     1.93750000  0.00000000 -2.37606720
C   0.50000000 -0.13640000  0.44640000     1.93750000  0.70556000  1.79560680
C   0.50000000 -0.44640000  0.13640000     1.93750000 -0.70556000  1.79560680
    &END COORD
    &PRINT
      &SYMMETRY
       CHECK_SYMMETRY 2/m
      &END
    &END
    &TOPOLOGY
      CONNECTIVITY OFF
    &END
  &END SUBSYS
&END FORCE_EVAL
&GLOBAL
  PROJECT c_5_CeNiC2
  RUN_TYPE ENERGY
&END GLOBAL
