&FORCE_EVAL
  METHOD Quickstep
  &DFT
    &QS
      METHOD PM6
      &SE
      &END
    &END QS
    &SCF
      MAX_SCF 0
    &END SCF
  &END DFT
  &SUBSYS
    &CELL
#AsGa (> 24 GPa) & Imm2-C_{2v}^20 #44 & oI4 & Pearson's Handbook Vol. I 1135
     A   4.92000000  0.00000000  0.00000000
     B   0.00000000  4.79000000  0.00000000
     C   2.46000000  2.39500000  1.31750000
    &END CELL
    &COORD
 SCALED
As  0.00000000  0.00000000  0.00000000     0.00000000  0.00000000  0.00000000
Ga -0.42500000  0.07500000 -0.15000000    -2.46000000  0.00000000 -0.19762500
    &END COORD
    &PRINT
      &SYMMETRY
       CHECK_SYMMETRY 2/m
      &END
    &END
  &END SUBSYS
&END FORCE_EVAL
&GLOBAL
  PROJECT c_5_AsGa
  RUN_TYPE ENERGY
&END GLOBAL
