&FORCE_EVAL
  METHOD Quickstep
  &DFT
    &QS
      METHOD PM6
      &SE
      &END
    &END QS
    &SCF
      MAX_SCF 0
    &END SCF
  &END DFT
  &SUBSYS
    &CELL
#mono P & P2/c-C_{2h}^4 #13 & mP84 & Donohue, pp. 292-5
     A   9.21000000  0.00000000  0.00000000
     B   0.00000000  9.15000000  0.00000000
     C  -6.26731116  0.00000000 21.71360888
    &END CELL
    &COORD
 SCALED
P   0.30089000  0.20127000  0.18147000     1.63386794  1.84162050  3.94036860
P   0.30089000 -0.20127000  0.68147000    -1.49978764 -1.84162050 14.79717304
P  -0.30089000 -0.20127000 -0.18147000    -1.63386794 -1.84162050 -3.94036860
P  -0.30089000  0.20127000  0.31853000    -4.76752352  1.84162050  6.91643584
P   0.17387000  0.03262000  0.11695000     0.86838066  0.29847300  2.53940656
P   0.17387000 -0.03262000  0.61695000    -2.26527492 -0.29847300 13.39621100
P  -0.17387000 -0.03262000 -0.11695000    -0.86838066 -0.29847300 -2.53940656
P  -0.17387000  0.03262000  0.38305000    -4.00203624  0.29847300  8.31739788
P   0.05014000 -0.05231000  0.18035000    -0.66852017 -0.47863650  3.91604936
P   0.05014000  0.05231000  0.68035000    -3.80217575  0.47863650 14.77285380
P  -0.05014000  0.05231000 -0.18035000     0.66852017  0.47863650 -3.91604936
P  -0.05014000 -0.05231000  0.31965000    -2.46513541 -0.47863650  6.94075508
P  -0.07589000 -0.21901000  0.11634000    -1.42808588 -2.00394150  2.52616126
P  -0.07589000  0.21901000  0.61634000    -4.56174146  2.00394150 13.38296570
P   0.07589000  0.21901000 -0.11634000     1.42808588  2.00394150 -2.52616126
P   0.07589000 -0.21901000  0.38366000    -1.70556970 -2.00394150  8.33064318
P  -0.20537000 -0.32128000  0.17380000    -2.98071638 -2.93971200  3.77382522
P  -0.20537000  0.32128000  0.67380000    -6.11437196  2.93971200 14.63062966
P   0.20537000  0.32128000 -0.17380000     2.98071638  2.93971200 -3.77382522
P   0.20537000 -0.32128000  0.32620000    -0.15293920 -2.93971200  7.08297922
P  -0.31537000 -0.48946800  0.10402000    -3.55648341 -4.47863220  2.25864960
P  -0.31537000  0.48946800  0.60402000    -6.69013899  4.47863220 13.11545404
P   0.31537000  0.48946800 -0.10402000     3.55648341  4.47863220 -2.25864960
P   0.31537000 -0.48946800  0.39598000     0.42282783 -4.47863220  8.59815484
P  -0.43399000 -0.55068000  0.17224000    -5.07652957 -5.03872200  3.73995199
P  -0.43399000  0.55068000  0.67224000    -8.21018515  5.03872200 14.59675643
P   0.43399000  0.55068000 -0.17224000     5.07652957  5.03872200 -3.73995199
P   0.43399000 -0.55068000  0.32776000     1.94287399 -5.03872200  7.11685245
P  -0.57576000 -0.72259000  0.11672000    -6.03427016 -6.61169850  2.53441243
P  -0.57576000  0.72259000  0.61672000    -9.16792574  6.61169850 13.39121687
P   0.57576000  0.72259000 -0.11672000     6.03427016  6.61169850 -2.53441243
P   0.57576000 -0.72259000  0.38328000     2.90061458 -6.61169850  8.32239201
P   0.04120000  0.39067000  0.07245000    -0.07461469  3.57463050  1.57315096
P   0.04120000 -0.39067000  0.57245000    -3.20827027 -3.57463050 12.42995540
P  -0.04120000 -0.39067000 -0.07245000     0.07461469 -3.57463050 -1.57315096
P  -0.04120000  0.39067000  0.42755000    -3.05904089  3.57463050  9.28365348
P  -0.00092000  0.15881000  0.04497000    -0.29031418  1.45311150  0.97646099
P  -0.00092000 -0.15881000  0.54497000    -3.42396976 -1.45311150 11.83326543
P   0.00092000 -0.15881000 -0.04497000     0.29031418 -1.45311150 -0.97646099
P   0.00092000  0.15881000  0.45503000    -2.84334140  1.45311150  9.88034345
P  -0.21153000  0.13878000  0.07346000    -2.40858798  1.26983700  1.59508171
P  -0.21153000 -0.13878000  0.57346000    -5.54224356 -1.26983700 12.45188615
P   0.21153000 -0.13878000 -0.07346000     2.40858798 -1.26983700 -1.59508171
P   0.21153000  0.13878000  0.42654000    -0.72506760  1.26983700  9.26172273
P  -0.25140000 -0.09081000  0.04464000    -2.59516677 -0.83091150  0.96929550
P  -0.25140000  0.09081000  0.54464000    -5.72882235  0.83091150 11.82609994
P   0.25140000  0.09081000 -0.04464000     2.59516677  0.83091150 -0.96929550
P   0.25140000 -0.09081000  0.45536000    -0.53848881 -0.83091150  9.88750894
P  -0.46426000 -0.12736000  0.06842000    -4.70464403 -1.16534400  1.48564512
P  -0.46426000  0.12736000  0.56842000    -7.83829961  1.16534400 12.34244956
P   0.46426000  0.12736000 -0.06842000     4.70464403  1.16534400 -1.48564512
P   0.46426000 -0.12736000  0.43158000     1.57098845 -1.16534400  9.37115932
P  -0.49167000 -0.35276000  0.03304000    -4.73535266 -3.22775400  0.71741764
P  -0.49167000  0.35276000  0.53304000    -7.86900824  3.22775400 11.57422208
P   0.49167000  0.35276000 -0.03304000     4.73535266  3.22775400 -0.71741764
P   0.49167000 -0.35276000  0.46696000     1.60169708 -3.22775400 10.13938680
P  -0.69485000 -0.36285000  0.06617000    -6.81427648 -3.32007750  1.43678950
P  -0.69485000  0.36285000  0.56617000    -9.94793206  3.32007750 12.29359394
P   0.69485000  0.36285000 -0.06617000     6.81427648  3.32007750 -1.43678950
P   0.69485000 -0.36285000  0.43383000     3.68062090 -3.32007750  9.42001494
P  -0.74959000 -0.59445000  0.04420000    -7.18073905 -5.43921750  0.95974151
P  -0.74959000  0.59445000  0.54420000   -10.31439463  5.43921750 11.81654595
P   0.74959000  0.59445000 -0.04420000     7.18073905  5.43921750 -0.95974151
P   0.74959000 -0.59445000  0.45580000     4.04708347 -5.43921750  9.89706293
P   0.14600000  0.38905000  0.17219000     0.26549169  3.55980750  3.73886631
P   0.14600000 -0.38905000  0.67219000    -2.86816389 -3.55980750 14.59567075
P  -0.14600000 -0.38905000 -0.17219000    -0.26549169 -3.55980750 -3.73886631
P  -0.14600000  0.38905000  0.32781000    -3.39914727  3.55980750  7.11793813
P  -0.13962000  0.10055000  0.17357000    -2.37371740  0.92003250  3.76883109
P  -0.13962000 -0.10055000  0.67357000    -5.50737298 -0.92003250 14.62563553
P   0.13962000 -0.10055000 -0.17357000     2.37371740 -0.92003250 -3.76883109
P   0.13962000  0.10055000  0.32643000    -0.75993818  0.92003250  7.08797335
P  -0.40394000 -0.17616000  0.16940000    -4.78196991 -1.61186400  3.67828534
P  -0.40394000  0.17616000  0.66940000    -7.91562549  1.61186400 14.53508978
P   0.40394000  0.17616000 -0.16940000     4.78196991  1.61186400 -3.67828534
P   0.40394000 -0.17616000  0.33060000     1.64831433 -1.61186400  7.17851910
P  -0.58144000 -0.35419000  0.16732000    -6.40370890 -3.24083850  3.63312104
P  -0.58144000  0.35419000  0.66732000    -9.53736448  3.24083850 14.48992548
P   0.58144000  0.35419000 -0.16732000     6.40370890  3.24083850 -3.63312104
P   0.58144000 -0.35419000  0.33268000     3.27005332 -3.24083850  7.22368340
P  -0.05418000  0.32296000  0.20060000    -1.75622042  2.95508400  4.35574994
P  -0.05418000 -0.32296000  0.70060000    -4.88987600 -2.95508400 15.21255438
P   0.05418000 -0.32296000 -0.20060000     1.75622042 -2.95508400 -4.35574994
P   0.05418000  0.32296000  0.29940000    -1.37743516  2.95508400  6.50105450
    &END COORD
    &PRINT
      &SYMMETRY
       CHECK_SYMMETRY 2/m
      &END
    &END
    &TOPOLOGY
      CONNECTIVITY OFF
    &END
  &END SUBSYS
&END FORCE_EVAL
&GLOBAL
  PROJECT c_5_P84
  RUN_TYPE ENERGY
&END GLOBAL
