&FORCE_EVAL
  METHOD Quickstep
  &DFT
    &QS
      METHOD PM6
      &SE
      &END
    &END QS
    &SCF
      MAX_SCF 0
    &END SCF
  &END DFT
  &SUBSYS
    &CELL
#Pd Sn_2 & Aba2 & C_{2v}^{17} & #41 & oC24 & C_e & Pearson's Handbook
      A  6.47800000  0.00000000  0.00000000
      B  0.00000000  3.23900000 -6.07750000
      C  0.00000000  3.23900000  6.07750000
    &END CELL
    &COORD
 SCALED
Pd  0.00000000 -0.01000000  0.01000000     0.00000000  0.00000000  0.12155000
Pd  0.50000000  0.49000000  0.51000000     3.23900000  3.23900000  0.12155000
Pd  0.00000000 -0.23800000  0.23800000     0.00000000  0.00000000  2.89289000
Pd  0.50000000  0.26200000  0.73800000     3.23900000  3.23900000  2.89289000
Sn  0.34200000  0.03300000  0.28300000     2.21547600  1.02352400  1.51937500
Sn -0.34200000 -0.28300000 -0.03300000    -2.21547600 -1.02352400  1.51937500
Sn -0.15800000  0.21700000  0.46700000    -1.02352400  2.21547600  1.51937500
Sn  0.15800000 -0.46700000 -0.21700000     1.02352400 -2.21547600  1.51937500
Sn  0.25000000  0.37500000  0.12500000     1.61950000  1.61950000 -1.51937500
Sn -0.25000000 -0.12500000 -0.37500000    -1.61950000 -1.61950000 -1.51937500
Sn -0.25000000  0.37500000  0.12500000    -1.61950000  1.61950000 -1.51937500
Sn  0.25000000 -0.12500000 -0.37500000     1.61950000 -1.61950000 -1.51937500
    &END COORD
    &PRINT
      &SYMMETRY
       CHECK_SYMMETRY 2/m
      &END
    &END
    &TOPOLOGY
      CONNECTIVITY OFF
    &END
  &END SUBSYS
&END FORCE_EVAL
&GLOBAL
  PROJECT c_5_PdSn2
  RUN_TYPE ENERGY
&END GLOBAL
