&FORCE_EVAL
  METHOD Quickstep
  &DFT
    &QS
      METHOD PM6
      &SE
      &END
    &END QS
    &SCF
      MAX_SCF 0
    &END SCF
  &END DFT
  &SUBSYS
    &CELL
#KClO_3 & mP10 & P2_1/m-C_{2h}^2 (#11) & G0_6 & Strukturbericht II, 64
     A   4.64000000  0.00000000  0.00000000
     B   0.00000000  5.58000000  0.00000000
     C  -2.31086350  0.00000000  6.69225750
    &END CELL
    &COORD
 SCALED
K   0.36600000  0.25000000 -0.29800000     2.38687732  1.39500000 -1.99429273
K  -0.36600000 -0.25000000  0.29800000    -2.38687732 -1.39500000  1.99429273
Cl  0.10600000  0.25000000  0.17500000     0.08743889  1.39500000  1.17114506
Cl -0.10600000 -0.25000000 -0.17500000    -0.08743889 -1.39500000 -1.17114506
O   0.40500000  0.25000000  0.11100000     1.62269415  1.39500000  0.74284058
O  -0.40500000 -0.25000000 -0.11100000    -1.62269415 -1.39500000 -0.74284058
O   0.13900000  0.02800000  0.27800000     0.00253995  0.15624000  1.86044759
O  -0.13900000 -0.02800000 -0.27800000    -0.00253995 -0.15624000 -1.86044759
O  -0.13900000  0.52800000 -0.27800000    -0.00253995  2.94624000 -1.86044759
O   0.13900000 -0.52800000  0.27800000     0.00253995 -2.94624000  1.86044759
    &END COORD
    &PRINT
      &SYMMETRY
       CHECK_SYMMETRY 2/m
      &END
    &END
    &TOPOLOGY
      CONNECTIVITY OFF
    &END
  &END SUBSYS
&END FORCE_EVAL
&GLOBAL
  PROJECT c_5_KClO3
  RUN_TYPE ENERGY
&END GLOBAL
