&FORCE_EVAL
  METHOD Quickstep
  &DFT
    LSD
    &QS
      METHOD PM6
      &SE
      &END
    &END QS
    &SCF
      MAX_SCF 0
    &END SCF
  &END DFT
  &SUBSYS
    &CELL
#PdAl & R(-3) [C^2_{3i}] (#148) & hR26 & Rhombohedral Lattice
      A   .00000000  9.04072786  1.75033333
      B -7.82950000 -4.52036393  1.75033333
      C  7.82950000 -4.52036393  1.75033333
    &END CELL
    &COORD
 SCALED
Al   .00000000   .00000000   .00000000      .00000000   .00000000   .00000000
Pd   .50000000   .50000000   .50000000     -.00000000  -.00000000  2.62550000
Al   .09750000   .05400000   .34560000     2.28308220  -.92486646   .87009070
Al   .34560000   .09750000   .05400000     -.34058325  2.43964041   .87009070
Al   .05400000   .34560000   .09750000    -1.94249895 -1.51477395   .87009070
Al  -.09750000  -.05400000  -.34560000    -2.28308220   .92486646  -.87009070
Al  -.34560000  -.09750000  -.05400000      .34058325 -2.43964041  -.87009070
Al  -.05400000  -.34560000  -.09750000     1.94249895  1.51477395  -.87009070
Pd  -.40190000  -.44550000  -.15610000     2.26585730  -.91401759 -1.75645950
Pd  -.15610000  -.40190000  -.44550000     -.34136620  2.41929878 -1.75645950
Pd  -.44550000  -.15610000  -.40190000    -1.92449110 -1.50528119 -1.75645950
Pd   .40190000   .44550000   .15610000    -2.26585730   .91401759  1.75645950
Pd   .15610000   .40190000   .44550000      .34136620 -2.41929878  1.75645950
Pd   .44550000   .15610000   .40190000     1.92449110  1.50528119  1.75645950
Al  -.40060000  -.24640000   .15650000     3.15450555 -3.21533486  -.85853850
Al   .15650000  -.40060000  -.24640000     1.20730890  4.33954937  -.85853850
Al  -.24640000   .15650000  -.40060000    -4.36181445 -1.12421451  -.85853850
Al   .40060000   .24640000  -.15650000    -3.15450555  3.21533486   .85853850
Al  -.15650000   .40060000   .24640000    -1.20730890 -4.33954937   .85853850
Al   .24640000  -.15650000   .40060000     4.36181445  1.12421451   .85853850
Pd   .09860000   .25200000  -.34530000    -4.67656035  1.31316572   .00927677
Pd  -.34530000   .09860000   .25200000     1.20104530 -4.70660293   .00927677
Pd   .25200000  -.34530000   .09860000     3.47551505  3.39343720   .00927677
Pd  -.09860000  -.25200000   .34530000     4.67656035 -1.31316572  -.00927677
Pd   .34530000  -.09860000  -.25200000    -1.20104530  4.70660293  -.00927677
Pd  -.25200000   .34530000  -.09860000    -3.47551505 -3.39343720  -.00927677
    &END COORD
    &PRINT
      &SYMMETRY
       CHECK_SYMMETRY <3>
      &END
    &END
    &TOPOLOGY
      CONNECTIVITY OFF
    &END
  &END SUBSYS
&END FORCE_EVAL
&GLOBAL
  PROJECT c_7_PdAl
  RUN_TYPE ENERGY
&END GLOBAL
