&FORCE_EVAL
  METHOD Quickstep
  &DFT
    &QS
      METHOD PM6
      &SE
      &END
    &END QS
    &SCF
      MAX_SCF 0
    &END SCF
  &END DFT
  &SUBSYS
    &CELL
#eta AgZn & P(-3) & C_{3i}^1 & #147 & hP9 & B_b
      A  3.81800000 -6.61297000  0.00000000
      B  3.81800000  6.61297000  0.00000000
      C  0.00000000  0.00000000  2.81970000
    &END CELL
    &COORD
 SCALED
Zn  0.00000000  0.00000000  0.00000000     0.00000000  0.00000000  0.00000000
Zn  0.33333330  0.66666670  0.75000000     3.81800000  2.20432377  2.11477500
Zn  0.66666670  0.33333330 -0.75000000     3.81800000 -2.20432377 -2.11477500
Ag  0.35000000  0.03200000  0.75000000     1.45847600 -2.10292446  2.11477500
Ag -0.03200000  0.31800000  0.75000000     1.09194800  2.31453950  2.11477500
Ag -0.31800000 -0.35000000  0.75000000    -2.55042400 -0.21161504  2.11477500
Ag -0.35000000 -0.03200000 -0.75000000    -1.45847600  2.10292446 -2.11477500
Ag  0.03200000 -0.31800000 -0.75000000    -1.09194800 -2.31453950 -2.11477500
Ag  0.31800000  0.35000000 -0.75000000     2.55042400  0.21161504 -2.11477500
    &END COORD
    &PRINT
      &SYMMETRY
       CHECK_SYMMETRY <3>
      &END
    &END
    &TOPOLOGY
      CONNECTIVITY OFF
    &END
  &END SUBSYS
&END FORCE_EVAL
&GLOBAL
  PROJECT c_7_AgZn
  RUN_TYPE ENERGY
&END GLOBAL
