&FORCE_EVAL
  METHOD Quickstep
  &DFT
    &QS
      METHOD PM6
      &SE
      &END
    &END QS
    &SCF
      MAX_SCF 0
    &END SCF
  &END DFT
  &SUBSYS
    &CELL
#FeTiO_3 & R(-3)-C_{3i}^2 (#148) & hR10 & Wyckoff II, 420-422
     A   0.00000000  2.93707240  4.69500260
     B  -2.54357930 -1.46853620  4.69500260
     C   2.54357930 -1.46853620  4.69500260
    &END CELL
    &COORD
 SCALED
Fe  0.35800000  0.35800000  0.35800000     0.00000000  0.00000000  5.04243279
Fe -0.35800000 -0.35800000 -0.35800000     0.00000000  0.00000000 -5.04243279
Ti  0.14200000  0.14200000  0.14200000     0.00000000  0.00000000  2.00007111
Ti -0.14200000 -0.14200000 -0.14200000     0.00000000  0.00000000 -2.00007111
O   0.55500000 -0.04000000  0.23500000     0.69948431  1.34371062  3.52125195
O   0.23500000  0.55500000 -0.04000000    -1.51342968 -0.06608413  3.52125195
O  -0.04000000  0.23500000  0.55500000     0.81394538 -1.27762649  3.52125195
O  -0.55500000  0.04000000 -0.23500000    -0.69948431 -1.34371062 -3.52125195
O  -0.23500000 -0.55500000  0.04000000     1.51342968  0.06608413 -3.52125195
O   0.04000000 -0.23500000 -0.55500000    -0.81394538  1.27762649 -3.52125195
    &END COORD
    &PRINT
      &SYMMETRY
       CHECK_SYMMETRY <3>
      &END
    &END
    &TOPOLOGY
      CONNECTIVITY OFF
    &END
  &END SUBSYS
&END FORCE_EVAL
&GLOBAL
  PROJECT c_7_FeTiO3
  RUN_TYPE ENERGY
&END GLOBAL
