&FORCE_EVAL
  METHOD Quickstep
  &DFT
    &QS
      METHOD PM6
      &SE
      &END
    &END QS
    &SCF
      MAX_SCF 0
    &END SCF
  &END DFT
  &SUBSYS
    &CELL
#Al F_3 & R32-D_3^7 #155 & hR8 & D0_{14} & Strukturbericht III, pp. 40-1
     A   2.45791437 -1.41907753  4.15159209
     B   0.00000000  2.83815505  4.15159209
     C  -2.45791437 -1.41907753  4.15159209
    &END CELL
    &COORD
 SCALED
Al  0.23700000  0.23700000  0.23700000     0.00000000  0.00000000  2.95178198
Al -0.23700000 -0.23700000 -0.23700000     0.00000000  0.00000000 -2.95178198
F   0.00000000  0.43000000 -0.43000000     1.05690318  1.83061001  0.00000000
F  -0.43000000  0.00000000  0.43000000    -2.11380636  0.00000000  0.00000000
F   0.43000000 -0.43000000  0.00000000     1.05690318 -1.83061001  0.00000000
F   0.50000000  0.07000000 -0.07000000     1.40101119 -0.41153248  2.07579605
F  -0.07000000  0.50000000  0.07000000    -0.34410801  1.41907753  2.07579605
F   0.07000000 -0.07000000  0.50000000    -1.05690318 -1.00754504  2.07579605
    &END COORD
    &PRINT
      &SYMMETRY
       CHECK_SYMMETRY 32
      &END
    &END
    &TOPOLOGY
      CONNECTIVITY OFF
    &END
  &END SUBSYS
&END FORCE_EVAL
&GLOBAL
  PROJECT c_8_AlF3
  RUN_TYPE ENERGY
&END GLOBAL
