&FORCE_EVAL
  METHOD Quickstep
  &DFT
    LSD
    &QS
      METHOD PM6
      &SE
      &END
    &END QS
    &SCF
      MAX_SCF 0
    &END SCF
  &END DFT
  &SUBSYS
    &CELL
#Al_3 Ni_2 & P(-3)m1-D_{3d}^3 #164 & hP5 & Al_3 Pd_2 from Villars and Calvert, Pearson's Handbook, Vol. I
      A  2.10950000 -3.65376118   .00000000
      B  2.10950000  3.65376118   .00000000
      C   .00000000   .00000000  5.16100000
    &END CELL
    &COORD
 SCALED
Al   .00000000   .00000000   .00000000      .00000000   .00000000   .00000000
Al   .33333333   .66666667   .64800000     2.10950000  1.21792039  3.34432800
Al   .66666667   .33333333   .35200000     2.10950000 -1.21792039  1.81667200
Pd   .33333333   .66666667   .14900000     2.10950000  1.21792039   .76898900
Pd   .66666667   .33333333   .85100000     2.10950000 -1.21792039  4.39201100
    &END COORD
    &PRINT
      &SYMMETRY
       CHECK_SYMMETRY <3>m
      &END
    &END
    &TOPOLOGY
      CONNECTIVITY OFF
    &END
  &END SUBSYS
&END FORCE_EVAL
&GLOBAL
  PROJECT symmetry
  RUN_TYPE ENERGY
&END GLOBAL
