&FORCE_EVAL
  METHOD Quickstep
  &DFT
    &QS
      METHOD PM6
      &SE
      &END
    &END QS
    &SCF
      MAX_SCF 0
    &END SCF
  &END DFT
  &SUBSYS
    &CELL
#Graphite (rhombohedral) & R(-3)m & D_{3d}^5 & #166 & hR2 & Wyckoff Vol. I, p. 27
      UNIT SCALED_ANGSTROM
     A   1.22832727 -0.70917508  3.34686537
     B   0.00000000  1.41835016  3.34686537
     C  -1.22832727 -0.70917508  3.34686537
    &END CELL
    &COORD
C   0.16666667  0.16666667  0.16666667     0.00000000  0.00000000  1.67343269
C  -0.16666667 -0.16666667 -0.16666667     0.00000000  0.00000000 -1.67343269
    &END COORD
    &PRINT
      &SYMMETRY
       CHECK_SYMMETRY <3>m
      &END
    &END
    &TOPOLOGY
      CONNECTIVITY OFF
    &END
  &END SUBSYS
&END FORCE_EVAL
&GLOBAL
  PROJECT symmetry
  RUN_TYPE ENERGY
&END GLOBAL
