&FORCE_EVAL
  METHOD Quickstep
  &DFT
    LSD
    &QS
      METHOD PM6
      &SE
      &END
    &END QS
    &SCF
      MAX_SCF 0
    &END SCF
  &END DFT
  &SUBSYS
    &CELL
#B_105 & R(-3)m-D_{3d}^5 (#166) & hR105 & Donohue, pp. 61-78 (Hoard et al.)
      UNIT SCALED_ANGSTROM
     A   5.47204349 -3.15928578  7.93704469
     B   0.00000000  6.31857156  7.93704469
     C  -5.47204349 -3.15928578  7.93704469
    &END CELL
    &COORD
B   0.34980000  0.17580000  0.00480000     1.88785500 -0.00947786  4.20980850
B   0.00480000  0.34980000  0.17580000    -0.93571944  1.63966932  4.20980850
B   0.17580000  0.00480000  0.34980000    -0.95213557 -1.63019146  4.20980850
B   0.17580000  0.34980000  0.00480000     0.93571944  1.63966932  4.20980850
B   0.34980000  0.00480000  0.17580000     0.95213557 -1.63019146  4.20980850
B   0.00480000  0.17580000  0.34980000    -1.88785500 -0.00947786  4.20980850
B  -0.34980000 -0.17580000 -0.00480000    -1.88785500  0.00947786 -4.20980850
B  -0.00480000 -0.34980000 -0.17580000     0.93571944 -1.63966932 -4.20980850
B  -0.17580000 -0.00480000 -0.34980000     0.95213557  1.63019146 -4.20980850
B  -0.17580000 -0.34980000 -0.00480000    -0.93571944 -1.63966932 -4.20980850
B  -0.34980000 -0.00480000 -0.17580000    -0.95213557  1.63019146 -4.20980850
B  -0.00480000 -0.17580000 -0.34980000     1.88785500  0.00947786 -4.20980850
B   0.44800000  0.10680000 -0.16750000     3.36804277 -0.21135622  3.07401741
B  -0.16750000  0.44800000  0.10680000    -1.50098153  3.02248871  3.07401741
B   0.10680000 -0.16750000  0.44800000    -1.86706124 -2.81113249  3.07401741
B   0.10680000  0.44800000 -0.16750000     1.50098153  3.02248871  3.07401741
B   0.44800000 -0.16750000  0.10680000     1.86706124 -2.81113249  3.07401741
B  -0.16750000  0.10680000  0.44800000    -3.36804277 -0.21135622  3.07401741
B  -0.44800000 -0.10680000  0.16750000    -3.36804277  0.21135622 -3.07401741
B   0.16750000 -0.44800000 -0.10680000     1.50098153 -3.02248871 -3.07401741
B  -0.10680000  0.16750000 -0.44800000     1.86706124  2.81113249 -3.07401741
B  -0.10680000 -0.44800000  0.16750000    -1.50098153 -3.02248871 -3.07401741
B  -0.44800000  0.16750000 -0.10680000    -1.86706124  2.81113249 -3.07401741
B   0.16750000 -0.10680000 -0.44800000     3.36804277  0.21135622 -3.07401741
B   0.68060000  0.37640000  0.20270000     2.61508958 -0.41228679  9.99829520
B   0.20270000  0.68060000  0.37640000    -0.95049395  2.47087741  9.99829520
B   0.37640000  0.20270000  0.68060000    -1.66459563 -2.05859062  9.99829520
B   0.37640000  0.68060000  0.20270000     0.95049395  2.47087741  9.99829520
B   0.68060000  0.20270000  0.37640000     1.66459563 -2.05859062  9.99829520
B   0.20270000  0.37640000  0.68060000    -2.61508958 -0.41228679  9.99829520
B  -0.68060000 -0.37640000 -0.20270000    -2.61508958  0.41228679 -9.99829520
B  -0.20270000 -0.68060000 -0.37640000     0.95049395 -2.47087741 -9.99829520
B  -0.37640000 -0.20270000 -0.68060000     1.66459563  2.05859062 -9.99829520
B  -0.37640000 -0.68060000 -0.20270000    -0.95049395 -2.47087741 -9.99829520
B  -0.68060000 -0.20270000 -0.37640000    -1.66459563  2.05859062 -9.99829520
B  -0.20270000 -0.37640000 -0.68060000     2.61508958  0.41228679 -9.99829520
B   0.58240000  0.36280000  0.09670000     2.65777152  0.14690679  8.26960686
B   0.09670000  0.58240000  0.36280000    -1.45611077  2.22824426  8.26960686
B   0.36280000  0.09670000  0.58240000    -1.20166075 -2.37515105  8.26960686
B   0.36280000  0.58240000  0.09670000     1.45611077  2.22824426  8.26960686
B   0.58240000  0.09670000  0.36280000     1.20166075 -2.37515105  8.26960686
B   0.09670000  0.36280000  0.58240000    -2.65777152  0.14690679  8.26960686
B  -0.58240000 -0.36280000 -0.09670000    -2.65777152 -0.14690679 -8.26960686
B  -0.09670000 -0.58240000 -0.36280000     1.45611077 -2.22824426 -8.26960686
B  -0.36280000 -0.09670000 -0.58240000     1.20166075  2.37515105 -8.26960686
B  -0.36280000 -0.58240000 -0.09670000    -1.45611077 -2.22824426 -8.26960686
B  -0.58240000 -0.09670000 -0.36280000    -1.20166075  2.37515105 -8.26960686
B  -0.09670000 -0.36280000 -0.58240000     2.65777152 -0.14690679 -8.26960686
B  -0.00110000 -0.16580000 -0.00110000     0.00000000 -1.04066874 -1.33342351
B  -0.00110000 -0.00110000 -0.16580000     0.90124556  0.52033437 -1.33342351
B  -0.16580000 -0.00110000 -0.00110000    -0.90124556  0.52033437 -1.33342351
B   0.00110000  0.16580000  0.00110000     0.00000000  1.04066874  1.33342351
B   0.00110000  0.00110000  0.16580000    -0.90124556 -0.52033437  1.33342351
B   0.16580000  0.00110000  0.00110000     0.90124556 -0.52033437  1.33342351
B   0.09970000 -0.16040000  0.09970000     0.00000000 -1.64346046  0.30954474
B   0.09970000  0.09970000 -0.16040000     1.42327851  0.82173023  0.30954474
B  -0.16040000  0.09970000  0.09970000    -1.42327851  0.82173023  0.30954474
B  -0.09970000  0.16040000 -0.09970000     0.00000000  1.64346046 -0.30954474
B  -0.09970000 -0.09970000  0.16040000    -1.42327851 -0.82173023 -0.30954474
B   0.16040000 -0.09970000 -0.09970000     1.42327851 -0.82173023 -0.30954474
B  -0.00490000 -0.33220000 -0.00490000     0.00000000 -2.06806847 -2.71446928
B  -0.00490000 -0.00490000 -0.33220000     1.79099983  1.03403424 -2.71446928
B  -0.33220000 -0.00490000 -0.00490000    -1.79099983  1.03403424 -2.71446928
B   0.00490000  0.33220000  0.00490000     0.00000000  2.06806847  2.71446928
B   0.00490000  0.00490000  0.33220000    -1.79099983 -1.03403424  2.71446928
B   0.33220000  0.00490000  0.00490000     1.79099983 -1.03403424  2.71446928
B  -0.06350000 -0.57440000 -0.06350000     0.00000000 -3.22815821 -5.56704315
B  -0.06350000 -0.06350000 -0.57440000     2.79566702  1.61407911 -5.56704315
B  -0.57440000 -0.06350000 -0.06350000    -2.79566702  1.61407911 -5.56704315
B   0.06350000  0.57440000  0.06350000     0.00000000  3.22815821  5.56704315
B   0.06350000  0.06350000  0.57440000    -2.79566702 -1.61407911  5.56704315
B   0.57440000  0.06350000  0.06350000     2.79566702 -1.61407911  5.56704315
B  -0.10530000 -0.49080000 -0.10530000     0.00000000 -2.43580934 -5.56704315
B  -0.10530000 -0.10530000 -0.49080000     2.10947276  1.21790467 -5.56704315
B  -0.49080000 -0.10530000 -0.10530000    -2.10947276  1.21790467 -5.56704315
B   0.10530000  0.49080000  0.10530000     0.00000000  2.43580934  5.56704315
B   0.10530000  0.10530000  0.49080000    -2.10947276 -1.21790467  5.56704315
B   0.49080000  0.10530000  0.10530000     2.10947276 -1.21790467  5.56704315
B  -0.19980000 -0.50640000 -0.19980000     0.00000000 -1.93727404 -7.19096249
B  -0.19980000 -0.19980000 -0.50640000     1.67772853  0.96863702 -7.19096249
B  -0.50640000 -0.19980000 -0.19980000    -1.67772853  0.96863702 -7.19096249
B   0.19980000  0.50640000  0.19980000     0.00000000  1.93727404  7.19096249
B   0.19980000  0.19980000  0.50640000    -1.67772853 -0.96863702  7.19096249
B   0.50640000  0.19980000  0.19980000     1.67772853 -0.96863702  7.19096249
B   0.38290000  0.21430000  0.38290000     0.00000000 -1.06531117  7.77909750
B   0.38290000  0.38290000  0.21430000     0.92258653  0.53265558  7.77909750
B   0.21430000  0.38290000  0.38290000    -0.92258653  0.53265558  7.77909750
B  -0.38290000 -0.21430000 -0.38290000     0.00000000  1.06531117 -7.77909750
B  -0.38290000 -0.38290000 -0.21430000    -0.92258653 -0.53265558 -7.77909750
B  -0.21430000 -0.38290000 -0.38290000     0.92258653 -0.53265558 -7.77909750
B   0.48840000  0.22020000  0.48840000     0.00000000 -1.69464089  9.50064249
B   0.48840000  0.48840000  0.22020000     1.46760206  0.84732045  9.50064249
B   0.22020000  0.48840000  0.48840000    -1.46760206  0.84732045  9.50064249
B  -0.48840000 -0.22020000 -0.48840000     0.00000000  1.69464089 -9.50064249
B  -0.48840000 -0.48840000 -0.22020000    -1.46760206 -0.84732045 -9.50064249
B  -0.22020000 -0.48840000 -0.48840000     1.46760206 -0.84732045 -9.50064249
B  -0.38860000 -0.56080000 -0.38860000     0.00000000 -1.08805802-10.61976579
B  -0.38860000 -0.38860000 -0.56080000     0.94228589  0.54402901-10.61976579
B  -0.56080000 -0.38860000 -0.38860000    -0.94228589  0.54402901-10.61976579
B   0.38860000  0.56080000  0.38860000     0.00000000  1.08805802 10.61976579
B   0.38860000  0.38860000  0.56080000    -0.94228589 -0.54402901 10.61976579
B   0.56080000  0.38860000  0.38860000     0.94228589 -0.54402901 10.61976579
B   0.27000000  0.27000000  0.27000000     0.00000000  0.00000000  6.42900620
B  -0.27000000 -0.27000000 -0.27000000     0.00000000  0.00000000 -6.42900620
B   0.50000000  0.50000000  0.50000000     0.00000000  0.00000000 11.90556703
    &END COORD
    &PRINT
      &SYMMETRY
       CHECK_SYMMETRY <3>m
      &END
    &END
    &TOPOLOGY
      CONNECTIVITY OFF
    &END
  &END SUBSYS
&END FORCE_EVAL
&GLOBAL
  PROJECT symmetry
  RUN_TYPE ENERGY
&END GLOBAL
