&FORCE_EVAL
  METHOD Quickstep
  &DFT
    &QS
      METHOD PM6
      &SE
      &END
    &END QS
    &SCF
      MAX_SCF 0
    &END SCF
  &END DFT
  &SUBSYS
    &CELL
#alpha-Sm & R(-3)m (#166, D^5_{3d}) & hR3 & C19
     A    .00000000  2.09462678  8.73133333
     B  -1.81400000 -1.04731339  8.73133333
     C   1.81400000 -1.04731339  8.73133333
    &END CELL
    &COORD
 SCALED
#replace Sm by S
S    .00000000   .00000000   .00000000      .00000000   .00000000   .00000000
S    .22222222   .22222222   .22222222      .00000000   .00000000  5.82088889
S   -.22222222  -.22222222  -.22222222      .00000000   .00000000 -5.82088889
    &END COORD
    &PRINT
      &SYMMETRY
       CHECK_SYMMETRY <3>m
      &END
    &END
    &TOPOLOGY
      CONNECTIVITY OFF
    &END
  &END SUBSYS
&END FORCE_EVAL
&GLOBAL
  PROJECT symmetry
  RUN_TYPE ENERGY
&END GLOBAL
