&FORCE_EVAL
  METHOD Quickstep
  &DFT
    &QS
      METHOD PM6
      &SE
      &END
    &END QS
    &SCF
      MAX_SCF 0
    &END SCF
  &END DFT
  &SUBSYS
    &CELL
#WC & P-6m2 & #187 & hP2 & B_h
      UNIT SCALED_ANGSTROM
     A   1.45300000 -2.51666982   .00000000
     B   1.45300000  2.51666982   .00000000
     C    .00000000   .00000000  2.83700000
    &END CELL
    &COORD
W    .00000000   .00000000   .00000000      .00000000   .00000000   .00000000
C    .66666666   .33333333   .50000000     1.45300000  -.83888994  1.41850000
    &END COORD
    &PRINT
      &SYMMETRY
       CHECK_SYMMETRY <3>m
      &END
    &END
    &TOPOLOGY
      CONNECTIVITY OFF
    &END
  &END SUBSYS
&END FORCE_EVAL
&GLOBAL
  PROJECT symmetry
  RUN_TYPE ENERGY
&END GLOBAL
