&FORCE_EVAL
  METHOD Quickstep
  &DFT
    LSD
    &QS
      METHOD PM6
      &SE
      &END
    &END QS
    &SCF
      MAX_SCF 0
    &END SCF
  &END DFT
  &SUBSYS
    &CELL
#Mo_2 B_5 & R(-3)m-D_{3d}^5 #166 & hR7 & D8_i & Wyckoff, Crystal Structures, Vol II, pp. 189-90
      UNIT SCALED_ANGSTROM
      A  1.50550000 -0.86920083  6.97666667
      B  0.00000000  1.73840166  6.97666667
      C -1.50550000 -0.86920083  6.97666667
    &END CELL
    &COORD
B   0.50000000  0.50000000  0.50000000     0.00000000  0.00000000 10.46500000
B   0.33300000  0.33300000  0.33300000     0.00000000  0.00000000  6.96969000
B  -0.33300000 -0.33300000 -0.33300000     0.00000000  0.00000000 -6.96969000
B   0.18600000  0.18600000  0.18600000     0.00000000  0.00000000  3.89298000
B  -0.18600000 -0.18600000 -0.18600000     0.00000000  0.00000000 -3.89298000
Mo  0.07500000  0.07500000  0.07500000     0.00000000  0.00000000  1.56975000
Mo -0.07500000 -0.07500000 -0.07500000     0.00000000  0.00000000 -1.56975000
    &END COORD
    &PRINT
      &SYMMETRY
       CHECK_SYMMETRY <3>m
      &END
    &END
    &TOPOLOGY
      CONNECTIVITY OFF
    &END
  &END SUBSYS
&END FORCE_EVAL
&GLOBAL
  PROJECT symmetry
  RUN_TYPE ENERGY
&END GLOBAL
