&FORCE_EVAL
  METHOD Quickstep
  &DFT
    &QS
      METHOD PM6
      &SE
      &END
    &END QS
    &SCF
      MAX_SCF 0
    &END SCF
  &END DFT
  &SUBSYS
    &CELL
#CaC_6 & R(_3)-D_{3d}^5 #166 (ag) & hR7 & Emery et al. PRB 95, 087003 (2005)
     A   2.16651926 -1.25084048  4.52443283
     B   0.00000000  2.50168096  4.52443283
     C  -2.16651926 -1.25084048  4.52443283
    &END CELL
    &COORD
 SCALED
Ca  0.00000000  0.00000000  0.00000000     0.00000000  0.00000000  0.00000000
C   0.50000000  0.16666667 -0.16666667     1.44434618  0.00000001  2.26221642
C  -0.16666667  0.50000000  0.16666667    -0.72217310  1.25084048  2.26221642
C   0.16666667 -0.16666667  0.50000000    -0.72217308 -1.25084049  2.26221642
C   0.50000000 -0.16666667  0.16666667     0.72217308 -1.25084049  2.26221642
C   0.16666667  0.50000000 -0.16666667     0.72217310  1.25084048  2.26221642
C  -0.16666667  0.16666667  0.50000000    -1.44434618  0.00000001  2.26221642
    &END COORD
    &PRINT
      &SYMMETRY
       CHECK_SYMMETRY <3>m
      &END
    &END
    &TOPOLOGY
      CONNECTIVITY OFF
    &END
  &END SUBSYS
&END FORCE_EVAL
&GLOBAL
  PROJECT symmetry
  RUN_TYPE ENERGY
&END GLOBAL
