&FORCE_EVAL
  METHOD Quickstep
  &DFT
    &QS
      METHOD PM6
      &SE
      &END
    &END QS
    &SCF
      MAX_SCF 0
    &END SCF
  &END DFT
  &SUBSYS
    &CELL
#beta O_2 & R(-3)m-D_{3d}^5 #166 & hR2 & Meier and Helmholdt, PRB 29, 1387 (1984)
     A   1.64450000 -0.94945252  3.76033333
     B   0.00000000  1.89890504  3.76033333
     C  -1.64450000 -0.94945252  3.76033333
    &END CELL
    &COORD
 SCALED
O   0.05430000  0.05430000  0.05430000     0.00000000  0.00000000  0.61255830
O  -0.05430000 -0.05430000 -0.05430000     0.00000000  0.00000000 -0.61255830
    &END COORD
    &PRINT
      &SYMMETRY
       CHECK_SYMMETRY <3>m
      &END
    &END
    &TOPOLOGY
      CONNECTIVITY OFF
    &END
  &END SUBSYS
&END FORCE_EVAL
&GLOBAL
  PROJECT symmetry
  RUN_TYPE ENERGY
&END GLOBAL
