&FORCE_EVAL
  METHOD Quickstep
  &DFT
    &QS
      METHOD PM6
      &SE
      &END
    &END QS
    &SCF
      MAX_SCF 0
    &END SCF
  &END DFT
  &SUBSYS
    &CELL
#Para-electric LiNbO3 & R(-3)c (#167, D^6_{3d}) & hR10 & Acta Cryst. B50, 405 (1994)
      UNIT SCALED_ANGSTROM
     A   2.64490000 -1.52703373  4.61616667
     B   0.00000000  3.05406745  4.61616667
     C  -2.64490000 -1.52703373  4.61616667
    &END CELL
    &COORD
Li  0.25000000  0.25000000  0.25000000     0.00000000  0.00000000  3.46212500
Li  0.75000000  0.75000000  0.75000000     0.00000000  0.00000000 10.38637500
Nb  0.00000000  0.00000000  0.00000000     0.00000000  0.00000000  0.00000000
Nb  0.50000000  0.50000000  0.50000000     0.00000000  0.00000000  6.92425000
O  -0.35646667 -0.14353333  0.25000000    -1.60404369 -0.27578229 -1.15404167
O   0.25000000 -0.35646667 -0.14353333     1.04085631 -1.25125144 -1.15404167
O   0.85646667  0.25000000 -0.35646667     3.20808737  0.00000000  3.46212500
O   0.35646667  0.14353333  0.75000000    -1.04085631 -1.25125144  5.77020833
O   0.75000000  0.35646667  0.14353333     1.60404369 -0.27578229  5.77020833
O   0.14353333  0.75000000  0.35646667    -0.56318737  1.52703373  5.77020833
    &END COORD
    &PRINT
      &SYMMETRY
       CHECK_SYMMETRY <3>m
      &END
    &END
    &TOPOLOGY
      CONNECTIVITY OFF
    &END
  &END SUBSYS
&END FORCE_EVAL
&GLOBAL
  PROJECT symmetry
  RUN_TYPE ENERGY
&END GLOBAL
