&FORCE_EVAL
  METHOD Quickstep
  &DFT
    &QS
      METHOD PM6
      &SE
      &END
    &END QS
    &SCF
      MAX_SCF 0
    &END SCF
  &END DFT
  &SUBSYS
    &CELL
#H_3 Ho & P(-3)c1-D_{3d}^4 #165 (adfg) & hP24 & Pearsons Handbook III 3829; Allo
     A   3.15400000 -5.46288825  0.00000000
     B   3.15400000  5.46288825  0.00000000
     C   0.00000000  0.00000000  6.56000000
    &END CELL
    &COORD
 SCALED
#replave Ho by Fe
H   0.00000000  0.00000000  0.25000000     0.00000000  0.00000000  1.64000000
H   0.00000000  0.00000000  0.75000000     0.00000000  0.00000000  4.92000000
H   0.33333333  0.66666667  0.16700000     3.15400000  1.82096275  1.09552000
H   0.66666667  0.33333333  0.33300000     3.15400000 -1.82096275  2.18448000
H  -0.33333333 -0.66666667 -0.16700000    -3.15400000 -1.82096275 -1.09552000
H  -0.66666667 -0.33333333 -0.33300000    -3.15400000  1.82096275 -2.18448000
Fe  0.66600000  0.00000000  0.25000000     2.10056400 -3.63828357  1.64000000
Fe  0.00000000  0.66600000  0.25000000     2.10056400  3.63828357  1.64000000
Fe -0.66600000 -0.66600000  0.25000000    -4.20112800  0.00000000  1.64000000
Fe -0.66600000  0.00000000  0.75000000    -2.10056400  3.63828357  4.92000000
Fe  0.00000000 -0.66600000  0.75000000    -2.10056400 -3.63828357  4.92000000
Fe  0.66600000  0.66600000  0.75000000     4.20112800  0.00000000  4.92000000
H   0.35600000  0.02800000  0.09600000     1.21113600 -1.79182735  0.62976000
H  -0.02800000  0.32800000  0.09600000     0.94620000  1.94478822  0.62976000
H  -0.32800000 -0.35600000  0.09600000    -2.15733600 -0.15296087  0.62976000
H   0.02800000  0.35600000  0.40400000     1.21113600  1.79182735  2.65024000
H   0.32800000 -0.02800000  0.40400000     0.94620000 -1.94478822  2.65024000
H  -0.35600000 -0.32800000  0.40400000    -2.15733600  0.15296087  2.65024000
H  -0.35600000 -0.02800000 -0.09600000    -1.21113600  1.79182735 -0.62976000
H   0.02800000 -0.32800000 -0.09600000    -0.94620000 -1.94478822 -0.62976000
H   0.32800000  0.35600000 -0.09600000     2.15733600  0.15296087 -0.62976000
H  -0.02800000 -0.35600000 -0.40400000    -1.21113600 -1.79182735 -2.65024000
H  -0.32800000  0.02800000 -0.40400000    -0.94620000  1.94478822 -2.65024000
H   0.35600000  0.32800000 -0.40400000     2.15733600 -0.15296087 -2.65024000
    &END COORD
    &PRINT
      &SYMMETRY
       CHECK_SYMMETRY <3>m
      &END
    &END
    &TOPOLOGY
      CONNECTIVITY OFF
    &END
  &END SUBSYS
&END FORCE_EVAL
&GLOBAL
  PROJECT symmetry
  RUN_TYPE ENERGY
&END GLOBAL
