&FORCE_EVAL
  METHOD Quickstep
  &DFT
    &QS
      METHOD PM6
      &SE
      &END
    &END QS
    &SCF
      MAX_SCF 0
    &END SCF
  &END DFT
  &SUBSYS
    &CELL
#BPO_4 & I(-4)-S_4^2 #82 & tI12 & H0_7 & Strukturbericht III, 92-3
      UNIT SCALED_ANGSTROM
      A  4.33200000  0.00000000  0.00000000
      B  0.00000000  4.33200000  0.00000000
      C  2.16600000  2.16600000  3.32000000
    &END CELL
    &COORD
P   0.00000000  0.00000000  0.00000000     0.00000000  0.00000000  0.00000000
B  -0.25000000  0.25000000  0.50000000     0.00000000  2.16600000  1.66000000
O   0.00700000  0.12900000  0.26200000     0.59781600  1.12632000  0.86984000
O  -0.26900000 -0.39100000  0.26200000    -0.59781600 -1.12632000  0.86984000
O   0.39100000 -0.00700000 -0.26200000     1.12632000 -0.59781600 -0.86984000
O  -0.12900000  0.26900000 -0.26200000    -1.12632000  0.59781600 -0.86984000
    &END COORD
    &PRINT
      &SYMMETRY
       CHECK_SYMMETRY <4>
      &END
    &END
    &TOPOLOGY
      CONNECTIVITY OFF
    &END
  &END SUBSYS
&END FORCE_EVAL
&GLOBAL
  PROJECT symmetry
  RUN_TYPE ENERGY
&END GLOBAL
