&FORCE_EVAL
  METHOD Quickstep
  &DFT
    &QS
      METHOD PM6
      &SE
      &END
    &END QS
    &SCF
      MAX_SCF 0
    &END SCF
  &END DFT
  &SUBSYS
    &CELL
#Al_2 Cd S_4 & I(-4) #82 S^2_4 & E3 & tI14
     A   5.56400000   .00000000   .00000000
     B    .00000000  5.56400000   .00000000
     C   2.78200000  2.78200000  5.16000000
    &END CELL
    &COORD
 SCALED
Cd   .00000000   .00000000   .00000000      .00000000   .00000000   .00000000
Al   .50000000   .50000000   .00000000     2.78200000  2.78200000  -.00000000
Al  -.25000000   .25000000   .50000000     -.00000000  2.78200000  2.58000000
S    .13000000   .12000000   .26000000     1.44664000  1.39100000  1.34160000
S   -.39000000  -.38000000   .26000000    -1.44664000 -1.39100000  1.34160000
S    .38000000  -.13000000  -.26000000     1.39100000 -1.44664000 -1.34160000
S   -.12000000   .39000000  -.26000000    -1.39100000  1.44664000 -1.34160000
    &END COORD
    &PRINT
      &SYMMETRY
       CHECK_SYMMETRY <4>
      &END
    &END
    &TOPOLOGY
      CONNECTIVITY OFF
    &END
  &END SUBSYS
&END FORCE_EVAL
&GLOBAL
  PROJECT symmetry
  RUN_TYPE ENERGY
&END GLOBAL
