&FORCE_EVAL
  METHOD Quickstep
  &DFT
    &QS
      METHOD PM6
      &SE
      &END
    &END QS
    &SCF
      MAX_SCF 0
    &END SCF
  &END DFT
  &SUBSYS
    &CELL
#ST12 Si & P 4_3 2_1 2 (D^8_4) #96 & tP12
      A  5.51889100  0.00000000  0.00000000
      B  0.00000000  5.51889100  0.00000000
      C  0.00000000  0.00000000  6.95380200
    &END CELL
    &COORD
 SCALED
Si  0.09120003  0.09120003  0.00000000     0.50332300  0.50332300  0.00000000
Si -0.09120003 -0.09120003  0.50000000    -0.50332300 -0.50332300  3.47690100
Si  0.40880007  0.59119993  0.75000007     2.25612300  3.26276800  5.21535200
Si  0.59119993  0.40880007  0.25000007     3.26276800  2.25612300  1.73845100
Si  0.17299997  0.37839994  0.24859997     0.95476800  2.08834800  1.72871500
Si -0.17299997 -0.37839994  0.74860012    -0.95476800 -2.08834800  5.20561700
Si  0.12159997  0.67300006  0.99860005     0.67109700  3.71421400  6.94406700
Si  0.87840003  0.32699994  0.49860005     4.84779400  1.80467700  3.46716600
Si  0.37839994  0.17299997 -0.24859997     2.08834800  0.95476800 -1.72871500
Si -0.37839994 -0.17299997  0.25140003    -2.08834800 -0.95476800  1.74818600
Si  0.32699994  0.87840003  0.50140010     1.80467700  4.84779400  3.48663700
Si  0.67300006  0.12159997  0.00139995     3.71421400  0.67109700  0.00973500
    &END COORD
    &PRINT
      &SYMMETRY
       CHECK_SYMMETRY 422
      &END
    &END
    &TOPOLOGY
      CONNECTIVITY OFF
    &END
  &END SUBSYS
&END FORCE_EVAL
&GLOBAL
  PROJECT symmetry
  RUN_TYPE ENERGY
&END GLOBAL
