&FORCE_EVAL
  METHOD Quickstep
  &DFT
    &QS
      METHOD PM6
      &SE
      &END
    &END QS
    &SCF
      MAX_SCF 0
    &END SCF
  &END DFT
  &SUBSYS
    &CELL
#
       A 7.45600000  0.00000000  0.00000000
       B 0.00000000  7.45600000  0.00000000
       C 0.00000000  0.00000000  8.60400000
    &END CELL
    &COORD
 SCALED
Si  0.41000000  0.41000000  0.00000000     3.05696000  3.05696000  0.00000000
Si -0.41000000 -0.41000000  0.50000000    -3.05696000 -3.05696000  4.30200000
Si  0.09000000 -0.09000000  0.25000000     0.67104000 -0.67104000  2.15100000
Si -0.09000000  0.09000000  0.75000000    -0.67104000  0.67104000  6.45300000
Si  0.41410000  0.26810000 -0.21460000     3.08752960  1.99895360 -1.84641840
Si -0.41410000 -0.26810000  0.28540000    -3.08752960 -1.99895360  2.45558160
Si  0.23190000 -0.08590000  0.03540000     1.72904640 -0.64047040  0.30458160
Si -0.23190000  0.08590000 -0.46460000    -1.72904640  0.64047040 -3.99741840
Si  0.08590000 -0.23190000  0.46460000     0.64047040 -1.72904640  3.99741840
Si -0.08590000  0.23190000 -0.03540000    -0.64047040  1.72904640 -0.30458160
Si  0.26810000  0.41410000  0.21460000     1.99895360  3.08752960  1.84641840
Si -0.26810000 -0.41410000 -0.28540000    -1.99895360 -3.08752960 -2.45558160
O   0.44500000  0.13200000  0.40000000     3.31792000  0.98419200  3.44160000
O  -0.44500000 -0.13200000  0.90000000    -3.31792000 -0.98419200  7.74360000
O   0.36800000 -0.05500000  0.65000000     2.74380800 -0.41008000  5.59260000
O  -0.36800000  0.05500000  0.15000000    -2.74380800  0.41008000  1.29060000
O   0.05500000 -0.36800000 -0.15000000     0.41008000 -2.74380800 -1.29060000
O  -0.05500000  0.36800000 -0.65000000    -0.41008000  2.74380800 -5.59260000
O   0.13200000  0.44500000 -0.40000000     0.98419200  3.31792000 -3.44160000
O  -0.13200000 -0.44500000 -0.90000000    -0.98419200 -3.31792000 -7.74360000
O   0.11700000  0.12300000  0.29600000     0.87235200  0.91708800  2.54678400
O  -0.11700000 -0.12300000  0.79600000    -0.87235200 -0.91708800  6.84878400
O   0.37700000 -0.38300000  0.54600000     2.81091200 -2.85564800  4.69778400
O  -0.37700000  0.38300000  0.04600000    -2.81091200  2.85564800  0.39578400
O   0.38300000 -0.37700000 -0.04600000     2.85564800 -2.81091200 -0.39578400
O  -0.38300000  0.37700000 -0.54600000    -2.85564800  2.81091200 -4.69778400
O   0.12300000  0.11700000 -0.29600000     0.91708800  0.87235200 -2.54678400
O  -0.12300000 -0.11700000 -0.79600000    -0.91708800 -0.87235200 -6.84878400
O   0.34400000  0.29700000  0.14300000     2.56486400  2.21443200  1.23037200
O  -0.34400000 -0.29700000  0.64300000    -2.56486400 -2.21443200  5.53237200
O   0.20300000 -0.15600000  0.39300000     1.51356800 -1.16313600  3.38137200
O  -0.20300000  0.15600000 -0.10700000    -1.51356800  1.16313600 -0.92062800
O   0.15600000 -0.20300000  0.10700000     1.16313600 -1.51356800  0.92062800
O  -0.15600000  0.20300000 -0.39300000    -1.16313600  1.51356800 -3.38137200
O   0.29700000  0.34400000 -0.14300000     2.21443200  2.56486400 -1.23037200
O  -0.29700000 -0.34400000 -0.64300000    -2.21443200 -2.56486400 -5.53237200
    &END COORD
    &PRINT
      &SYMMETRY
       CHECK_SYMMETRY 422
      &END
    &END
    &TOPOLOGY
      CONNECTIVITY OFF
    &END
  &END SUBSYS
&END FORCE_EVAL
&GLOBAL
  PROJECT symmetry
  RUN_TYPE ENERGY
&END GLOBAL
