&FORCE_EVAL
  METHOD Quickstep
  &DFT
    &QS
      METHOD PM6
      &SE
      &END
    &END QS
    &SCF
      MAX_SCF 0
    &END SCF
  &END DFT
  &SUBSYS
    &CELL
#BaS_3 & D0_{17} & P(-4)2_1m-D_{2d}^3 #113 (ace) & tP8 & Pearsons Handbook II 17
      UNIT SCALED_ANGSTROM
     A   6.88100000  0.00000000  0.00000000
     B   0.00000000  6.88100000  0.00000000
     C   0.00000000  0.00000000  4.17700000
    &END CELL
    &COORD
Ba  0.00000000  0.00000000  0.00000000     0.00000000  0.00000000  0.00000000
Ba  0.50000000  0.50000000  0.00000000     3.44050000  3.44050000  0.00000000
S   0.00000000  0.50000000  0.20680000     0.00000000  3.44050000  0.86380360
S   0.50000000  0.00000000 -0.20680000     3.44050000  0.00000000 -0.86380360
S   0.17980000  0.67980000  0.47420000     1.23720380  4.67770380  1.98073340
S  -0.17980000  0.32020000  0.47420000    -1.23720380  2.20329620  1.98073340
S   0.67980000 -0.17980000 -0.47420000     4.67770380 -1.23720380 -1.98073340
S   0.32020000  0.17980000 -0.47420000     2.20329620  1.23720380 -1.98073340
    &END COORD
    &PRINT
      &SYMMETRY
       CHECK_SYMMETRY 4mm
      &END
    &END
    &TOPOLOGY
      CONNECTIVITY OFF
    &END
  &END SUBSYS
&END FORCE_EVAL
&GLOBAL
  PROJECT symmetry
  RUN_TYPE ENERGY
&END GLOBAL
