&FORCE_EVAL
  METHOD Quickstep
  &DFT
    &QS
      METHOD PM6
      &SE
      &END
    &END QS
    &SCF
      MAX_SCF 0
    &END SCF
  &END DFT
  &SUBSYS
    &CELL
#Pb Zr_{.52} Ti_{.48} O_3 & P4mm-C_{4v}^1 #99 & tP5 & Noheda et al., PRB 61, 868
      UNIT SCALED_ANGSTROM
     A   4.04600000  0.00000000  0.00000000
     B   0.00000000  4.04600000  0.00000000
     C   0.00000000  0.00000000  4.13940000
    &END CELL
    &COORD
Pb  0.00000000  0.00000000  0.00000000     0.00000000  0.00000000  0.00000000
Zr  0.50000000  0.50000000  0.45170000     2.02300000  2.02300000  1.86976698
O   0.50000000  0.50000000 -0.10270000     2.02300000  2.02300000 -0.42511638
O   0.50000000  0.00000000  0.37850000     2.02300000  0.00000000  1.56676290
O   0.00000000  0.50000000  0.37850000     0.00000000  2.02300000  1.56676290
    &END COORD
    &PRINT
      &SYMMETRY
       CHECK_SYMMETRY 4mm
      &END
    &END
    &TOPOLOGY
      CONNECTIVITY OFF
    &END
  &END SUBSYS
&END FORCE_EVAL
&GLOBAL
  PROJECT symmetry
  RUN_TYPE ENERGY
&END GLOBAL
