&FORCE_EVAL
  METHOD Quickstep
  &DFT
    &QS
      METHOD PM6
      &SE
      &END
    &END QS
    &SCF
      MAX_SCF 0
    &END SCF
  &END DFT
  &SUBSYS
    &CELL
#Cu_2 Fe S_4 Sn & I(-4)2m (#121) & tI16 & H2_6 & Stannite
      UNIT SCALED_ANGSTROM
     A   5.44900000  0.00000000  0.00000000
     B   0.00000000  5.44900000  0.00000000
     C   2.72450000  2.72450000  5.37850000
    &END CELL
    &COORD
Fe  0.00000000  0.00000000  0.00000000     0.00000000  0.00000000  0.00000000
Sn  0.50000000  0.50000000  0.00000000     2.72450000  2.72450000  0.00000000
Cu -0.25000000  0.25000000  0.50000000     0.00000000  2.72450000  2.68925000
Cu  0.25000000 -0.25000000  0.50000000     2.72450000  0.00000000  2.68925000
S  -0.11510000 -0.11510000 -0.25960000    -1.33446010 -1.33446010 -1.39625860
S   0.37470000  0.37470000 -0.25960000     1.33446010  1.33446010 -1.39625860
S  -0.37470000  0.11510000  0.25960000    -1.33446010  1.33446010  1.39625860
S   0.11510000 -0.37470000  0.25960000     1.33446010 -1.33446010  1.39625860
    &END COORD
    &PRINT
      &SYMMETRY
       CHECK_SYMMETRY 4mm
      &END
    &END
    &TOPOLOGY
      CONNECTIVITY OFF
    &END
  &END SUBSYS
&END FORCE_EVAL
&GLOBAL
  PROJECT symmetry
  RUN_TYPE ENERGY
&END GLOBAL
