&FORCE_EVAL
  METHOD Quickstep
  &DFT
    &QS
      METHOD PM6
      &SE
      &END
    &END QS
    &SCF
      MAX_SCF 0
    &END SCF
  &END DFT
  &SUBSYS
    &CELL
#T-50 Boron & P4_2/nnm (#134) D^{12}_{4h}& tP50 & T-50 Boron (2nd setting) & Donohue, pp. 48-56
     A   8.75600000  0.00000000  0.00000000
     B   0.00000000  8.75600000  0.00000000
     C   0.00000000  0.00000000  5.07800000
    &END CELL
    &COORD
 SCALED
B  -0.25000000  0.25000000  0.25000000    -2.18900000  2.18900000  1.26950000
B   0.25000000 -0.25000000 -0.25000000     2.18900000 -2.18900000 -1.26950000
B   0.00480000 -0.49520000  0.33400000     0.04202880 -4.33597120  1.69605200
B   0.49520000 -0.49520000  0.16600000     4.33597120 -4.33597120  0.84294800
B   0.49520000 -0.00480000  0.33400000     4.33597120 -0.04202880  1.69605200
B   0.00480000 -0.00480000  0.16600000     0.04202880 -0.04202880  0.84294800
B  -0.49520000  0.00480000 -0.33400000    -4.33597120  0.04202880 -1.69605200
B  -0.00480000  0.00480000 -0.16600000    -0.04202880  0.04202880 -0.84294800
B  -0.00480000  0.49520000 -0.33400000    -0.04202880  4.33597120 -1.69605200
B  -0.49520000  0.49520000 -0.16600000    -4.33597120  4.33597120 -0.84294800
B  -0.12800000  0.37200000  0.13250000    -1.12076800  3.25723200  0.67283500
B  -0.37200000  0.37200000 -0.63250000    -3.25723200  3.25723200 -3.21183500
B  -0.37200000  0.12800000  0.13250000    -3.25723200  1.12076800  0.67283500
B  -0.12800000  0.12800000 -0.63250000    -1.12076800  1.12076800 -3.21183500
B   0.37200000  0.87200000 -0.13250000     3.25723200  7.63523200 -0.67283500
B   0.12800000  0.87200000 -0.36750000     1.12076800  7.63523200 -1.86616500
B   0.12800000  0.62800000 -0.13250000     1.12076800  5.49876800 -0.67283500
B   0.37200000  0.62800000 -0.36750000     3.25723200  5.49876800 -1.86616500
B  -0.02310000  0.33150000 -0.16200000    -0.20226360  2.90261400 -0.82263600
B  -0.47690000  0.33150000 -0.33800000    -4.17573640  2.90261400 -1.71636400
B  -0.33150000  0.47690000 -0.33800000    -2.90261400  4.17573640 -1.71636400
B  -0.16850000  0.47690000 -0.16200000    -1.47538600  4.17573640 -0.82263600
B  -0.47690000  0.16850000 -0.16200000    -4.17573640  1.47538600 -0.82263600
B  -0.02310000  0.16850000 -0.33800000    -0.20226360  1.47538600 -1.71636400
B  -0.16850000  0.02310000 -0.33800000    -1.47538600  0.20226360 -1.71636400
B  -0.33150000  0.02310000 -0.16200000    -2.90261400  0.20226360 -0.82263600
B   0.47690000  0.83150000  0.16200000     4.17573640  7.28061400  0.82263600
B   0.02310000  0.83150000  0.33800000     0.20226360  7.28061400  1.71636400
B   0.16850000  0.97690000  0.33800000     1.47538600  8.55373640  1.71636400
B   0.33150000  0.97690000  0.16200000     2.90261400  8.55373640  0.82263600
B   0.02310000  0.66850000  0.16200000     0.20226360  5.85338600  0.82263600
B   0.47690000  0.66850000  0.33800000     4.17573640  5.85338600  1.71636400
B   0.33150000  0.52310000  0.33800000     2.90261400  4.58026360  1.71636400
B   0.16850000  0.52310000  0.16200000     1.47538600  4.58026360  0.82263600
B   0.07540000  0.33790000  0.14950000     0.66020240  2.95865240  0.75916100
B  -0.57540000  0.33790000 -0.64950000    -5.03820240  2.95865240 -3.29816100
B  -0.33790000  0.57540000 -0.64950000    -2.95865240  5.03820240 -3.29816100
B  -0.16210000  0.57540000  0.14950000    -1.41934760  5.03820240  0.75916100
B  -0.57540000  0.16210000  0.14950000    -5.03820240  1.41934760  0.75916100
B   0.07540000  0.16210000 -0.64950000     0.66020240  1.41934760 -3.29816100
B  -0.16210000 -0.07540000 -0.64950000    -1.41934760 -0.66020240 -3.29816100
B  -0.33790000 -0.07540000  0.14950000    -2.95865240 -0.66020240  0.75916100
B   0.57540000  0.83790000 -0.14950000     5.03820240  7.33665240 -0.75916100
B  -0.07540000  0.83790000  0.64950000    -0.66020240  7.33665240  3.29816100
B   0.16210000  1.07540000  0.64950000     1.41934760  9.41620240  3.29816100
B   0.33790000  1.07540000 -0.14950000     2.95865240  9.41620240 -0.75916100
B  -0.07540000  0.66210000 -0.14950000    -0.66020240  5.79734760 -0.75916100
B   0.57540000  0.66210000  0.64950000     5.03820240  5.79734760  3.29816100
B   0.33790000  0.42460000  0.64950000     2.95865240  3.71779760  3.29816100
B   0.16210000  0.42460000 -0.14950000     1.41934760  3.71779760 -0.75916100
    &END COORD
    &PRINT
      &SYMMETRY
       CHECK_SYMMETRY 4/mmm
      &END
    &END
    &TOPOLOGY
      CONNECTIVITY OFF
    &END
  &END SUBSYS
&END FORCE_EVAL
&GLOBAL
  PROJECT symmetry
  RUN_TYPE ENERGY
&END GLOBAL
