&FORCE_EVAL
  METHOD Quickstep
  &DFT
    &QS
      METHOD PM6
      &SE
      &END
    &END QS
    &SCF
      MAX_SCF 0
    &END SCF
  &END DFT
  &SUBSYS
    &CELL
#SiU_3 & I4/mcm (#140) D_{4h}^{18} & tI16 & D0_c & Zachariasen, Am. Cryst. 2, 94 (1949)
     A   6.02900000  0.00000000  0.00000000
     B   0.00000000  6.02900000  0.00000000
     C   3.01450000  3.01450000  4.34800000
    &END CELL
    &COORD
 SCALED
#replace U by C
C  -0.25000000 -0.25000000  0.50000000     0.00000000  0.00000000  2.17400000
C   0.25000000  0.25000000 -0.50000000     0.00000000  0.00000000 -2.17400000
Si -0.25000000  0.25000000  0.50000000     0.00000000  3.01450000  2.17400000
Si  0.25000000 -0.25000000  0.50000000     3.01450000  0.00000000  2.17400000
C   0.23100000  0.73100000  0.00000000     1.39269900  4.40719900  0.00000000
C  -0.23100000  0.26900000  0.00000000    -1.39269900  1.62180100  0.00000000
C   0.26900000  0.23100000  0.00000000     1.62180100  1.39269900  0.00000000
C   0.73100000 -0.23100000  0.00000000     4.40719900 -1.39269900  0.00000000
    &END COORD
    &PRINT
      &SYMMETRY
       CHECK_SYMMETRY 4/mmm
      &END
    &END
    &TOPOLOGY
      CONNECTIVITY OFF
    &END
  &END SUBSYS
&END FORCE_EVAL
&GLOBAL
  PROJECT symmetry
  RUN_TYPE ENERGY
&END GLOBAL
