&FORCE_EVAL
  METHOD Quickstep
  &DFT
    &QS
      METHOD PM6
      &SE
      &END
    &END QS
    &SCF
      MAX_SCF 0
    &END SCF
  &END DFT
  &SUBSYS
    &CELL
#Al_3 Zr & I4/mmmm-D_{4h}^{17} #139 & tI16 & D0_{23} & Pearson's Handbook Vol. I p. 1038
      UNIT SCALED_ANGSTROM
     A   4.06500000  0.00000000  0.00000000
     B   0.00000000  4.06500000  0.00000000
     C   2.03250000  2.03250000  8.65800000
    &END CELL
    &COORD
Al  0.00000000  0.50000000  0.00000000     0.00000000  2.03250000  0.00000000
Al  0.50000000  0.00000000  0.00000000     2.03250000  0.00000000  0.00000000
Al -0.25000000  0.25000000  0.50000000     0.00000000  2.03250000  4.32900000
Al  0.25000000 -0.25000000  0.50000000     2.03250000  0.00000000  4.32900000
Al -0.12500000 -0.12500000  0.25000000     0.00000000  0.00000000  2.16450000
Al  0.12500000  0.12500000 -0.25000000     0.00000000  0.00000000 -2.16450000
Zr -0.37500000 -0.37500000  0.75000000     0.00000000  0.00000000  6.49350000
Zr  0.37500000  0.37500000 -0.75000000     0.00000000  0.00000000 -6.49350000
    &END COORD
    &PRINT
      &SYMMETRY
       CHECK_SYMMETRY 4/mmm
      &END
    &END
    &TOPOLOGY
      CONNECTIVITY OFF
    &END
  &END SUBSYS
&END FORCE_EVAL
&GLOBAL
  PROJECT symmetry
  RUN_TYPE ENERGY
&END GLOBAL
