&FORCE_EVAL
  METHOD Quickstep
  &DFT
    &QS
      METHOD PM6
      &SE
      &END
    &END QS
    &SCF
      MAX_SCF 0
    &END SCF
  &END DFT
  &SUBSYS
    &CELL
#sigma CrFe (disordered) & P4_2/mnm - D_{4h}^{14} #136 & D8_b & tP30 & Pearson's
     A   8.79660000  0.00000000  0.00000000
     B   0.00000000  8.79660000  0.00000000
     C   0.00000000  0.00000000  4.55820000
    &END CELL
    &COORD
 SCALED
Pd  0.00000000  0.00000000  0.00000000     0.00000000  0.00000000  0.00000000
Pd  0.50000000  0.50000000  0.50000000     4.39830000  4.39830000  2.27910000
Rh  0.39864000  0.39864000  0.00000000     3.50667662  3.50667662  0.00000000
Rh -0.39864000 -0.39864000  0.00000000    -3.50667662 -3.50667662  0.00000000
Rh -0.10136000  0.10136000  0.50000000    -0.89162338  0.89162338  2.27910000
Rh  0.10136000 -0.10136000  0.50000000     0.89162338 -0.89162338  2.27910000
Ni  0.46349000  0.13122000  0.00000000     4.07713613  1.15428985  0.00000000
Ni -0.46349000 -0.13122000  0.00000000    -4.07713613 -1.15428985  0.00000000
Ni -0.03651000  0.36878000  0.50000000    -0.32116387  3.24401015  2.27910000
Ni  0.03651000 -0.36878000  0.50000000     0.32116387 -3.24401015  2.27910000
Ni  0.13122000  0.46349000  0.00000000     1.15428985  4.07713613  0.00000000
Ni -0.13122000 -0.46349000  0.00000000    -1.15428985 -4.07713613  0.00000000
Ni -0.36878000  0.03651000  0.50000000    -3.24401015  0.32116387  2.27910000
Ni  0.36878000 -0.03651000  0.50000000     3.24401015 -0.32116387  2.27910000
Cr  0.73933000  0.06609000  0.00000000     6.50359028  0.58136729  0.00000000
Cr -0.73933000 -0.06609000  0.00000000    -6.50359028 -0.58136729  0.00000000
Cr  0.23933000  0.43391000  0.50000000     2.10529028  3.81693271  2.27910000
Cr -0.23933000 -0.43391000  0.50000000    -2.10529028 -3.81693271  2.27910000
Cr  0.06609000  0.73933000  0.00000000     0.58136729  6.50359028  0.00000000
Cr -0.06609000 -0.73933000  0.00000000    -0.58136729 -6.50359028  0.00000000
Cr -0.43391000 -0.23933000  0.50000000    -3.81693271 -2.10529028  2.27910000
Cr  0.43391000  0.23933000  0.50000000     3.81693271  2.10529028  2.27910000
Fe  0.18267000  0.18267000  0.25202000     1.60687492  1.60687492  1.14875756
Fe -0.18267000 -0.18267000  0.25202000    -1.60687492 -1.60687492  1.14875756
Fe -0.31733000  0.31733000 -0.24798000    -2.79142508  2.79142508 -1.13034244
Fe  0.31733000 -0.31733000 -0.24798000     2.79142508 -2.79142508 -1.13034244
Fe  0.18267000  0.18267000 -0.25202000     1.60687492  1.60687492 -1.14875756
Fe -0.18267000 -0.18267000 -0.25202000    -1.60687492 -1.60687492 -1.14875756
Fe -0.31733000  0.31733000  0.24798000    -2.79142508  2.79142508  1.13034244
Fe  0.31733000 -0.31733000  0.24798000     2.79142508 -2.79142508  1.13034244
    &END COORD
    &PRINT
      &SYMMETRY
       CHECK_SYMMETRY 4/mmm
      &END
    &END
    &TOPOLOGY
      CONNECTIVITY OFF
    &END
  &END SUBSYS
&END FORCE_EVAL
&GLOBAL
  PROJECT symmetry
  RUN_TYPE ENERGY
&END GLOBAL
