&FORCE_EVAL
  METHOD Quickstep
  &DFT
    &QS
      METHOD PM6
      &SE
      &END
    &END QS
    &SCF
      MAX_SCF 0
    &END SCF
  &END DFT
  &SUBSYS
    &CELL
#gamma CuTi & P4/nmm & #129 & tP4 & B11
      UNIT SCALED_ANGSTROM
     A   3.10800000   .00000000   .00000000
     B    .00000000  3.10800000   .00000000
     C    .00000000   .00000000  5.88700000
    &END CELL
    &COORD
Cu  -.25000000   .25000000   .10000000     -.77700000   .77700000   .58870000
Cu   .25000000  -.25000000  -.10000000      .77700000  -.77700000  -.58870000
Ti  -.25000000   .25000000   .64999151     -.77700000   .77700000  3.82650000
Ti   .25000000  -.25000000  -.64999151      .77700000  -.77700000 -3.82650000
    &END COORD
    &PRINT
      &SYMMETRY
       CHECK_SYMMETRY 4/mmm
      &END
    &END
    &TOPOLOGY
      CONNECTIVITY OFF
    &END
  &END SUBSYS
&END FORCE_EVAL
&GLOBAL
  PROJECT symmetry
  RUN_TYPE ENERGY
&END GLOBAL
