&FORCE_EVAL
  METHOD Quickstep
  &DFT
    &QS
      METHOD PM6
      &SE
      &END
    &END QS
    &SCF
      MAX_SCF 0
    &END SCF
  &END DFT
  &SUBSYS
    &CELL
#TiO_2 & P4_2/mnm-D_{4h}^14 #136 & Rutile & tP6 & C4 & Wyckoff Vol I. pp. 250-2
     A   4.59373000  0.00000000  0.00000000
     B   0.00000000  4.59373000  0.00000000
     C   0.00000000  0.00000000  2.95812000
    &END CELL
    &COORD
 SCALED
Ti  0.00000000  0.00000000  0.00000000     0.00000000  0.00000000  0.00000000
Ti  0.50000000  0.50000000  0.50000000     2.29686500  2.29686500  1.47906000
O   0.30530000  0.30530000  0.00000000     1.40246577  1.40246577  0.00000000
O  -0.30530000 -0.30530000  0.00000000    -1.40246577 -1.40246577  0.00000000
O   0.80530000  0.19470000  0.50000000     3.69933077  0.89439923  1.47906000
O   0.19470000  0.80530000  0.50000000     0.89439923  3.69933077  1.47906000
    &END COORD
    &PRINT
      &SYMMETRY
       CHECK_SYMMETRY 4/mmm
      &END
    &END
    &TOPOLOGY
      CONNECTIVITY OFF
    &END
  &END SUBSYS
&END FORCE_EVAL
&GLOBAL
  PROJECT symmetry
  RUN_TYPE ENERGY
&END GLOBAL
