&FORCE_EVAL
  METHOD Quickstep
  &DFT
    &QS
      METHOD PM6
      &SE
      &END
    &END QS
    &SCF
      MAX_SCF 0
    &END SCF
  &END DFT
  &SUBSYS
    &CELL
#PPrS_4 & I4/acd (#142) D_{4h}^{20} & tI96 & Pearson's Handbook
     A  10.91400000  0.00000000  0.00000000
     B   0.00000000 10.91400000  0.00000000
     C   5.45700000  5.45700000  9.68050000
    &END CELL
    &COORD
 SCALED
#replace Pr by Nb
Nb -0.37500000 -0.12500000 -0.25000000    -5.45700000 -2.72850000 -2.42012500
Nb  0.37500000  0.12500000  0.25000000     5.45700000  2.72850000  2.42012500
Nb -0.12500000 -0.37500000  0.25000000     0.00000000 -2.72850000  2.42012500
Nb  0.12500000  0.37500000 -0.25000000     0.00000000  2.72850000 -2.42012500
Nb  0.37500000 -0.37500000  0.25000000     5.45700000 -2.72850000  2.42012500
Nb  0.12500000 -0.12500000 -0.25000000     0.00000000 -2.72850000 -2.42012500
Nb -0.37500000  0.37500000 -0.25000000    -5.45700000  2.72850000 -2.42012500
Nb -0.12500000  0.12500000  0.25000000     0.00000000  2.72850000  2.42012500
P  -0.25000000 -0.28750000  0.00000000    -2.72850000 -3.13777500  0.00000000
P   0.25000000 -0.21250000  0.00000000     2.72850000 -2.31922500  0.00000000
P   0.28750000  0.25000000  0.50000000     5.86627500  5.45700000  4.84025000
P   0.21250000 -0.25000000  0.50000000     5.04772500  0.00000000  4.84025000
P   0.25000000  0.28750000  0.00000000     2.72850000  3.13777500  0.00000000
P  -0.25000000  0.21250000  0.00000000    -2.72850000  2.31922500  0.00000000
P  -0.28750000 -0.25000000  0.50000000    -0.40927500  0.00000000  4.84025000
P  -0.21250000  0.25000000  0.50000000     0.40927500  5.45700000  4.84025000
S  -0.16510000 -0.09360000 -0.17340000    -2.74814520 -1.96779420 -1.67859870
S   0.33850000 -0.23300000 -0.17340000     2.74814520 -3.48920580 -1.67859870
S   0.26700000  0.33490000  0.32660000     4.69629420  5.43735480  3.16165130
S   0.40640000 -0.16150000  0.32660000     6.21770580  0.01964520  3.16165130
S  -0.33490000 -0.26700000  0.17340000    -2.70885480 -1.96779420  1.67859870
S   0.16150000 -0.40640000  0.17340000     2.70885480 -3.48920580  1.67859870
S   0.23300000 -0.33850000 -0.32660000     0.76070580 -5.47664520 -3.16165130
S   0.09360000  0.16510000 -0.32660000    -0.76070580  0.01964520 -3.16165130
S   0.16510000  0.09360000  0.17340000     2.74814520  1.96779420  1.67859870
S  -0.33850000  0.23300000  0.17340000    -2.74814520  3.48920580  1.67859870
S  -0.26700000 -0.33490000 -0.32660000    -4.69629420 -5.43735480 -3.16165130
S  -0.40640000  0.16150000 -0.32660000    -6.21770580 -0.01964520 -3.16165130
S   0.33490000  0.26700000 -0.17340000     2.70885480  1.96779420 -1.67859870
S  -0.16150000  0.40640000 -0.17340000    -2.70885480  3.48920580 -1.67859870
S  -0.23300000  0.33850000  0.32660000    -0.76070580  5.47664520  3.16165130
S  -0.09360000 -0.16510000  0.32660000     0.76070580 -0.01964520  3.16165130
S  -0.41020000 -0.39080000  0.00500000    -4.44963780 -4.23790620  0.04840250
S   0.40520000 -0.11420000  0.00500000     4.44963780 -1.21909380  0.04840250
S   0.38580000  0.08980000 -0.49500000     1.50940620 -1.72113780 -4.79184750
S   0.10920000 -0.09480000 -0.49500000    -1.50940620 -3.73586220 -4.79184750
S  -0.08980000 -0.38580000 -0.00500000    -1.00736220 -4.23790620 -0.04840250
S   0.09480000 -0.10920000 -0.00500000     1.00736220 -1.21909380 -0.04840250
S   0.11420000 -0.40520000  0.49500000     3.94759380 -1.72113780  4.79184750
S   0.39080000  0.41020000  0.49500000     6.96640620  7.17813780  4.79184750
S   0.41020000  0.39080000 -0.00500000     4.44963780  4.23790620 -0.04840250
S  -0.40520000  0.11420000 -0.00500000    -4.44963780  1.21909380 -0.04840250
S  -0.38580000 -0.08980000  0.49500000    -1.50940620  1.72113780  4.79184750
S  -0.10920000  0.09480000  0.49500000     1.50940620  3.73586220  4.79184750
S   0.08980000  0.38580000  0.00500000     1.00736220  4.23790620  0.04840250
S  -0.09480000  0.10920000  0.00500000    -1.00736220  1.21909380  0.04840250
S  -0.11420000  0.40520000 -0.49500000    -3.94759380  1.72113780 -4.79184750
S  -0.39080000 -0.41020000 -0.49500000    -6.96640620 -7.17813780 -4.79184750
    &END COORD
    &PRINT
      &SYMMETRY
       CHECK_SYMMETRY 4/mmm
      &END
    &END
    &TOPOLOGY
      CONNECTIVITY OFF
    &END
  &END SUBSYS
&END FORCE_EVAL
&GLOBAL
  PROJECT symmetry
  RUN_TYPE ENERGY
&END GLOBAL
