&FORCE_EVAL
  METHOD Quickstep
  &DFT
    &QS
      METHOD PM6
      &SE
      &END
    &END QS
    &SCF
      MAX_SCF 0
    &END SCF
  &END DFT
  &SUBSYS
    &CELL
#beta-U & tP30 & P4_2/mnm -- D_{4h}^{14}  (#136) & Donohue, p. 141
      UNIT SCALED_ANGSTROM
      A 10.75900000  0.00000000  0.00000000
      B  0.00000000 10.75900000  0.00000000
      C  0.00000000  0.00000000  5.65600000
    &END CELL
    &COORD
#replace U by H
H   0.00000000  0.00000000  0.50000000     0.00000000  0.00000000  2.82800000
H   0.50000000  0.50000000  0.00000000     5.37950000  5.37950000  0.00000000
H   0.10300000  0.10300000  0.00000000     1.10817700  1.10817700  0.00000000
H  -0.10300000 -0.10300000  0.00000000    -1.10817700 -1.10817700  0.00000000
H   0.60300000  0.39700000  0.50000000     6.48767700  4.27132300  2.82800000
H   0.39700000  0.60300000  0.50000000     4.27132300  6.48767700  2.82800000
H   0.31800000  0.31800000  0.73000000     3.42136200  3.42136200  4.12888000
H  -0.31800000 -0.31800000  0.73000000    -3.42136200 -3.42136200  4.12888000
H  -0.31800000 -0.31800000 -0.73000000    -3.42136200 -3.42136200 -4.12888000
H   0.31800000  0.31800000 -0.73000000     3.42136200  3.42136200 -4.12888000
H   0.81800000  0.18200000  1.23000000     8.80086200  1.95813800  6.95688000
H   0.18200000  0.81800000  1.23000000     1.95813800  8.80086200  6.95688000
H   0.18200000  0.81800000 -0.23000000     1.95813800  8.80086200 -1.30088000
H   0.81800000  0.18200000 -0.23000000     8.80086200  1.95813800 -1.30088000
H   0.56100000  0.23500000  0.00000000     6.03579900  2.52836500  0.00000000
H  -0.56100000 -0.23500000  0.00000000    -6.03579900 -2.52836500  0.00000000
H   0.23500000  0.56100000  0.00000000     2.52836500  6.03579900  0.00000000
H  -0.23500000 -0.56100000  0.00000000    -2.52836500 -6.03579900  0.00000000
H   1.06100000  0.26500000  0.50000000    11.41529900  2.85113500  2.82800000
H  -0.06100000  0.73500000  0.50000000    -0.65629900  7.90786500  2.82800000
H   0.73500000 -0.06100000  0.50000000     7.90786500 -0.65629900  2.82800000
H   0.26500000  1.06100000  0.50000000     2.85113500 11.41529900  2.82800000
H   0.36700000  0.03800000  0.00000000     3.94855300  0.40884200  0.00000000
H  -0.36700000 -0.03800000  0.00000000    -3.94855300 -0.40884200  0.00000000
H   0.03800000  0.36700000  0.00000000     0.40884200  3.94855300  0.00000000
H  -0.03800000 -0.36700000  0.00000000    -0.40884200 -3.94855300  0.00000000
H   0.86700000  0.46200000  0.50000000     9.32805300  4.97065800  2.82800000
H   0.13300000  0.53800000  0.50000000     1.43094700  5.78834200  2.82800000
H   0.53800000  0.13300000  0.50000000     5.78834200  1.43094700  2.82800000
H   0.46200000  0.86700000  0.50000000     4.97065800  9.32805300  2.82800000
    &END COORD
    &PRINT
      &SYMMETRY
       CHECK_SYMMETRY 4/mmm
      &END
    &END
    &TOPOLOGY
      CONNECTIVITY OFF
    &END
  &END SUBSYS
&END FORCE_EVAL
&GLOBAL
  PROJECT symmetry
  RUN_TYPE ENERGY
&END GLOBAL
