&FORCE_EVAL
  METHOD Quickstep
  &DFT
    &QS
      METHOD PM6
      &SE
      &END
    &END QS
    &SCF
      MAX_SCF 0
    &END SCF
  &END DFT
  &SUBSYS
    &CELL
#Zr Si O_4 & Zircon & I4_1/amd & D_{4h}^{19} & #141 & cP12 & Robinson et al. Ame
      UNIT SCALED_ANGSTROM
     A   6.60700000  0.00000000  0.00000000
     B   0.00000000  6.60700000  0.00000000
     C   3.30350000  3.30350000  2.99100000
    &END CELL
    &COORD
Zr -0.12500000 -0.37500000  0.25000000     0.00000000 -1.65175000  0.74775000
Zr  0.12500000  0.37500000 -0.25000000     0.00000000  1.65175000 -0.74775000
Si -0.37500000 -0.12500000 -0.25000000    -3.30350000 -1.65175000 -0.74775000
Si  0.37500000  0.12500000  0.25000000     3.30350000  1.65175000  0.74775000
O  -0.19530000 -0.12920000  0.39060000     0.00000000  0.43672270  1.16828460
O  -0.19530000  0.23860000  0.39060000     0.00000000  2.86677730  1.16828460
O  -0.26140000  0.30470000 -0.10940000    -2.08847270  1.65175000 -0.32721540
O   0.37080000  0.30470000 -0.10940000     2.08847270  1.65175000 -0.32721540
O   0.19530000  0.12920000 -0.39060000     0.00000000 -0.43672270 -1.16828460
O   0.19530000 -0.23860000 -0.39060000     0.00000000 -2.86677730 -1.16828460
O   0.26140000 -0.30470000  0.10940000     2.08847270 -1.65175000  0.32721540
O  -0.37080000 -0.30470000  0.10940000    -2.08847270 -1.65175000  0.32721540
    &END COORD
    &PRINT
      &SYMMETRY
       CHECK_SYMMETRY 4/mmm
      &END
    &END
    &TOPOLOGY
      CONNECTIVITY OFF
    &END
  &END SUBSYS
&END FORCE_EVAL
&GLOBAL
  PROJECT symmetry
  RUN_TYPE ENERGY
&END GLOBAL
