&FORCE_EVAL
  METHOD Quickstep
  &DFT
    &QS
      METHOD PM6
      &SE
      &END
    &END QS
    &SCF
      MAX_SCF 0
    &END SCF
  &END DFT
  &SUBSYS
    &CELL
#Ir_3 Si & I4/mcm (#140) D_{4h}^{18} & tI16 & D0_c & Villars and Calvert, Pearson's Handbook IV 4125
      UNIT SCALED_ANGSTROM
     A   5.22200000  0.00000000  0.00000000
     B   0.00000000  5.22200000  0.00000000
     C   2.61100000  2.61100000  3.97700000
    &END CELL
    &COORD
Si -0.25000000 -0.25000000  0.50000000     0.00000000  0.00000000  1.98850000
Si  0.25000000  0.25000000 -0.50000000     0.00000000  0.00000000 -1.98850000
Ir -0.25000000  0.25000000  0.50000000     0.00000000  2.61100000  1.98850000
Ir  0.25000000 -0.25000000  0.50000000     2.61100000  0.00000000  1.98850000
Ir  0.18500000  0.68500000  0.00000000     0.96607000  3.57707000  0.00000000
Ir -0.18500000  0.31500000  0.00000000    -0.96607000  1.64493000  0.00000000
Ir  0.31500000  0.18500000  0.00000000     1.64493000  0.96607000  0.00000000
Ir  0.68500000 -0.18500000  0.00000000     3.57707000 -0.96607000  0.00000000
    &END COORD
    &PRINT
      &SYMMETRY
       CHECK_SYMMETRY 4/mmm
      &END
    &END
    &TOPOLOGY
      CONNECTIVITY OFF
    &END
  &END SUBSYS
&END FORCE_EVAL
&GLOBAL
  PROJECT symmetry
  RUN_TYPE ENERGY
&END GLOBAL
