&FORCE_EVAL
  METHOD Quickstep
  &DFT
    &QS
      METHOD PM6
      &SE
      &END
    &END QS
    &SCF
      MAX_SCF 0
    &END SCF
  &END DFT
  &SUBSYS
    &CELL
#C11_b & MoSi_2 & I4/mmm & D_{4h}^{17} & #139 & tI6 & Pearson's Alloys, pp. 589-
     A   3.20300000  0.00000000  0.00000000
     B   0.00000000  3.20300000  0.00000000
     C   1.60150000  1.60150000  3.92750000
    &END CELL
    &COORD
 SCALED
Mo  0.00000000  0.00000000  0.00000000     0.00000000  0.00000000  0.00000000
Si  0.33333333  0.33333333  0.33333333     1.60149998  1.60149998  1.30916665
Si -0.33333333 -0.33333333 -0.33333333    -1.60149998 -1.60149998 -1.30916665
    &END COORD
    &PRINT
      &SYMMETRY
       CHECK_SYMMETRY 4/mmm
      &END
    &END
    &TOPOLOGY
      CONNECTIVITY OFF
    &END
  &END SUBSYS
&END FORCE_EVAL
&GLOBAL
  PROJECT symmetry
  RUN_TYPE ENERGY
&END GLOBAL
