&FORCE_EVAL
  METHOD Quickstep
  &DFT
    &QS
      METHOD PM6
      &SE
      &END
    &END QS
    &SCF
      MAX_SCF 0
    &END SCF
  &END DFT
  &SUBSYS
    &CELL
#beta-Np & P4/nmm (D^7_{4h}) #129 & tP4 & A_d & Donohue, p. 154
      A  4.89700000   .00000000   .00000000
      B   .00000000  4.89700000   .00000000
      C   .00000000   .00000000  3.38800000
    &END CELL
    &COORD
 SCALED
#replace Np by Mn
Mn   .25000000   .75000000   .00000000     1.22425000  3.67275000   .00000000
Mn   .75000000   .25000000   .00000000     3.67275000  1.22425000   .00000000
Mn   .25000000   .25000000   .37500000     1.22425000  1.22425000  1.27050000
Mn   .75000000   .75000000  -.37500000     3.67275000  3.67275000 -1.27050000
    &END COORD
    &PRINT
      &SYMMETRY
       CHECK_SYMMETRY 4/mmm
      &END
    &END
    &TOPOLOGY
      CONNECTIVITY OFF
    &END
  &END SUBSYS
&END FORCE_EVAL
&GLOBAL
  PROJECT symmetry
  RUN_TYPE ENERGY
&END GLOBAL
