&FORCE_EVAL
  METHOD Quickstep
  &DFT
    &QS
      METHOD PM6
      &SE
      &END
    &END QS
    &SCF
      MAX_SCF 0
    &END SCF
  &END DFT
  &SUBSYS
    &CELL
#AsCuSiZr & P4/nmm-D_{4h}^7 #129 (abc^2) & tP8 & Origin Choice 1 & J Solid State Chem. 11, 161 (1974)
     A  3.67360000  0.00000000  0.00000000
     B  0.00000000  3.67360000  0.00000000
     C  0.00000000  0.00000000  9.57120000
    &END CELL
    &COORD
 SCALED
Si  0.25000000  0.75000000  0.00000000     0.91840000  2.75520000  0.00000000
Si  0.75000000  0.25000000  0.00000000     2.75520000  0.91840000  0.00000000
Cu  0.25000000  0.75000000  0.50000000     0.91840000  2.75520000  4.78560000
Cu  0.75000000  0.25000000  0.50000000     2.75520000  0.91840000  4.78560000
As  0.25000000  0.25000000  0.67930000     0.91840000  0.91840000  6.50171616
As  0.75000000  0.75000000 -0.67930000     2.75520000  2.75520000 -6.50171616
Zr  0.25000000  0.25000000  0.22460000     0.91840000  0.91840000  2.14969152
Zr  0.75000000  0.75000000 -0.22460000     2.75520000  2.75520000 -2.14969152
    &END COORD
    &PRINT
      &SYMMETRY
       CHECK_SYMMETRY 4/mmm
      &END
    &END
    &TOPOLOGY
      CONNECTIVITY OFF
    &END
  &END SUBSYS
&END FORCE_EVAL
&GLOBAL
  PROJECT symmetry
  RUN_TYPE ENERGY
&END GLOBAL
