&FORCE_EVAL
  METHOD Quickstep
  &DFT
    &QS
      METHOD PM6
      &SE
      &END
    &END QS
    &SCF
      MAX_SCF 0
    &END SCF
  &END DFT
  &SUBSYS
    &CELL
#beta In2S3 & I4_1/amd-D_{4h}^{19} #141 (ceh^4) & tI80 & Rampersadh et al., Phys
      UNIT SCALED_ANGSTROM
      A  7.61720000  0.00000000  0.00000000
      B  0.00000000  7.61720000  0.00000000
      C  3.80860000  3.80860000 16.16535000
    &END CELL
    &COORD
In  0.00000000  0.00000000  0.00000000     0.00000000  0.00000000  0.00000000
In  0.00000000 -0.50000000  1.00000000     3.80860000  0.00000000 16.16535000
In  0.00000000  0.50000000  0.50000000     1.90430000  5.71290000  8.08267500
In -0.50000000 -0.50000000  1.50000000     1.90430000  1.90430000 24.24802500
In -0.33240000 -0.35250000  0.66480000     0.00000000 -0.15310572 10.74672468
In -0.33240000 -0.81230000  1.66480000     3.80860000  0.15310572 26.91207468
In -0.31230000  0.16760000  1.16480000     2.05740572  5.71290000 18.82939968
In -0.85250000 -0.83240000  2.16480000     1.75119428  1.90430000 34.99474968
In  0.33240000 -0.18770000  0.33520000     3.80860000 -0.15310572  5.41862532
In  0.33240000  0.35250000 -0.66480000     0.00000000  0.15310572-10.74672468
In  0.31230000  0.83240000 -0.16480000     1.75119428  5.71290000 -2.66404968
In -0.14750000 -0.16760000  0.83520000     2.05740572  1.90430000 13.50130032
In -0.20440000  0.04560000  0.40880000     0.00000000  1.90430000  6.60839508
In -0.45440000  0.29560000  0.90880000     0.00000000  5.71290000 14.69107008
In  0.20440000 -0.04560000  0.59120000     3.80860000  1.90430000  9.55695492
In  0.45440000  0.70440000  0.09120000     3.80860000  5.71290000  1.47427992
S  -0.24570000 -0.26170000  0.49140000     0.00000000 -0.12187520  7.94365299
S  -0.24570000 -0.72970000  1.49140000     3.80860000  0.12187520 24.10900299
S  -0.22970000  0.25430000  0.99140000     2.02617520  5.71290000 16.02632799
S  -0.76170000 -0.74570000  1.99140000     1.78242480  1.90430000 32.19167799
S   0.24570000 -0.27030000  0.50860000     3.80860000 -0.12187520  8.22169701
S   0.24570000  0.26170000 -0.49140000     0.00000000  0.12187520 -7.94365299
S   0.22970000  0.74570000  0.00860000     1.78242480  5.71290000  0.13902201
S  -0.23830000 -0.25430000  1.00860000     2.02617520  1.90430000 16.30437201
S  -0.08590000 -0.07990000  0.17180000     0.00000000  0.04570320  2.77720713
S  -0.08590000 -0.59190000  1.17180000     3.80860000 -0.04570320 18.94255713
S  -0.09190000  0.41410000  0.67180000     1.85859680  5.71290000 10.85988213
S  -0.57990000 -0.58590000  1.67180000     1.95000320  1.90430000 27.02523213
S   0.08590000 -0.40810000  0.82820000     3.80860000  0.04570320 13.38814287
S   0.08590000  0.07990000 -0.17180000     0.00000000 -0.04570320 -2.77720713
S   0.09190000  0.58590000  0.32820000     1.95000320  5.71290000  5.30546787
S  -0.42010000 -0.41410000  1.32820000     1.85859680  1.90430000 21.47081787
S  -0.41640000 -0.38310000  0.83280000     0.00000000  0.25365276 13.46250348
S  -0.41640000 -0.94970000  1.83280000     3.80860000 -0.25365276 29.62785348
S  -0.44970000  0.08360000  1.33280000     1.65064724  5.71290000 21.54517848
S  -0.88310000 -0.91640000  2.33280000     2.15795276  1.90430000 37.71052848
S   0.41640000 -0.05030000  0.16720000     3.80860000  0.25365276  2.70284652
S   0.41640000  0.38310000 -0.83280000     0.00000000 -0.25365276-13.46250348
S   0.44970000  0.91640000 -0.33280000     2.15795276  5.71290000 -5.37982848
S  -0.11690000 -0.08360000  0.66720000     1.65064724  1.90430000 10.78552152
    &END COORD
    &PRINT
      &SYMMETRY
       CHECK_SYMMETRY 4/mmm
      &END
    &END
    &TOPOLOGY
      CONNECTIVITY OFF
    &END
  &END SUBSYS
&END FORCE_EVAL
&GLOBAL
  PROJECT symmetry
  RUN_TYPE ENERGY
&END GLOBAL
