&FORCE_EVAL
  METHOD Quickstep
  &DFT
    &QS
      METHOD PM6
      &SE
      &END
    &END QS
    &SCF
      MAX_SCF 0
    &END SCF
  &END DFT
  &SUBSYS
    &CELL
#Mn_3 O_4 & I4_1/amd-D_{4h}^{19} #141 (adh) & tI28 & Pearsons Handbook IV 4347
      UNIT SCALED_ANGSTROM
      A  5.75000000  0.00000000  0.00000000
      B  0.00000000  5.75000000  0.00000000
      C  2.87500000  2.87500000  4.71000000
    &END CELL
    &COORD
Mn  0.00000000  0.00000000  0.00000000     0.00000000  0.00000000  0.00000000
Mn -0.25000000  0.25000000  0.50000000     0.00000000  2.87500000  2.35500000
Mn  0.37500000 -0.37500000  0.25000000     2.87500000 -1.43750000  1.17750000
Mn  0.37500000  0.12500000  0.25000000     2.87500000  1.43750000  1.17750000
Mn -0.12500000 -0.37500000 -0.25000000    -1.43750000 -2.87500000 -1.17750000
Mn  0.37500000 -0.37500000 -0.25000000     1.43750000 -2.87500000 -1.17750000
O  -0.37700000 -0.12800000 -0.24600000    -2.87500000 -1.44325000 -1.15866000
O  -0.37700000  0.37400000  0.75400000     0.00000000  4.31825000  3.55134000
O   0.12400000 -0.12700000  0.25400000     1.44325000  0.00000000  1.19634000
O  -0.37800000 -0.12700000  0.25400000    -1.44325000  0.00000000  1.19634000
O   0.12700000 -0.12400000 -0.25400000     0.00000000 -1.44325000 -1.19634000
O   0.12700000  0.37800000 -0.25400000     0.00000000  1.44325000 -1.19634000
O  -0.37400000  0.37700000  0.24600000    -1.44325000  2.87500000  1.15866000
O   0.12800000  0.37700000  0.24600000     1.44325000  2.87500000  1.15866000
    &END COORD
    &PRINT
      &SYMMETRY
       CHECK_SYMMETRY 4/mmm
      &END
    &END
    &TOPOLOGY
      CONNECTIVITY OFF
    &END
  &END SUBSYS
&END FORCE_EVAL
&GLOBAL
  PROJECT symmetry
  RUN_TYPE ENERGY
&END GLOBAL
