&FORCE_EVAL
  METHOD Quickstep
  &DFT
    &QS
      METHOD PM6
      &SE
      &END
    &END QS
    &SCF
      MAX_SCF 0
    &END SCF
  &END DFT
  &SUBSYS
    &CELL
#C in (I4/mmm; #139) Peter Schultz's 4-fold coordinated 4 member rings
     A   4.33184000   .00000000   .00000000
     B    .00000000  4.33184000   .00000000
     C   2.16592000  2.16592000  1.24346000
    &END CELL
    &COORD
 SCALED
C    .18033000   .18033000   .00000000      .78116071   .78116071   .00000000
C   -.18033000   .18033000   .00000000     -.78116071   .78116071   .00000000
C   -.18033000  -.18033000   .00000000     -.78116071  -.78116071   .00000000
C    .18033000  -.18033000   .00000000      .78116071  -.78116071   .00000000
    &END COORD
    &PRINT
      &SYMMETRY
       CHECK_SYMMETRY 4/mmm
      &END
    &END
    &TOPOLOGY
      CONNECTIVITY OFF
    &END
  &END SUBSYS
&END FORCE_EVAL
&GLOBAL
  PROJECT symmetry
  RUN_TYPE ENERGY
&END GLOBAL
