&FORCE_EVAL
  METHOD Quickstep
  &DFT
    &QS
      METHOD PM6
      &SE
      &END
    &END QS
    &SCF
      MAX_SCF 0
    &END SCF
  &END DFT
  &SUBSYS
    &CELL
#Si_2 U_3 & P4/mbm-D_{4h}^5 #127 & tP10 & D5_a & Structure Reports, v. 11, p. 28
      UNIT SCALED_ANGSTROM
     A   7.32990000  0.00000000  0.00000000
     B   0.00000000  7.32990000  0.00000000
     C   0.00000000  0.00000000  3.90040000
    &END CELL
    &COORD
#replace U by Cr
Cr  0.00000000  0.00000000  0.00000000     0.00000000  0.00000000  0.00000000
Cr  0.50000000  0.50000000  0.00000000     3.66495000  3.66495000  0.00000000
Cr  0.18100000  0.68100000  0.50000000     1.32671190  4.99166190  1.95020000
Cr -0.18100000  0.31900000  0.50000000    -1.32671190  2.33823810  1.95020000
Cr  0.68100000 -0.18100000  0.50000000     4.99166190 -1.32671190  1.95020000
Cr  0.31900000  0.18100000  0.50000000     2.33823810  1.32671190  1.95020000
Si  0.38900000  0.88900000  0.00000000     2.85133110  6.51628110  0.00000000
Si -0.38900000  0.11100000  0.00000000    -2.85133110  0.81361890  0.00000000
Si  0.88900000 -0.38900000  0.00000000     6.51628110 -2.85133110  0.00000000
Si  0.11100000  0.38900000  0.00000000     0.81361890  2.85133110  0.00000000
    &END COORD
    &PRINT
      &SYMMETRY
       CHECK_SYMMETRY 4/mmm
      &END
    &END
    &TOPOLOGY
      CONNECTIVITY OFF
    &END
  &END SUBSYS
&END FORCE_EVAL
&GLOBAL
  PROJECT symmetry
  RUN_TYPE ENERGY
&END GLOBAL
