&FORCE_EVAL
  METHOD Quickstep
  &DFT
    &QS
      METHOD PM6
      &SE
      &END
    &END QS
    &SCF
      MAX_SCF 0
    &END SCF
  &END DFT
  &SUBSYS
    &CELL
#TiO_2   (Anatase) & I4_1/amd -- D_{4h}^{19} (#141) & tI6 & C5 & Horn et al., Z.
     A   3.78420000  0.00000000  0.00000000
     B   0.00000000  3.78420000  0.00000000
     C   1.89210000  1.89210000  4.75730000
    &END CELL
    &COORD
 SCALED
Ti -0.12500000  0.62500000  0.25000000     0.00000000  2.83815000  1.18932500
Ti  0.12500000  0.37500000  0.75000000     1.89210000  2.83815000  3.56797500
O  -0.08310000  0.16690000  0.16620000     0.00000000  0.94605000  0.79066326
O  -0.33310000  0.41690000  0.66620000     0.00000000  2.83815000  3.16931326
O   0.08310000 -0.16690000  0.83380000     1.89210000  0.94605000  3.96663674
O   0.33310000  0.58310000  0.33380000     1.89210000  2.83815000  1.58798674
    &END COORD
    &PRINT
      &SYMMETRY
       CHECK_SYMMETRY 4/mmm
      &END
    &END
    &TOPOLOGY
      CONNECTIVITY OFF
    &END
  &END SUBSYS
&END FORCE_EVAL
&GLOBAL
  PROJECT symmetry
  RUN_TYPE ENERGY
&END GLOBAL
