&FORCE_EVAL
  METHOD Quickstep
  &DFT
    &QS
      METHOD PM6
      &SE
      &END
    &END QS
    &SCF
      MAX_SCF 0
    &END SCF
  &END DFT
  &SUBSYS
    &CELL
#AlKTe_2 for SeTl & I4/mcm-D_{4h}^{18} #140 & tI16 & B37 & Pearson's Handbook V. I, p. 891
      A  8.77000000  0.00000000  0.00000000
      B  0.00000000  8.77000000  0.00000000
      C  4.38500000  4.38500000  3.35500000
    &END CELL
    &COORD
 SCALED
K  -0.25000000 -0.25000000  0.50000000     0.00000000  0.00000000  1.67750000
K   0.25000000  0.25000000  0.50000000     4.38500000  4.38500000  1.67750000
Al -0.25000000  0.25000000  0.50000000     0.00000000  4.38500000  1.67750000
Al  0.25000000 -0.25000000  0.50000000     4.38500000  0.00000000  1.67750000
Te  0.16440000  0.66440000  0.00000000     1.44178800  5.82678800  0.00000000
Te -0.16440000  0.33560000  0.00000000    -1.44178800  2.94321200  0.00000000
Te  0.33560000  0.16440000  0.00000000     2.94321200  1.44178800  0.00000000
Te  0.66440000 -0.16440000  0.00000000     5.82678800 -1.44178800  0.00000000
    &END COORD
    &PRINT
      &SYMMETRY
       CHECK_SYMMETRY 4/mmm
      &END
    &END
    &TOPOLOGY
      CONNECTIVITY OFF
    &END
  &END SUBSYS
&END FORCE_EVAL
&GLOBAL
  PROJECT symmetry
  RUN_TYPE ENERGY
&END GLOBAL
