&FORCE_EVAL
  METHOD Quickstep
  &DFT
    &QS
      METHOD PM6
      &SE
      &END
    &END QS
    &SCF
      MAX_SCF 0
    &END SCF
  &END DFT
  &SUBSYS
    &CELL
#Th H_2 & I4/mmm & #139 & D_{4h}^{17} & tI6 & L'2
      UNIT SCALED_ANGSTROM
     A   4.10000000  0.00000000  0.00000000
     B   0.00000000  4.10000000  0.00000000
     C   2.05000000  2.05000000  2.51500000
    &END CELL
    &COORD
#replace Th by Zr
Zr  0.00000000  0.00000000  0.00000000     0.00000000  0.00000000  0.00000000
H  -0.25000000  0.25000000  0.50000000     0.00000000  2.05000000  1.25750000
H   0.25000000 -0.25000000  0.50000000     2.05000000  0.00000000  1.25750000
    &END COORD
    &PRINT
      &SYMMETRY
       CHECK_SYMMETRY 4/mmm
      &END
    &END
    &TOPOLOGY
      CONNECTIVITY OFF
    &END
  &END SUBSYS
&END FORCE_EVAL
&GLOBAL
  PROJECT symmetry
  RUN_TYPE ENERGY
&END GLOBAL
