&FORCE_EVAL
  METHOD Quickstep
  &DFT
    &QS
      METHOD PM6
      &SE
      &END
    &END QS
    &SCF
      MAX_SCF 0
    &END SCF
  &END DFT
  &SUBSYS
    &CELL
#Al_4 Ba & I4/mmm-D_{4h}^17 #139 & tI10 & D2_e & Pearon's Alloys pp. 484-5
     A   4.54198200  0.00000000  0.00000000
     B   0.00000000  4.54198200  0.00000000
     C   2.27099100  2.27099100  5.56354000
    &END CELL
    &COORD
 SCALED
Ba  0.00000000  0.00000000  0.00000000     0.00000000  0.00000000  0.00000000
Al -0.25000000  0.25000000  0.50000000     0.00000000  2.27099100  2.78177000
Al  0.25000000 -0.25000000  0.50000000     2.27099100  0.00000000  2.78177000
Al -0.37957308 -0.37957308  0.75914616     0.00000000  0.00000000  4.22354000
Al  0.37957308  0.37957308 -0.75914616     0.00000000  0.00000000 -4.22354000
    &END COORD
    &PRINT
      &SYMMETRY
       CHECK_SYMMETRY 4/mmm
      &END
    &END
    &TOPOLOGY
      CONNECTIVITY OFF
    &END
  &END SUBSYS
&END FORCE_EVAL
&GLOBAL
  PROJECT symmetry
  RUN_TYPE ENERGY
&END GLOBAL
