&FORCE_EVAL
  METHOD Quickstep
  &DFT
    &QS
      METHOD PM6
      &SE
      &END
    &END QS
    &SCF
      MAX_SCF 0
    &END SCF
  &END DFT
  &SUBSYS
    &CELL
#beta-BeO & tP8 & P4_2/mnm - D_{4h}^{14} #136 (fg) & D. K. Smith et al., Acta Cryst. 18, 393 (1965)
     A  4.75000000  0.00000000  0.00000000
     B  0.00000000  4.75000000  0.00000000
     C  0.00000000  0.00000000  2.74000000
    &END CELL
    &COORD
 SCALED
O   0.33600000  0.33600000  0.00000000     1.59600000  1.59600000  0.00000000
O  -0.33600000 -0.33600000  0.00000000    -1.59600000 -1.59600000  0.00000000
O   0.16400000  0.83600000  0.50000000     0.77900000  3.97100000  1.37000000
O   0.83600000  0.16400000  0.50000000     3.97100000  0.77900000  1.37000000
Be  0.31000000 -0.31000000  0.00000000     1.47250000 -1.47250000  0.00000000
Be -0.31000000  0.31000000  0.00000000    -1.47250000  1.47250000  0.00000000
Be  0.81000000  0.81000000  0.50000000     3.84750000  3.84750000  1.37000000
Be  0.19000000  0.19000000  0.50000000     0.90250000  0.90250000  1.37000000
    &END COORD
    &PRINT
      &SYMMETRY
       CHECK_SYMMETRY 4/mmm
      &END
    &END
    &TOPOLOGY
      CONNECTIVITY OFF
    &END
  &END SUBSYS
&END FORCE_EVAL
&GLOBAL
  PROJECT symmetry
  RUN_TYPE ENERGY
&END GLOBAL
