&FORCE_EVAL
  METHOD Quickstep
  &DFT
    &QS
      METHOD PM6
      &SE
      &END
    &END QS
    &SCF
      MAX_SCF 0
    &END SCF
  &END DFT
  &SUBSYS
    &CELL
#AsKSe_2 & P1 (#1, C^1_1) & aP16 & Pearson's Handbook I, 1164
      UNIT SCALED_ANGSTROM
     A   6.55800000  0.00000000  0.00000000
     B  -2.29693588 12.41734551  0.00000000
     C  -1.97409838 -1.57179078  6.04874577
    &END CELL
    &COORD
As  0.59500000  0.17700000  0.85030000     1.81687650  0.86137646  5.14324853
As  0.45560000  0.44240000  0.87740000     0.23958645  4.11434442  5.30716954
As  0.28840000  0.67670000  0.15500000     0.03100544  8.15919014  0.93755559
As  0.31720000  0.94260000  0.01700000    -0.11845383 11.67786943  0.10282868
K   0.21230000  0.25990000  0.22610000     0.34894612  2.87188620  1.36762142
K   0.89020000  0.49740000  0.41430000     3.87756673  5.52519474  2.50599537
K   0.66340000  0.75830000  0.77140000     1.08599123  8.20359369  4.66600249
K   0.85350000  0.99780000  0.45290000     2.41130122 11.67816331  2.73947696
Se  0.68600000  0.20730000  0.22840000     3.57174912  2.21511871  1.38153353
Se  0.38610000  0.98130000  0.69100000    -1.08604136 11.09903372  4.17968333
Se  0.43960000  0.49980000  0.56140000     0.62662942  5.32378594  3.39576588
Se  0.26230000  0.24480000  0.73800000    -0.29901111  1.87978459  4.46397438
Se  0.66830000  0.70800000  0.24840000     2.26611476  8.40104779  1.50250845
Se  0.12980000  0.48180000  0.94920000    -2.12924949  4.49073326  5.74146948
Sn  0.00000000  0.00000000  0.00000000     0.00000000  0.00000000  0.00000000
Se  0.17580000  0.74480000  0.82280000    -2.18214959  7.95516948  4.97690802
    &END COORD
    &PRINT
      &SYMMETRY
       CHECK_SYMMETRY 1
      &END
    &END
    &TOPOLOGY
      CONNECTIVITY OFF
    &END
  &END SUBSYS
&END FORCE_EVAL
&GLOBAL
  PROJECT symmetry
  RUN_TYPE ENERGY
&END GLOBAL
