&FORCE_EVAL
  METHOD Quickstep
  &DFT
    &QS
      METHOD PM6
      &SE
      &END
    &END QS
    &SCF
      MAX_SCF 0
    &END SCF
  &END DFT
  &SUBSYS
    &CELL
#Mg_2 Ni & P6_222-D_6^4 #180 & hP18 & Villars and Calvert, Pearson's Handbook IV
     A   2.60535000 -4.51259857  0.00000000
     B   2.60535000  4.51259857  0.00000000
     C   0.00000000  0.00000000 13.24370000
    &END CELL
    &COORD
 SCALED
Ni  0.00000000  0.00000000  0.50000000     0.00000000  0.00000000  6.62185000
Ni  0.00000000  0.00000000  0.16666667     0.00000000  0.00000000  2.20728334
Ni  0.00000000  0.00000000 -0.16666667     0.00000000  0.00000000 -2.20728334
Ni  0.50000000  0.00000000  0.00000000     1.30267500 -2.25629929  0.00000000
Ni  0.00000000  0.50000000  0.66666667     1.30267500  2.25629929  8.82913334
Ni  0.50000000  0.50000000  0.33333333     2.60535000  0.00000000  4.41456666
Mg  0.50000000  0.00000000  0.16260000     1.30267500 -2.25629929  2.15342562
Mg  0.00000000  0.50000000 -0.17073333     1.30267500  2.25629929 -2.26114104
Mg  0.50000000  0.50000000  0.49593333     2.60535000  0.00000000  6.56799228
Mg  0.50000000  0.00000000 -0.16260000     1.30267500 -2.25629929 -2.15342562
Mg  0.00000000  0.50000000  0.50406667     1.30267500  2.25629929  6.67570772
Mg  0.50000000  0.50000000  0.17073333     2.60535000  0.00000000  2.26114104
Mg  0.16260000  0.32520000  0.00000000     1.27088973  0.73374853  0.00000000
Mg -0.32520000 -0.16260000  0.66666667    -1.27088973  0.73374853  8.82913334
Mg  0.16260000 -0.16260000  0.33333333     0.00000000 -1.46749706  4.41456666
Mg -0.16260000 -0.32520000  0.00000000    -1.27088973 -0.73374853  0.00000000
Mg  0.32520000  0.16260000  0.66666667     1.27088973 -0.73374853  8.82913334
Mg -0.16260000  0.16260000  0.33333333     0.00000000  1.46749706  4.41456666
    &END COORD
    &PRINT
      &SYMMETRY
       CHECK_SYMMETRY 622
      &END
    &END
    &TOPOLOGY
      CONNECTIVITY OFF
    &END
  &END SUBSYS
&END FORCE_EVAL
&GLOBAL
  PROJECT symmetry
  RUN_TYPE ENERGY
&END GLOBAL
