&FORCE_EVAL
  METHOD Quickstep
  &DFT
    LSD
    &QS
      METHOD PM6
      &SE
      &END
    &END QS
    &SCF
      MAX_SCF 0
    &END SCF
  &END DFT
  &SUBSYS
    &CELL
#CrSi_2 & Use Ge_2 Ta parameters & P6_222 (#180, D^4_6) & hP9 & C40
      UNIT SCALED_ANGSTROM
     A   2.46900000 -4.27643344  0.00000000
     B   2.46900000  4.27643344  0.00000000
     C   0.00000000  0.00000000  6.73000000
    &END CELL
    &COORD
Ta  0.50000000  0.00000000  0.50000000     1.23450000 -2.13821672  3.36500000
Ta  0.00000000  0.50000000  0.16666667     1.23450000  2.13821672  1.12166669
Ta  0.50000000  0.50000000  0.83333333     2.46900000  0.00000000  5.60833331
Ge  0.16400000  0.32800000  0.50000000     1.21474800  0.70133508  3.36500000
Ge -0.32800000 -0.16400000  0.16666667    -1.21474800  0.70133508  1.12166669
Ge  0.16400000 -0.16400000  0.83333333     0.00000000 -1.40267017  5.60833331
Ge -0.16400000 -0.32800000  0.50000000    -1.21474800 -0.70133508  3.36500000
Ge  0.32800000  0.16400000  0.16666667     1.21474800 -0.70133508  1.12166669
Ge -0.16400000  0.16400000  0.83333333     0.00000000  1.40267017  5.60833331
    &END COORD
    &PRINT
      &SYMMETRY
       CHECK_SYMMETRY 622
      &END
    &END
    &TOPOLOGY
      CONNECTIVITY OFF
    &END
  &END SUBSYS
&END FORCE_EVAL
&GLOBAL
  PROJECT symmetry
  RUN_TYPE ENERGY
&END GLOBAL
