&FORCE_EVAL
  METHOD Quickstep
  &DFT
    &QS
      METHOD PM6
      &SE
      &END
    &END QS
    &SCF
      MAX_SCF 0
    &END SCF
  &END DFT
  &SUBSYS
    &CELL
#SiO_2 & beta quartz & P6_{2}22-D_6^4 #180 (cj) & hP9 & Kihara, European J. of Mineralogy 2, 63 (1990) & T = 848 K
     A  2.49825000 -4.32709593  0.00000000
     B  2.49825000  4.32709593  0.00000000
     C  0.00000000  0.00000000  5.45700000
    &END CELL
    &COORD
 SCALED
Si  0.50000000  0.00000000  0.00000000     1.24912500 -2.16354796  0.00000000
Si  0.00000000  0.50000000  0.66666667     1.24912500  2.16354796  3.63800002
Si  0.50000000  0.50000000  0.33333333     2.49825000  0.00000000  1.81899998
O   0.20760000  0.41520000  0.50000000     1.55591010  0.89830512  2.72850000
O  -0.41520000 -0.20760000  0.16666667    -1.55591010  0.89830512  0.90950002
O   0.20760000 -0.20760000  0.83333333     0.00000000 -1.79661023  4.54749998
O  -0.20760000 -0.41520000  0.50000000    -1.55591010 -0.89830512  2.72850000
O   0.41520000  0.20760000  0.16666667     1.55591010 -0.89830512  0.90950002
O  -0.20760000  0.20760000  0.83333333     0.00000000  1.79661023  4.54749998
    &END COORD
    &PRINT
      &SYMMETRY
       CHECK_SYMMETRY 622
      &END
    &END
    &TOPOLOGY
      CONNECTIVITY OFF
    &END
  &END SUBSYS
&END FORCE_EVAL
&GLOBAL
  PROJECT symmetry
  RUN_TYPE ENERGY
&END GLOBAL
