&FORCE_EVAL
  METHOD Quickstep
  &DFT
    &QS
      METHOD PM6
      &SE
      &END
    &END QS
    &SCF
      MAX_SCF 0
    &END SCF
  &END DFT
  &SUBSYS
    &CELL
#CSi (Moissanite-4H) & P6_3mc-C_{6v}^4 #186 & hP8 & Bauer et al., Acta Cryst A 57, 60 (2001)
      UNIT SCALED_ANGSTROM
     A   1.54025500 -2.66779992  0.00000000
     B   1.54025500  2.66779992  0.00000000
     C   0.00000000  0.00000000 10.08480000
    &END CELL
    &COORD
Si  0.00000000  0.00000000  0.00000000     0.00000000  0.00000000  0.00000000
Si  0.00000000  0.00000000  0.50000000     0.00000000  0.00000000  5.04240000
C   0.00000000  0.00000000  0.18750000     0.00000000  0.00000000  1.89090000
C   0.00000000  0.00000000  0.68750000     0.00000000  0.00000000  6.93330000
Si  0.33333333  0.66666667  0.24982500     1.54025500  0.88926664  2.51943516
Si  0.66666667  0.33333333  0.74982500     1.54025500 -0.88926664  7.56183516
C   0.33333333  0.66666667  0.43732500     1.54025500  0.88926664  4.41033516
C   0.66666667  0.33333333  0.93732500     1.54025500 -0.88926664  9.45273516
    &END COORD
    &PRINT
      &SYMMETRY
       CHECK_SYMMETRY 6mm
      &END
    &END
    &TOPOLOGY
      CONNECTIVITY OFF
    &END
  &END SUBSYS
&END FORCE_EVAL
&GLOBAL
  PROJECT symmetry
  RUN_TYPE ENERGY
&END GLOBAL
