&FORCE_EVAL
  METHOD Quickstep
  &DFT
    &QS
      METHOD PM6
      &SE
      &END
    &END QS
    &SCF
      MAX_SCF 0
    &END SCF
  &END DFT
  &SUBSYS
    &CELL
#Graphite (buckled hexagonal) & P6_3mc & C_{6h}^4 & #186 & hP4 & Wyckoff Vol. I, p. 26
      UNIT SCALED_ANGSTROM
      A  1.22800000 -2.12695839  0.00000000
      B  1.22800000  2.12695839  0.00000000
      C  0.00000000  0.00000000  6.69600000
    &END CELL
    &COORD
C   0.00000000  0.00000000  0.00000000     0.00000000  0.00000000  0.00000000
C   0.00000000  0.00000000  0.50000000     0.00000000  0.00000000  3.34800000
C   0.33333333  0.66666667  0.10000000     1.22800000  0.70898613  0.66960000
C   0.66666667  0.33333333  0.60000000     1.22800000 -0.70898613  4.01760000
    &END COORD
    &PRINT
      &SYMMETRY
       CHECK_SYMMETRY 6mm
      &END
    &END
    &TOPOLOGY
      CONNECTIVITY OFF
    &END
  &END SUBSYS
&END FORCE_EVAL
&GLOBAL
  PROJECT symmetry
  RUN_TYPE ENERGY
&END GLOBAL
