&FORCE_EVAL
  METHOD Quickstep
  &DFT
    &QS
      METHOD PM6
      &SE
      &END
    &END QS
    &SCF
      MAX_SCF 0
    &END SCF
  &END DFT
  &SUBSYS
    &CELL
#CSi  (Moissanite-6H) P6_3mc (C^4_{6v}, #186) & hP12 & W subs for Si
      A  1.54035000 -2.66796446   .00000000
      B  1.54035000  2.66796446   .00000000
      C   .00000000   .00000000 15.11740000
    &END CELL
    &COORD
 SCALED
C    .00000000   .00000000   .12540000      .00000000   .00000000  1.89572196
C    .00000000   .00000000   .62540000      .00000000   .00000000  9.45442196
W    .00000000   .00000000   .00000000      .00000000   .00000000   .00000000
W    .00000000   .00000000   .50000000      .00000000   .00000000  7.55870000
C    .33333333   .66666667   .79190000     1.54035000   .88932149 11.97146906
C    .66666667   .33333333   .29190000     1.54035000  -.88932149  4.41276906
C    .33333333   .66666667   .45840000     1.54035000   .88932149  6.92981616
C    .66666667   .33333333  -.04160000     1.54035000  -.88932149  -.62888384
W    .33333333   .66666667   .66670000     1.54035000   .88932149 10.07877058
W    .66666667   .33333333   .16670000     1.54035000  -.88932149  2.52007058
W    .33333333   .66666667   .33320000     1.54035000   .88932149  5.03711768
W    .66666667   .33333333  -.16680000     1.54035000  -.88932149 -2.52158232
    &END COORD
    &PRINT
      &SYMMETRY
       CHECK_SYMMETRY 6mm
      &END
    &END
    &TOPOLOGY
      CONNECTIVITY OFF
    &END
  &END SUBSYS
&END FORCE_EVAL
&GLOBAL
  PROJECT symmetry
  RUN_TYPE ENERGY
&END GLOBAL
