&FORCE_EVAL
  METHOD Quickstep
  &DFT
    &QS
      METHOD PM6
      &SE
      &END
    &END QS
    &SCF
      MAX_SCF 0
    &END SCF
  &END DFT
  &SUBSYS
    &CELL
#Wurtzite & B4 & ZnS & P6_3mc #186 & hP4
     A   1.91135000 -3.31055531  0.00000000
     B   1.91135000  3.31055531  0.00000000
     C   0.00000000  0.00000000  6.26070000
    &END CELL
    &COORD
 SCALED
Zn  0.33333333  0.66666667  0.00000000     1.91135000  1.10351844  0.00000000
Zn  0.66666667  0.33333333  0.50000000     1.91135000 -1.10351844  3.13035000
S   0.33333333  0.66666667  0.37480000     1.91135000  1.10351844  2.34651036
S   0.66666667  0.33333333 -0.12520000     1.91135000 -1.10351844 -0.78383964
    &END COORD
    &PRINT
      &SYMMETRY
       CHECK_SYMMETRY 6mm
      &END
    &END
    &TOPOLOGY
      CONNECTIVITY OFF
    &END
  &END SUBSYS
&END FORCE_EVAL
&GLOBAL
  PROJECT symmetry
  RUN_TYPE ENERGY
&END GLOBAL
