&FORCE_EVAL
  METHOD Quickstep
  &DFT
    &QS
      METHOD PM6
      &SE
      &END
    &END QS
    &SCF
      MAX_SCF 0
    &END SCF
  &END DFT
  &SUBSYS
    &CELL
#KAg(CN)_2 & P(-3)1c-D_{3d}^2 #163 & hP36 & F5_10 & Strukturbereicht III p. 82-3
     A   3.69200000 -6.39473158  0.00000000
     B   3.69200000  6.39473158  0.00000000
     C   0.00000000  0.00000000 17.55000000
    &END CELL
    &COORD
 SCALED
K   0.00000000  0.00000000  0.00000000     0.00000000  0.00000000  0.00000000
K   0.00000000  0.00000000  0.50000000     0.00000000  0.00000000  8.77500000
K   0.33333333  0.66666667  0.01000000     3.69200000  2.13157719  0.17550000
K   0.33333333  0.66666667  0.49000000     3.69200000  2.13157719  8.59950000
K   0.66666667  0.33333333 -0.01000000     3.69200000 -2.13157719 -0.17550000
K   0.66666667  0.33333333  0.51000000     3.69200000 -2.13157719  8.95050000
Ag -0.16666667  0.16666667  0.25000000     0.00000000  2.13157719  4.38750000
Ag -0.16666667 -0.33333333  0.25000000    -1.84600000 -1.06578860  4.38750000
Ag  0.33333333  0.16666667  0.25000000     1.84600000 -1.06578860  4.38750000
Ag  0.16666667 -0.16666667  0.75000000     0.00000000 -2.13157719 13.16250000
Ag  0.16666667  0.33333333  0.75000000     1.84600000  1.06578860 13.16250000
Ag -0.33333333 -0.16666667  0.75000000    -1.84600000  1.06578860 13.16250000
C   0.29500000  0.33333333 -0.14100000     2.31980667  0.24513138 -2.47455000
C  -0.33333333 -0.03833333 -0.14100000    -1.37219333  1.88644582 -2.47455000
C   0.03833333 -0.29500000 -0.14100000    -0.94761333 -2.13157719 -2.47455000
C  -0.33333333 -0.29500000  0.64100000    -2.31980667  0.24513138 11.24955000
C   0.03833333  0.33333333  0.64100000     1.37219333  1.88644582 11.24955000
C   0.29500000 -0.03833333  0.64100000     0.94761333 -2.13157719 11.24955000
C  -0.29500000 -0.33333333  0.14100000    -2.31980667 -0.24513138  2.47455000
C   0.33333333  0.03833333  0.14100000     1.37219333 -1.88644582  2.47455000
C  -0.03833333  0.29500000  0.14100000     0.94761333  2.13157719  2.47455000
C   0.33333333  0.29500000  0.35900000     2.31980667 -0.24513138  6.30045000
C  -0.03833333 -0.33333333  0.35900000    -1.37219333 -1.88644582  6.30045000
C  -0.29500000  0.03833333  0.35900000    -0.94761333  2.13157719  6.30045000
N   0.36500000  0.33333333 -0.08300000     2.57824667 -0.20249983 -1.45665000
N  -0.33333333  0.03166667 -0.08300000    -1.11375333  2.33407703 -1.45665000
N  -0.03166667 -0.36500000 -0.08300000    -1.46449333 -2.13157719 -1.45665000
N  -0.33333333 -0.36500000  0.58300000    -2.57824667 -0.20249983 10.23165000
N  -0.03166667  0.33333333  0.58300000     1.11375333  2.33407703 10.23165000
N   0.36500000  0.03166667  0.58300000     1.46449333 -2.13157719 10.23165000
N  -0.36500000 -0.33333333  0.08300000    -2.57824667  0.20249983  1.45665000
N   0.33333333 -0.03166667  0.08300000     1.11375333 -2.33407703  1.45665000
N   0.03166667  0.36500000  0.08300000     1.46449333  2.13157719  1.45665000
N   0.33333333  0.36500000  0.41700000     2.57824667  0.20249983  7.31835000
N   0.03166667 -0.33333333  0.41700000    -1.11375333 -2.33407703  7.31835000
N  -0.36500000 -0.03166667  0.41700000    -1.46449333  2.13157719  7.31835000
    &END COORD
    &PRINT
      &SYMMETRY
       CHECK_SYMMETRY <6>m2
      &END
    &END
    &TOPOLOGY
      CONNECTIVITY OFF
    &END
  &END SUBSYS
&END FORCE_EVAL
&GLOBAL
  PROJECT symmetry
  RUN_TYPE ENERGY
&END GLOBAL
