&FORCE_EVAL
  METHOD Quickstep
  &DFT
    LSD
    &QS
      METHOD PM6
      &SE
      &END
    &END QS
    &SCF
      MAX_SCF 0
    &END SCF
  &END DFT
  &SUBSYS
    &CELL
#Fe_2P & C22 & hP9 & P(-6)2m-D_{3h}^3 #183 & Pearson's Handbook
      UNIT SCALED_ANGSTROM
     A   2.93375000 -5.08140406  0.00000000
     B   2.93375000  5.08140406  0.00000000
     C   0.00000000  0.00000000  3.45810000
    &END CELL
    &COORD
P   0.00000000  0.00000000  0.50000000     0.00000000  0.00000000  1.72905000
P   0.33333333  0.66666667  0.00000000     2.93375000  1.69380135  0.00000000
P   0.66666667  0.33333333  0.00000000     2.93375000 -1.69380135  0.00000000
Fe  0.25600000  0.00000000  0.00000000     0.75104000 -1.30083944  0.00000000
Fe  0.00000000  0.25600000  0.00000000     0.75104000  1.30083944  0.00000000
Fe -0.25600000 -0.25600000  0.00000000    -1.50208000  0.00000000  0.00000000
Fe  0.59400000  0.00000000  0.50000000     1.74264750 -3.01835401  1.72905000
Fe  0.00000000  0.59400000  0.50000000     1.74264750  3.01835401  1.72905000
Fe -0.59400000 -0.59400000  0.50000000    -3.48529500  0.00000000  1.72905000
    &END COORD
    &PRINT
      &SYMMETRY
       CHECK_SYMMETRY <6>m2
      &END
    &END
    &TOPOLOGY
      CONNECTIVITY OFF
    &END
  &END SUBSYS
&END FORCE_EVAL
&GLOBAL
  PROJECT symmetry
  RUN_TYPE ENERGY
&END GLOBAL
