&FORCE_EVAL
  METHOD Quickstep
  &DFT
    &QS
      METHOD PM6
      &SE
      &END
    &END QS
    &SCF
      MAX_SCF 0
    &END SCF
  &END DFT
  &SUBSYS
    &CELL
#Mg Zn_2 & P6_3/mmc-D_{6h}^4 #194 & hP12 & C14 & Laves & Pearson, Alloys, p 657
      UNIT SCALED_ANGSTROM
     A   2.59000000 -4.48601159  0.00000000
     B   2.59000000  4.48601159  0.00000000
     C   0.00000000  0.00000000  8.52000000
    &END CELL
    &COORD
Zn  0.00000000  0.00000000  0.00000000     0.00000000  0.00000000  0.00000000
Zn  0.00000000  0.00000000  0.50000000     0.00000000  0.00000000  4.26000000
Zn -0.16988417 -0.33976834  0.25000000    -1.32000000 -0.76210236  2.13000000
Zn  0.33976834  0.16988417  0.25000000     1.32000000 -0.76210236  2.13000000
Zn -0.16988417  0.16988417  0.25000000     0.00000000  1.52420471  2.13000000
Zn  0.16988417  0.33976834  0.75000000     1.32000000  0.76210236  6.39000000
Zn -0.33976834 -0.16988417  0.75000000    -1.32000000  0.76210236  6.39000000
Zn  0.16988417 -0.16988417  0.75000000     0.00000000 -1.52420471  6.39000000
Mg  0.33333333  0.66666667  0.06680525     2.59000000  1.49533720  0.56918070
Mg  0.66666667  0.33333333 -0.06680525     2.59000000 -1.49533720 -0.56918070
Mg  0.66666667  0.33333333  0.56680525     2.59000000 -1.49533720  4.82918070
Mg  0.33333333  0.66666667  0.43319475     2.59000000  1.49533720  3.69081930
    &END COORD
    &PRINT
      &SYMMETRY
       CHECK_SYMMETRY 6/mmm
      &END
    &END
    &TOPOLOGY
      CONNECTIVITY OFF
    &END
  &END SUBSYS
&END FORCE_EVAL
&GLOBAL
  PROJECT symmetry
  RUN_TYPE ENERGY
&END GLOBAL
