&FORCE_EVAL
  METHOD Quickstep
  &DFT
    LSD
    &QS
      METHOD PM6
      &SE
      &END
    &END QS
    &SCF
      MAX_SCF 0
    &END SCF
  &END DFT
  &SUBSYS
    &CELL
#AlB_4Mg & P6/mmm - D_{6h}^1 (#191) & hP6 & cond-mat/0204015
      UNIT SCALED_ANGSTROM
     A   1.52218000 -2.63649310  0.00000000
     B   1.52218000  2.63649310  0.00000000
     C   0.00000000  0.00000000  6.71248000
    &END CELL
    &COORD
Al  0.00000000  0.00000000  0.00000000     0.00000000  0.00000000  0.00000000
Mg  0.00000000  0.00000000  0.50000000     0.00000000  0.00000000  3.35624000
B   0.33333333  0.66666667  0.24130000     1.52218000  0.87883103  1.61972142
B   0.66666667  0.33333333  0.24130000     1.52218000 -0.87883103  1.61972142
B   0.66666667  0.33333333 -0.24130000     1.52218000 -0.87883103 -1.61972142
B   0.33333333  0.66666667 -0.24130000     1.52218000  0.87883103 -1.61972142
    &END COORD
    &PRINT
      &SYMMETRY
       CHECK_SYMMETRY 6/mmm
      &END
    &END
    &TOPOLOGY
      CONNECTIVITY OFF
    &END
  &END SUBSYS
&END FORCE_EVAL
&GLOBAL
  PROJECT symmetry
  RUN_TYPE ENERGY
&END GLOBAL
