&FORCE_EVAL
  METHOD Quickstep
  &DFT
    &QS
      METHOD PM6
      &SE
      &END
    &END QS
    &SCF
      MAX_SCF 0
    &END SCF
  &END DFT
  &SUBSYS
    &CELL
#CuS & P6_3/mmc (#194, D^4_{6h}) & hP12 & B18
     A   1.87850000 -3.25365744  0.00000000
     B   1.87850000  3.25365744  0.00000000
     C   0.00000000  0.00000000 16.19100000
    &END CELL
    &COORD
 SCALED
S   0.33333333  0.66666667  0.25000000     1.87850000  1.08455248  4.04775000
S   0.66666667  0.33333333  0.75000000     1.87850000 -1.08455248 12.14325000
Cu  0.33333333  0.66666667  0.75000000     1.87850000  1.08455248 12.14325000
Cu  0.66666667  0.33333333  0.25000000     1.87850000 -1.08455248  4.04775000
S   0.00000000  0.00000000  0.06900000     0.00000000  0.00000000  1.11717900
S   0.00000000  0.00000000 -0.06900000     0.00000000  0.00000000 -1.11717900
S   0.00000000  0.00000000  0.56900000     0.00000000  0.00000000  9.21267900
S   0.00000000  0.00000000  0.43100000     0.00000000  0.00000000  6.97832100
Cu  0.33333333  0.66666667  0.11970000     1.87850000  1.08455248  1.93806270
Cu  0.66666667  0.33333333 -0.11970000     1.87850000 -1.08455248 -1.93806270
Cu  0.66666667  0.33333333  0.61970000     1.87850000 -1.08455248 10.03356270
Cu  0.33333333  0.66666667  0.38030000     1.87850000  1.08455248  6.15743730
    &END COORD
    &PRINT
      &SYMMETRY
       CHECK_SYMMETRY 6/mmm
      &END
    &END
    &TOPOLOGY
      CONNECTIVITY OFF
    &END
  &END SUBSYS
&END FORCE_EVAL
&GLOBAL
  PROJECT symmetry
  RUN_TYPE ENERGY
&END GLOBAL
