&FORCE_EVAL
  METHOD Quickstep
  &DFT
    &QS
      METHOD PM6
      &SE
      &END
    &END QS
    &SCF
      MAX_SCF 0
    &END SCF
  &END DFT
  &SUBSYS
    &CELL
#alpha La & P6_3/mmc (#194) & hP4 & A3' & Donohue, p. 87
      UNIT SCALED_ANGSTROM
     A   1.88500000 -3.26491577   .00000000
     B   1.88500000  3.26491577   .00000000
     C    .00000000   .00000000 12.15900000
    &END CELL
    &COORD
La   .00000000   .00000000   .00000000      .00000000   .00000000   .00000000
La   .00000000   .00000000   .50000000      .00000000   .00000000  6.07950000
La   .33333333   .66666667   .25000000     1.88500000  1.08830526  3.03975000
La   .66666667   .33333333   .75000000     1.88500000 -1.08830526  9.11925000
    &END COORD
    &PRINT
      &SYMMETRY
       CHECK_SYMMETRY 6/mmm
      &END
    &END
    &TOPOLOGY
      CONNECTIVITY OFF
    &END
  &END SUBSYS
&END FORCE_EVAL
&GLOBAL
  PROJECT symmetry
  RUN_TYPE ENERGY
&END GLOBAL
