&FORCE_EVAL
  METHOD Quickstep
  &DFT
    LSD
    &QS
      METHOD PM6
      &SE
      &END
    &END QS
    &SCF
      MAX_SCF 0
    &END SCF
  &END DFT
  &SUBSYS
    &CELL
#Li_3 N & P6/mmm-D_{6h}^1 #191 & hP4 & Pearson, Alloys, p 503
      UNIT SCALED_ANGSTROM
     A   1.83250000 -3.17398310  0.00000000
     B   1.83250000  3.17398310  0.00000000
     C   0.00000000  0.00000000  3.89000000
    &END CELL
    &COORD
N   0.00000000  0.00000000  0.00000000     0.00000000  0.00000000  0.00000000
Li  0.00000000  0.00000000  0.50000000     0.00000000  0.00000000  1.94500000
Li  0.33333333  0.66666667  0.00000000     1.83250000  1.05799439  0.00000000
Li  0.66666667  0.33333333  0.00000000     1.83250000 -1.05799439  0.00000000
    &END COORD
    &PRINT
      &SYMMETRY
       CHECK_SYMMETRY 6/mmm
      &END
    &END
    &TOPOLOGY
      CONNECTIVITY OFF
    &END
  &END SUBSYS
&END FORCE_EVAL
&GLOBAL
  PROJECT symmetry
  RUN_TYPE ENERGY
&END GLOBAL
