&FORCE_EVAL
  METHOD Quickstep
  &DFT
    &QS
      METHOD PM6
      &SE
      &END
    &END QS
    &SCF
      MAX_SCF 0
    &END SCF
  &END DFT
  &SUBSYS
    &CELL
#CaIn_2 & P6_3/mmc-D_{6h}^4 #194 & hP6 & Pearson, Alloys, pp. 499-500
      UNIT SCALED_ANGSTROM
     A   2.44750000 -4.23919435  0.00000000
     B   2.44750000  4.23919435  0.00000000
     C   0.00000000  0.00000000  7.75000000
    &END CELL
    &COORD
Ca  0.00000000  0.00000000  0.25000000     0.00000000  0.00000000  1.93750000
Ca  0.00000000  0.00000000  0.75000000     0.00000000  0.00000000  5.81250000
In  0.33333333  0.66666667  0.04500000     2.44750000  1.41306481  0.34875000
In  0.66666667  0.33333333 -0.04500000     2.44750000 -1.41306481 -0.34875000
In  0.33333333  0.66666667  0.45500000     2.44750000  1.41306481  3.52625000
In  0.66666667  0.33333333  0.54500000     2.44750000 -1.41306481  4.22375000
    &END COORD
    &PRINT
      &SYMMETRY
       CHECK_SYMMETRY 6/mmm
      &END
    &END
    &TOPOLOGY
      CONNECTIVITY OFF
    &END
  &END SUBSYS
&END FORCE_EVAL
&GLOBAL
  PROJECT symmetry
  RUN_TYPE ENERGY
&END GLOBAL
