&FORCE_EVAL
  METHOD Quickstep
  &DFT
    LSD
    &QS
      METHOD PM6
      &SE
      &END
    &END QS
    &SCF
      MAX_SCF 0
    &END SCF
  &END DFT
  &SUBSYS
    &CELL
#AlB_2 & P6/mmm-D_{6h}^1 #191 & hP3 & C32 & hexagonal omega & Pearson's Handbook Vol. I, p 656
      UNIT SCALED_ANGSTROM
     A   1.50250000 -2.60240634   .00000000
     B   1.50250000  2.60240634   .00000000
     C    .00000000   .00000000  3.25700000
    &END CELL
    &COORD
Al   .00000000   .00000000   .00000000      .00000000   .00000000   .00000000
B    .33333333   .66666667   .50000000     1.50250000   .86746878  1.62850000
B    .66666667   .33333333   .50000000     1.50250000  -.86746878  1.62850000
    &END COORD
    &PRINT
      &SYMMETRY
       CHECK_SYMMETRY 6/mmm
      &END
    &END
    &TOPOLOGY
      CONNECTIVITY OFF
    &END
  &END SUBSYS
&END FORCE_EVAL
&GLOBAL
  PROJECT symmetry
  RUN_TYPE ENERGY
&END GLOBAL
