&FORCE_EVAL
  METHOD Quickstep
  &DFT
    LSD
    &QS
      METHOD PM6
      &SE
      &END
    &END QS
    &SCF
      MAX_SCF 0
    &END SCF
  &END DFT
  &SUBSYS
    &CELL
#CoSn   & P6/mmm (#191) D_{6h}^1 & hP6 & B35
     A   2.63400000 -4.56222183  0.00000000
     B   2.63400000  4.56222183  0.00000000
     C   0.00000000  0.00000000  4.24900000
    &END CELL
    &COORD
 SCALED
Sn  0.00000000  0.00000000  0.00000000     0.00000000  0.00000000  0.00000000
Sn  0.33333333  0.66666667  0.50000000     2.63400000  1.52074061  2.12450000
Sn  0.66666667  0.33333333  0.50000000     2.63400000 -1.52074061  2.12450000
Co  0.50000000  0.00000000  0.00000000     1.31700000 -2.28111091  0.00000000
Co  0.00000000  0.50000000  0.00000000     1.31700000  2.28111091  0.00000000
Co  0.50000000  0.50000000  0.00000000     2.63400000  0.00000000  0.00000000
    &END COORD
    &PRINT
      &SYMMETRY
       CHECK_SYMMETRY 6/mmm
      &END
    &END
    &TOPOLOGY
      CONNECTIVITY OFF
    &END
  &END SUBSYS
&END FORCE_EVAL
&GLOBAL
  PROJECT symmetry
  RUN_TYPE ENERGY
&END GLOBAL
