&FORCE_EVAL
  METHOD Quickstep
  &DFT
    &QS
      METHOD PM6
      &SE
      &END
    &END QS
    &SCF
      MAX_SCF 0
    &END SCF
  &END DFT
  &SUBSYS
    &CELL
#CMo & P6_3/mmc & #194 & D_{6h}^4 & hP12
      UNIT SCALED_ANGSTROM
     A   1.50500000 -2.60673647  0.00000000
     B   1.50500000  2.60673647  0.00000000
     C   0.00000000  0.00000000 14.61000000
    &END CELL
    &COORD
C   0.00000000  0.00000000  0.00000000     0.00000000  0.00000000  0.00000000
C   0.00000000  0.00000000  0.50000000     0.00000000  0.00000000  7.30500000
Mo  0.00000000  0.00000000  0.25000000     0.00000000  0.00000000  3.65250000
Mo  0.00000000  0.00000000  0.75000000     0.00000000  0.00000000 10.95750000
C   0.33333333  0.66666667  0.66600000     1.50500000  0.86891216  9.73026000
C   0.66666667  0.33333333  0.16600000     1.50500000 -0.86891216  2.42526000
C   0.66666667  0.33333333  0.33400000     1.50500000 -0.86891216  4.87974000
C   0.33333333  0.66666667 -0.16600000     1.50500000  0.86891216 -2.42526000
Mo  0.33333333  0.66666667  0.08300000     1.50500000  0.86891216  1.21263000
Mo  0.66666667  0.33333333  0.58300000     1.50500000 -0.86891216  8.51763000
Mo  0.66666667  0.33333333 -0.08300000     1.50500000 -0.86891216 -1.21263000
Mo  0.33333333  0.66666667  0.41700000     1.50500000  0.86891216  6.09237000
    &END COORD
    &PRINT
      &SYMMETRY
       CHECK_SYMMETRY 6/mmm
      &END
    &END
    &TOPOLOGY
      CONNECTIVITY OFF
    &END
  &END SUBSYS
&END FORCE_EVAL
&GLOBAL
  PROJECT symmetry
  RUN_TYPE ENERGY
&END GLOBAL
