&FORCE_EVAL
  METHOD Quickstep
  &DFT
    &QS
      METHOD PM6
      &SE
      &END
    &END QS
    &SCF
      MAX_SCF 0
    &END SCF
  &END DFT
  &SUBSYS
    &CELL
#AlCCr2 & P6_3/mmc & #194 & D_{6h}^4 & hP8
     A   1.43000000 -2.47683265  0.00000000
     B   1.43000000  2.47683265  0.00000000
     C   0.00000000  0.00000000 12.82000000
    &END CELL
    &COORD
 SCALED
C   0.00000000  0.00000000  0.00000000     0.00000000  0.00000000  0.00000000
C   0.00000000  0.00000000  0.50000000     0.00000000  0.00000000  6.41000000
Al  0.66666667  0.33333333  0.25000000     1.43000000 -0.82561088  3.20500000
Al  0.33333333  0.66666667  0.75000000     1.43000000  0.82561088  9.61500000
Cr  0.33333333  0.66666667  0.08600000     1.43000000  0.82561088  1.10252000
Cr  0.66666667  0.33333333  0.58600000     1.43000000 -0.82561088  7.51252000
Cr  0.66666667  0.33333333 -0.08600000     1.43000000 -0.82561088 -1.10252000
Cr  0.33333333  0.66666667  0.41400000     1.43000000  0.82561088  5.30748000
    &END COORD
    &PRINT
      &SYMMETRY
       CHECK_SYMMETRY 6/mmm
      &END
    &END
    &TOPOLOGY
      CONNECTIVITY OFF
    &END
  &END SUBSYS
&END FORCE_EVAL
&GLOBAL
  PROJECT symmetry
  RUN_TYPE ENERGY
&END GLOBAL
