&FORCE_EVAL
  METHOD Quickstep
  &DFT
    &QS
      METHOD PM6
      &SE
      &END
    &END QS
    &SCF
      MAX_SCF 0
    &END SCF
  &END DFT
  &SUBSYS
    &CELL
#LiBC & P6_3/mmc-D_{6h}^4 #194 (acd) & hP6 & W\"orle et al., Z. Anorg. Allg. Che
     A   1.37500000 -2.38156986  0.00000000
     B   1.37500000  2.38156986  0.00000000
     C   0.00000000  0.00000000  7.05800000
    &END CELL
    &COORD
 SCALED
Li  0.00000000  0.00000000  0.00000000     0.00000000  0.00000000  0.00000000
Li  0.00000000  0.00000000  0.50000000     0.00000000  0.00000000  3.52900000
B   0.33333333  0.66666667  0.25000000     1.37500000  0.79385662  1.76450000
B   0.66666667  0.33333333  0.75000000     1.37500000 -0.79385662  5.29350000
C   0.66666667  0.33333333  0.25000000     1.37500000 -0.79385662  1.76450000
C   0.33333333  0.66666667  0.75000000     1.37500000  0.79385662  5.29350000
    &END COORD
    &PRINT
      &SYMMETRY
       CHECK_SYMMETRY 6/mmm
      &END
    &END
    &TOPOLOGY
      CONNECTIVITY OFF
    &END
  &END SUBSYS
&END FORCE_EVAL
&GLOBAL
  PROJECT symmetry
  RUN_TYPE ENERGY
&END GLOBAL
