&FORCE_EVAL
  METHOD Quickstep
  &DFT
    &QS
      METHOD PM6
      &SE
      &END
    &END QS
    &SCF
      MAX_SCF 0
    &END SCF
  &END DFT
  &SUBSYS
    &CELL
#Al N_3 Ti_4 & P6_3/mmc & #194 & D_{6h}^4 & hP16 & MAX phase
      UNIT SCALED_ANGSTROM
     A   1.49400000 -2.58768391  0.00000000
     B   1.49400000  2.58768391  0.00000000
     C   0.00000000  0.00000000 23.37200000
    &END CELL
    &COORD
N   0.00000000  0.00000000  0.00000000     0.00000000  0.00000000  0.00000000
N   0.00000000  0.00000000  0.50000000     0.00000000  0.00000000 11.68600000
Al  0.33333333  0.66666667  0.25000000     1.49400000  0.86256130  5.84300000
Al  0.66666667  0.33333333  0.75000000     1.49400000 -0.86256130 17.52900000
Ti  0.33333333  0.66666667  0.05390000     1.49400000  0.86256130  1.25975080
Ti  0.66666667  0.33333333  0.55390000     1.49400000 -0.86256130 12.94575080
Ti  0.66666667  0.33333333 -0.05390000     1.49400000 -0.86256130 -1.25975080
Ti  0.33333333  0.66666667  0.44610000     1.49400000  0.86256130 10.42624920
Ti  0.00000000  0.00000000  0.15430000     0.00000000  0.00000000  3.60629960
Ti  0.00000000  0.00000000  0.65430000     0.00000000  0.00000000 15.29229960
Ti  0.00000000  0.00000000 -0.15430000     0.00000000  0.00000000 -3.60629960
Ti  0.00000000  0.00000000  0.34570000     0.00000000  0.00000000  8.07970040
N   0.33333333  0.66666667  0.60500000     1.49400000  0.86256130 14.14006000
N   0.66666667  0.33333333  0.10500000     1.49400000 -0.86256130  2.45406000
N   0.66666667  0.33333333  0.39500000     1.49400000 -0.86256130  9.23194000
N   0.33333333  0.66666667 -0.10500000     1.49400000  0.86256130 -2.45406000
    &END COORD
    &PRINT
      &SYMMETRY
       CHECK_SYMMETRY 6/mmm
      &END
    &END
    &TOPOLOGY
      CONNECTIVITY OFF
    &END
  &END SUBSYS
&END FORCE_EVAL
&GLOBAL
  PROJECT symmetry
  RUN_TYPE ENERGY
&END GLOBAL
