&FORCE_EVAL
  METHOD Quickstep
  &DFT
    &QS
      METHOD PM6
      &SE
      &END
    &END QS
    &SCF
      MAX_SCF 0
    &END SCF
  &END DFT
  &SUBSYS
    &CELL
#Cu_2 Te & P6/mmm & #191 & tP6 & C_h
     A   2.11850000 -3.66934964   .00000000
     B   2.11850000  3.66934964   .00000000
     C    .00000000   .00000000  7.27400000
    &END CELL
    &COORD
 SCALED
Te   .00000000   .00000000   .30600000      .00000000   .00000000  2.22584400
Te   .00000000   .00000000  -.30600000      .00000000   .00000000 -2.22584400
Cu   .33333333   .66666667   .16000000     2.11850000  1.22311655  1.16384000
Cu   .66666667   .33333333   .16000000     2.11850000 -1.22311655  1.16384000
Cu   .33333333   .66666667  -.16000000     2.11850000  1.22311655 -1.16384000
Cu   .66666667   .33333333  -.16000000     2.11850000 -1.22311655 -1.16384000
    &END COORD
    &PRINT
      &SYMMETRY
       CHECK_SYMMETRY 6/mmm
      &END
    &END
    &TOPOLOGY
      CONNECTIVITY OFF
    &END
  &END SUBSYS
&END FORCE_EVAL
&GLOBAL
  PROJECT symmetry
  RUN_TYPE ENERGY
&END GLOBAL
