&FORCE_EVAL
  METHOD Quickstep
  &DFT
    &QS
      METHOD PM6
      &SE
      &END
    &END QS
    &SCF
      MAX_SCF 0
    &END SCF
  &END DFT
  &SUBSYS
    &CELL
#C in (P6_3/mmc; #194) Peter Schultz's 4-fold coordinated 3 member rings
     A   2.20825700 -3.82481300   .00000000
     B   2.20825700  3.82481300   .00000000
     C    .00000000   .00000000  2.51034600
    &END CELL
    &COORD
 SCALED
C    .44783900   .89567800   .25000000     2.96683082  1.71290043   .62758650
C   -.89567800  -.44783900   .25000000    -2.96683082  1.71290043   .62758650
C    .44783900  -.44783900   .25000000      .00000000 -3.42580086   .62758650
C   -.44783900  -.89567800   .75000000    -2.96683082 -1.71290043  1.88275950
C    .89567800   .44783900   .75000000     2.96683082 -1.71290043  1.88275950
C   -.44783900   .44783900   .75000000      .00000000  3.42580086  1.88275950
    &END COORD
    &PRINT
      &SYMMETRY
       CHECK_SYMMETRY 6/mmm
      &END
    &END
    &TOPOLOGY
      CONNECTIVITY OFF
    &END
  &END SUBSYS
&END FORCE_EVAL
&GLOBAL
  PROJECT symmetry
  RUN_TYPE ENERGY
&END GLOBAL
