&FORCE_EVAL
  METHOD Quickstep
  &DFT
    &QS
      METHOD PM6
      &SE
      &END
    &END QS
    &SCF
      MAX_SCF 0
    &END SCF
  &END DFT
  &SUBSYS
    &CELL
#Ag_2 Se & P 2_1 2_1 2_1  D_2^4 #19 (a^3) & oP12 & Below 406K & Pearson's Handbo
      UNIT SCALED_ANGSTROM
     A   4.33300000  0.00000000  0.00000000
     B   0.00000000  7.06200000  0.00000000
     C   0.00000000  0.00000000  7.76400000
    &END CELL
    &COORD
Ag -0.14300000  0.11900000  0.45600000    -0.61961900  0.84037800  3.54038400
Ag  0.64300000 -0.11900000  0.95600000     2.78611900 -0.84037800  7.42238400
Ag  0.14300000  0.61900000  0.04400000     0.61961900  4.37137800  0.34161600
Ag  0.35700000  0.38100000 -0.45600000     1.54688100  2.69062200 -3.54038400
Au  0.47800000 -0.22100000  0.36100000     2.07117400 -1.56070200  2.80280400
Au  0.02200000  0.22100000  0.86100000     0.09532600  1.56070200  6.68480400
Au -0.47800000  0.27900000  0.13900000    -2.07117400  1.97029800  1.07919600
Au  0.97800000  0.72100000 -0.36100000     4.23767400  5.09170200 -2.80280400
Se  0.10800000 -0.01500000  0.14900000     0.46796400 -0.10593000  1.15683600
Se  0.39200000  0.01500000  0.64900000     1.69853600  0.10593000  5.03883600
Se -0.10800000  0.48500000  0.35100000    -0.46796400  3.42507000  2.72516400
Se  0.60800000  0.51500000 -0.14900000     2.63446400  3.63693000 -1.15683600
    &END COORD
    &PRINT
      &SYMMETRY
       CHECK_SYMMETRY 222
      &END
    &END
    &TOPOLOGY
      CONNECTIVITY OFF
    &END
  &END SUBSYS
&END FORCE_EVAL
&GLOBAL
  PROJECT symmetry
  RUN_TYPE ENERGY
&END GLOBAL
