&FORCE_EVAL
  METHOD Quickstep
  &DFT
    &QS
      METHOD PM6
      &SE
      &END
    &END QS
    &SCF
      MAX_SCF 0
    &END SCF
  &END DFT
  &SUBSYS
    &CELL
#BaS_3 & & P2_12_12 - D_{2}^3 #18 (abc^3) & oP16 & Pearsons Handbook II 1701
      UNIT SCALED_ANGSTROM
     A   8.32000000  0.00000000  0.00000000
     B   0.00000000  9.64000000  0.00000000
     C   0.00000000  0.00000000  4.82000000
    &END CELL
    &COORD
Ba  0.00000000  0.00000000  0.01000000     0.00000000  0.00000000  0.04820000
Ba  0.50000000  0.50000000 -0.01000000     4.16000000  4.82000000 -0.04820000
Ba  0.00000000  0.50000000  0.00500000     0.00000000  4.82000000  0.02410000
Ba  0.50000000  0.00000000 -0.00500000     4.16000000  0.00000000 -0.02410000
S   0.25000000  0.25000000  0.02000000     2.08000000  2.41000000  0.09640000
S  -0.25000000 -0.25000000  0.02000000    -2.08000000 -2.41000000  0.09640000
S   0.25000000  0.75000000 -0.02000000     2.08000000  7.23000000 -0.09640000
S   0.75000000  0.25000000 -0.02000000     6.24000000  2.41000000 -0.09640000
S   0.25000000  0.50010000  0.50100000     2.08000000  4.82096400  2.41482000
S  -0.25000000 -0.50010000  0.50100000    -2.08000000 -4.82096400  2.41482000
S   0.25000000  0.00010000 -0.50100000     2.08000000  0.00096400 -2.41482000
S   0.75000000 -0.00010000 -0.50100000     6.24000000 -0.00096400 -2.41482000
S   0.12400000  0.30200000  0.38200000     1.03168000  2.91128000  1.84124000
S  -0.12400000 -0.30200000  0.38200000    -1.03168000 -2.91128000  1.84124000
S   0.37600000 -0.19800000 -0.38200000     3.12832000 -1.90872000 -1.84124000
S   0.62400000  0.19800000 -0.38200000     5.19168000  1.90872000 -1.84124000
    &END COORD
    &PRINT
      &SYMMETRY
       CHECK_SYMMETRY 222
      &END
    &END
    &TOPOLOGY
      CONNECTIVITY OFF
    &END
  &END SUBSYS
&END FORCE_EVAL
&GLOBAL
  PROJECT symmetry
  RUN_TYPE ENERGY
&END GLOBAL
