&FORCE_EVAL
  METHOD Quickstep
  &DFT
    &QS
      METHOD PM6
      &SE
      &END
    &END QS
    &SCF
      MAX_SCF 0
    &END SCF
  &END DFT
  &SUBSYS
    &CELL
#alpha U & Cmcm-D_{2h}^{17} #63 & oC4 & A20 & Pearson, Alloys, p. 764
      UNIT SCALED_ANGSTROM
     A   1.42700000 -2.93500000  0.00000000
     B   1.42700000  2.93500000  0.00000000
     C   0.00000000  0.00000000  4.95500000
    &END CELL
    &COORD
#replace U by Cu
Cu  -0.10166283  0.10166283  0.25000000     0.00000000  0.59676081  1.23875000
Cu   0.10166283 -0.10166283 -0.25000000     0.00000000 -0.59676081 -1.23875000
    &END COORD
    &PRINT
      &SYMMETRY
       CHECK_SYMMETRY mmm
      &END
    &END
    &TOPOLOGY
      CONNECTIVITY OFF
    &END
  &END SUBSYS
&END FORCE_EVAL
&GLOBAL
  PROJECT symmetry
  RUN_TYPE ENERGY
&END GLOBAL
