&FORCE_EVAL
  METHOD Quickstep
  &DFT
    &QS
      METHOD PM6
      &SE
      &END
    &END QS
    &SCF
      MAX_SCF 0
    &END SCF
  &END DFT
  &SUBSYS
    &CELL
#KCNS & Pbcm-D_{2h}^{11} #57 & oP16 & F5_9 & Strukturbereicht III p. 80
      UNIT SCALED_ANGSTROM
     A   6.66000000  0.00000000  0.00000000
     B   0.00000000  6.63500000  0.00000000
     C   0.00000000  0.00000000  7.58000000
    &END CELL
    &COORD
K   0.21200000  0.25000000  0.00000000     1.41192000  1.65875000  0.00000000
K  -0.21200000  0.75000000  0.50000000    -1.41192000  4.97625000  3.79000000
K  -0.21200000  0.75000000  0.00000000    -1.41192000  4.97625000  0.00000000
K   0.21200000  0.25000000  0.50000000     1.41192000  1.65875000  3.79000000
C  -0.08000000  0.40000000  0.25000000    -0.53280000  2.65400000  1.89500000
C   0.08000000 -0.40000000  0.75000000     0.53280000 -2.65400000  5.68500000
C   0.08000000  0.90000000  0.25000000     0.53280000  5.97150000  1.89500000
C  -0.08000000  0.10000000  0.75000000    -0.53280000  0.66350000  5.68500000
N  -0.20500000  0.28000000  0.25000000    -1.36530000  1.85780000  1.89500000
N   0.20500000 -0.28000000  0.75000000     1.36530000 -1.85780000  5.68500000
N   0.20500000  0.78000000  0.25000000     1.36530000  5.17530000  1.89500000
N  -0.20500000  0.22000000  0.75000000    -1.36530000  1.45970000  5.68500000
S  -0.40000000  0.09500000  0.25000000    -2.66400000  0.63032500  1.89500000
S   0.40000000 -0.09500000  0.75000000     2.66400000 -0.63032500  5.68500000
S   0.40000000  0.59500000  0.25000000     2.66400000  3.94782500  1.89500000
S  -0.40000000  0.40500000  0.75000000    -2.66400000  2.68717500  5.68500000
    &END COORD
    &PRINT
      &SYMMETRY
       CHECK_SYMMETRY mmm
      &END
    &END
    &TOPOLOGY
      CONNECTIVITY OFF
    &END
  &END SUBSYS
&END FORCE_EVAL
&GLOBAL
  PROJECT symmetry
  RUN_TYPE ENERGY
&END GLOBAL
