&FORCE_EVAL
  METHOD Quickstep
  &DFT
    &QS
      METHOD PM6
      &SE
      &END
    &END QS
    &SCF
      MAX_SCF 0
    &END SCF
  &END DFT
  &SUBSYS
    &CELL
#SnS & Pnma-D_{2h}^{16} #62 & B29 & oP8 & Strukturbericht III, pp. 14-15
      UNIT SCALED_ANGSTROM
     A  11.18000000  0.00000000  0.00000000
     B   0.00000000  3.98000000  0.00000000
     C   0.00000000  0.00000000  4.33000000
    &END CELL
    &COORD
Sn  0.11800000  0.25000000  0.11500000     1.31924000  0.99500000  0.49795000
Sn  0.38200000  0.75000000  0.61500000     4.27076000  2.98500000  2.66295000
Sn -0.11800000  0.75000000 -0.11500000    -1.31924000  2.98500000 -0.49795000
Sn  0.61800000  0.25000000  0.38500000     6.90924000  0.99500000  1.66705000
S  -0.15000000  0.25000000  0.47800000    -1.67700000  0.99500000  2.06974000
S   0.65000000  0.75000000 -0.02200000     7.26700000  2.98500000 -0.09526000
S   0.15000000  0.75000000  0.52200000     1.67700000  2.98500000  2.26026000
S   0.35000000  0.25000000  0.02200000     3.91300000  0.99500000  0.09526000
    &END COORD
    &PRINT
      &SYMMETRY
       CHECK_SYMMETRY mmm
      &END
    &END
    &TOPOLOGY
      CONNECTIVITY OFF
    &END
  &END SUBSYS
&END FORCE_EVAL
&GLOBAL
  PROJECT symmetry
  RUN_TYPE ENERGY
&END GLOBAL
