&FORCE_EVAL
  METHOD Quickstep
  &DFT
    &QS
      METHOD PM6
      &SE
      &END
    &END QS
    &SCF
      MAX_SCF 0
    &END SCF
  &END DFT
  &SUBSYS
    &CELL
#alpha Ga & Cmca-D_{2h}^{18} #64 & oC8 & A11 & Villars and Calvert, Pearson's Handbook III, 3423
      UNIT SCALED_ANGSTROM
     A   2.25995000 -3.83015000   .00000000
     B   2.25995000  3.83015000   .00000000
     C    .00000000   .00000000  4.52590000
    &END CELL
    &COORD
Ga  -.15490000   .15490000   .08100000      .00000000  1.18658047   .36659790
Ga   .15490000  -.15490000  -.08100000      .00000000 -1.18658047  -.36659790
Ga  -.65490000   .65490000   .41900000      .00000000  5.01673047  1.89635210
Ga  -.34510000   .34510000   .58100000      .00000000  2.64356953  2.62954790
    &END COORD
    &PRINT
      &SYMMETRY
       CHECK_SYMMETRY mmm
      &END
    &END
    &TOPOLOGY
      CONNECTIVITY OFF
    &END
  &END SUBSYS
&END FORCE_EVAL
&GLOBAL
  PROJECT symmetry
  RUN_TYPE ENERGY
&END GLOBAL
