&FORCE_EVAL
  METHOD Quickstep
  &DFT
    &QS
      METHOD PM6
      &SE
      &END
    &END QS
    &SCF
      MAX_SCF 0
    &END SCF
  &END DFT
  &SUBSYS
    &CELL
#CNCl & Pmmn-D_{2h}^{13} #59 & oP6 & Wyckoff, Vol. I, p. 173
      UNIT SCALED_ANGSTROM
     A   5.68400000  0.00000000  0.00000000
     B   0.00000000  3.97700000  0.00000000
     C   0.00000000  0.00000000  5.74000000
    &END CELL
    &COORD
C   0.25000000  0.25000000  0.42390000     1.42100000  0.99425000  2.43318600
C  -0.25000000 -0.25000000 -0.42390000    -1.42100000 -0.99425000 -2.43318600
N   0.25000000  0.25000000  0.62580000     1.42100000  0.99425000  3.59209200
N  -0.25000000 -0.25000000 -0.62580000    -1.42100000 -0.99425000 -3.59209200
Cl  0.25000000  0.25000000  0.14990000     1.42100000  0.99425000  0.86042600
Cl -0.25000000 -0.25000000 -0.14990000    -1.42100000 -0.99425000 -0.86042600
    &END COORD
    &PRINT
      &SYMMETRY
       CHECK_SYMMETRY mmm
      &END
    &END
    &TOPOLOGY
      CONNECTIVITY OFF
    &END
  &END SUBSYS
&END FORCE_EVAL
&GLOBAL
  PROJECT symmetry
  RUN_TYPE ENERGY
&END GLOBAL
