&FORCE_EVAL
  METHOD Quickstep
  &DFT
    &QS
      METHOD PM6
      &SE
      &END
    &END QS
    &SCF
      MAX_SCF 0
    &END SCF
  &END DFT
  &SUBSYS
    &CELL
#Mg B_2 C_2 & Cmca D_{2h}^{18} #64 & oC80 & Worle&Nesper, J. Alloy&Compounds 216
     A   5.46100000 -4.73050000  0.00000000
     B   5.46100000  4.73050000  0.00000000
     C   0.00000000  0.00000000  7.45900000
    &END CELL
    &COORD
 SCALED
Mg  0.15343000  0.15343000  0.00000000     1.67576250  0.00000000  0.00000000
Mg -0.15343000 -0.15343000  0.00000000    -1.67576250  0.00000000  0.00000000
Mg -0.65343000  0.34657000  0.50000000    -1.67576250  4.73050000  3.72950000
Mg -0.34657000  0.65343000  0.50000000     1.67576250  4.73050000  3.72950000
Mg -0.27981000  0.27981000 -0.01130000     0.00000000  2.64728240 -0.08428670
Mg -0.22019000  0.22019000  0.48870000     0.00000000  2.08321760  3.64521330
Mg -0.77981000  0.77981000  0.51130000     0.00000000  7.37778240  3.81378670
Mg  0.27981000 -0.27981000  0.01130000     0.00000000 -2.64728240  0.08428670
B   0.15540000  0.34460000  0.25000000     2.73050000  0.89501060  1.86475000
B   0.34460000  1.15540000  0.75000000     8.19150000  3.83548940  5.59425000
B   0.84460000  0.65540000  0.75000000     8.19150000 -0.89501060  5.59425000
B  -0.34460000  0.84460000  0.25000000     2.73050000  5.62551060  1.86475000
B  -0.58860000  0.58860000  0.27600000     0.00000000  5.56874460  2.05868400
B   0.08860000 -0.08860000  0.77600000     0.00000000 -0.83824460  5.78818400
B  -1.08860000  1.08860000  0.22400000     0.00000000 10.29924460  1.67081600
B   0.58860000 -0.58860000 -0.27600000     0.00000000 -5.56874460 -2.05868400
B  -0.21370000  0.46930000  0.24380000     1.39583160  3.23093150  1.81850420
B  -0.28630000  0.03070000  0.74380000    -1.39583160  1.49956850  5.54800420
B  -0.96930000  0.71370000  0.25620000    -1.39583160  7.96143150  1.91099580
B   0.46930000 -0.21370000 -0.24380000     1.39583160 -3.23093150 -1.81850420
B   0.21370000 -0.46930000 -0.24380000    -1.39583160 -3.23093150 -1.81850420
B   0.28630000 -0.03070000 -0.74380000     1.39583160 -1.49956850 -5.54800420
B   0.96930000 -0.71370000 -0.25620000     1.39583160 -7.96143150 -1.91099580
B  -0.46930000  0.21370000  0.24380000    -1.39583160  3.23093150  1.81850420
C  -0.67710000  1.17710000  0.25000000     2.73050000  8.77129310  1.86475000
C   1.17710000  0.32290000  0.75000000     8.19150000 -4.04079310  5.59425000
C   1.67710000 -0.17710000  0.75000000     8.19150000 -8.77129310  5.59425000
C  -1.17710000  1.67710000  0.25000000     2.73050000 13.50179310  1.86475000
C   0.07920000 -0.07920000  0.23140000     0.00000000 -0.74931120  1.72601260
C  -0.57920000  0.57920000  0.73140000     0.00000000  5.47981120  5.45551260
C  -0.42080000  0.42080000  0.26860000     0.00000000  3.98118880  2.00348740
C  -0.07920000  0.07920000 -0.23140000     0.00000000  0.74931120 -1.72601260
C  -0.05050000  0.29950000  0.22310000     1.35978900  1.65567500  1.66410290
C  -0.44950000  0.20050000  0.72310000    -1.35978900  3.07482500  5.39360290
C  -0.79950000  0.55050000  0.27690000    -1.35978900  6.38617500  2.06539710
C   0.29950000 -0.05050000 -0.22310000     1.35978900 -1.65567500 -1.66410290
C   0.05050000 -0.29950000 -0.22310000    -1.35978900 -1.65567500 -1.66410290
C   0.44950000 -0.20050000 -0.72310000     1.35978900 -3.07482500 -5.39360290
C   0.79950000 -0.55050000 -0.27690000     1.35978900 -6.38617500 -2.06539710
C  -0.29950000  0.05050000  0.22310000    -1.35978900  1.65567500  1.66410290
    &END COORD
    &PRINT
      &SYMMETRY
       CHECK_SYMMETRY mmm
      &END
    &END
    &TOPOLOGY
      CONNECTIVITY OFF
    &END
  &END SUBSYS
&END FORCE_EVAL
&GLOBAL
  PROJECT symmetry
  RUN_TYPE ENERGY
&END GLOBAL
