&FORCE_EVAL
  METHOD Quickstep
  &DFT
    &QS
      METHOD PM6
      &SE
      &END
    &END QS
    &SCF
      MAX_SCF 0
    &END SCF
  &END DFT
  &SUBSYS
    &CELL
#Mo Pt_2 & Immm & D_{2h}^{25} & #71 & oI6 & Pearson's Handbook
     A   2.76500000  0.00000000  0.00000000
     B   0.00000000  8.29600000  0.00000000
     C   1.38250000  4.14800000  1.96900000
    &END CELL
    &COORD
 SCALED
Mo  0.00000000  0.00000000  0.00000000     0.00000000  0.00000000  0.00000000
Pt  0.00000000  0.35300000  0.00000000     0.00000000  2.92848800  0.00000000
Pt  0.00000000 -0.35300000  0.00000000     0.00000000 -2.92848800  0.00000000
    &END COORD
    &PRINT
      &SYMMETRY
       CHECK_SYMMETRY mmm
      &END
    &END
    &TOPOLOGY
      CONNECTIVITY OFF
    &END
  &END SUBSYS
&END FORCE_EVAL
&GLOBAL
  PROJECT symmetry
  RUN_TYPE ENERGY
&END GLOBAL
