&FORCE_EVAL
  METHOD Quickstep
  &DFT
    &QS
      METHOD PM6
      &SE
      &END
    &END QS
    &SCF
      MAX_SCF 0
    &END SCF
  &END DFT
  &SUBSYS
    &CELL
#Fe_3 C (cementite) & Pnma (#62) & oP16 & D0_11
     A   5.09000000   .00000000   .00000000
     B    .00000000  6.74800000   .00000000
     C    .00000000   .00000000  4.52300000
    &END CELL
    &COORD
 SCALED
C    .89000000   .25000000   .45000000     4.53010000  1.68700000  2.03535000
C   -.89000000   .75000000  -.45000000    -4.53010000  5.06100000 -2.03535000
C   -.39000000   .75000000   .95000000    -1.98510000  5.06100000  4.29685000
C    .39000000   .25000000   .05000000     1.98510000  1.68700000   .22615000
Fe   .03600000   .25000000   .85200000      .18324000  1.68700000  3.85359600
Fe  -.03600000   .75000000  -.85200000     -.18324000  5.06100000 -3.85359600
Fe   .46400000   .75000000   .35200000     2.36176000  5.06100000  1.59209600
Fe   .53600000   .25000000  -.35200000     2.72824000  1.68700000 -1.59209600
Fe   .18600000   .06300000   .32800000      .94674000   .42512400  1.48354400
Fe  -.18600000  -.06300000  -.32800000     -.94674000  -.42512400 -1.48354400
Fe   .68600000   .43700000   .17200000     3.49174000  2.94887600   .77795600
Fe  -.68600000  -.43700000  -.17200000    -3.49174000 -2.94887600  -.77795600
Fe  -.18600000   .56300000  -.32800000     -.94674000  3.79912400 -1.48354400
Fe   .18600000  -.56300000   .32800000      .94674000 -3.79912400  1.48354400
Fe   .31400000  -.06300000   .82800000     1.59826000  -.42512400  3.74504400
Fe  -.31400000   .06300000  -.82800000    -1.59826000   .42512400 -3.74504400
    &END COORD
    &PRINT
      &SYMMETRY
       CHECK_SYMMETRY mmm
      &END
    &END
    &TOPOLOGY
      CONNECTIVITY OFF
    &END
  &END SUBSYS
&END FORCE_EVAL
&GLOBAL
  PROJECT symmetry
  RUN_TYPE ENERGY
&END GLOBAL
