&FORCE_EVAL
  METHOD Quickstep
  &DFT
    &QS
      METHOD PM6
      &SE
      &END
    &END QS
    &SCF
      MAX_SCF 0
    &END SCF
  &END DFT
  &SUBSYS
    &CELL
#Cu_3 Sb for Cu_3 Ti & Pmmn-D_{2h}^{13} #59 & oP8 & D0_a & Pearon's Handbook V.
      UNIT SCALED_ANGSTROM
     A   5.50400000  0.00000000  0.00000000
     B   0.00000000  4.35300000  0.00000000
     C   0.00000000  0.00000000  4.76800000
    &END CELL
    &COORD
Sb  0.00000000  0.00000000 -0.33000000     0.00000000  0.00000000 -1.57344000
Sb  0.50000000  0.50000000  0.33000000     2.75200000  2.17650000  1.57344000
Cu  0.00000000  0.50000000  0.32000000     0.00000000  2.17650000  1.52576000
Cu  0.50000000  0.00000000 -0.32000000     2.75200000  0.00000000 -1.52576000
Cu  0.25000000  0.00000000  0.16300000     1.37600000  0.00000000  0.77718400
Cu -0.25000000  0.00000000  0.16300000    -1.37600000  0.00000000  0.77718400
Cu  0.25000000  0.50000000 -0.16300000     1.37600000  2.17650000 -0.77718400
Cu  0.75000000  0.50000000 -0.16300000     4.12800000  2.17650000 -0.77718400
    &END COORD
    &PRINT
      &SYMMETRY
       CHECK_SYMMETRY mmm
      &END
    &END
    &TOPOLOGY
      CONNECTIVITY OFF
    &END
  &END SUBSYS
&END FORCE_EVAL
&GLOBAL
  PROJECT symmetry
  RUN_TYPE ENERGY
&END GLOBAL
