&FORCE_EVAL
  METHOD Quickstep
  &DFT
    &QS
      METHOD PM6
      &SE
      &END
    &END QS
    &SCF
      MAX_SCF 0
    &END SCF
  &END DFT
  &SUBSYS
    &CELL
#LaMnO_3 & Pnma-D_{2h}^{16} #62 & oP20 & P. Norby et al.  Solid State Chem. 119, 191 (1995)
     A   5.69910000  0.00000000  0.00000000
     B   0.00000000  7.71750000  0.00000000
     C   0.00000000  0.00000000  5.53920000
    &END CELL
    &COORD
 SCALED
Mn  0.00000000  0.00000000  0.00000000     0.00000000  0.00000000  0.00000000
Mn  0.50000000  0.00000000  0.50000000     2.84955000  0.00000000  2.76960000
Mn  0.00000000  0.50000000  0.00000000     0.00000000  3.85875000  0.00000000
Mn  0.50000000  0.50000000  0.50000000     2.84955000  3.85875000  2.76960000
La  0.54349985  0.25000065  0.00636915     3.09746000  1.92938000  0.03528000
La -0.04349985  0.74999935  0.50636915    -0.24791000  5.78812000  2.80488000
La -0.54349985  0.74999935 -0.00636915    -3.09746000  5.78812000 -0.03528000
La  1.04349985  0.25000065  0.49363085     5.94701000  1.92938000  2.73432000
O  -0.01069994  0.25000065 -0.07329939    -0.06098000  1.92938000 -0.40602000
O   0.51069994  0.74999935  0.42670061     2.91053000  5.78812000  2.36358000
O   0.01069994  0.74999935  0.07329939     0.06098000  5.78812000  0.40602000
O   0.48930006  0.25000065  0.57329939     2.78857000  1.92938000  3.17562000
O   0.30140022  0.03849951  0.22570046     1.71771000  0.29712000  1.25020000
O   0.19859978 -0.03849951  0.72570046     1.13184000 -0.29712000  4.01980000
O  -0.30140022  0.53849951 -0.22570046    -1.71771000  4.15587000 -1.25020000
O   0.80140022  0.46150049  0.27429954     4.56726000  3.56163000  1.51940000
O  -0.30140022 -0.03849951 -0.22570046    -1.71771000 -0.29712000 -1.25020000
O   0.80140022  0.03849951  0.27429954     4.56726000  0.29712000  1.51940000
O   0.30140022  0.46150049  0.22570046     1.71771000  3.56163000  1.25020000
O   0.19859978  0.53849951  0.72570046     1.13184000  4.15587000  4.01980000
    &END COORD
    &PRINT
      &SYMMETRY
       CHECK_SYMMETRY mmm
      &END
    &END
    &TOPOLOGY
      CONNECTIVITY OFF
    &END
  &END SUBSYS
&END FORCE_EVAL
&GLOBAL
  PROJECT symmetry
  RUN_TYPE ENERGY
&END GLOBAL
