&FORCE_EVAL
  METHOD Quickstep
  &DFT
    &QS
      METHOD PM6
      &SE
      &END
    &END QS
    &SCF
      MAX_SCF 0
    &END SCF
  &END DFT
  &SUBSYS
    &CELL
#CuTe & Pmmn & D^{13}_{2h} & #59 & oP4
     A   3.10000000   .00000000   .00000000
     B    .00000000  4.02000000   .00000000
     C    .00000000   .00000000  6.86000000
    &END CELL
    &COORD
 SCALED
Te   .00000000   .00000000   .22300000      .00000000   .00000000  1.52978000
Te   .50000000   .50000000  -.22300000     1.55000000  2.01000000 -1.52978000
Cu   .00000000   .50000000   .44900000      .00000000  2.01000000  3.08014000
Cu   .50000000   .00000000  -.44900000     1.55000000   .00000000 -3.08014000
    &END COORD
    &PRINT
      &SYMMETRY
       CHECK_SYMMETRY mmm
      &END
    &END
    &TOPOLOGY
      CONNECTIVITY OFF
    &END
  &END SUBSYS
&END FORCE_EVAL
&GLOBAL
  PROJECT symmetry
  RUN_TYPE ENERGY
&END GLOBAL
