&FORCE_EVAL
  METHOD Quickstep
  &DFT
    &QS
      METHOD PM6
      &SE
      &END
    &END QS
    &SCF
      MAX_SCF 0
    &END SCF
  &END DFT
  &SUBSYS
    &CELL
#Pb Cl_2 & Pnma & D_{2h}^{16} & #62 & C23 & oP12 & Struk V.II 16
     A   7.60000000  0.00000000  0.00000000
     B   0.00000000  4.52000000  0.00000000
     C   0.00000000  0.00000000  9.03000000
    &END CELL
    &COORD
 SCALED
Pb -0.24600000  0.25000000 -0.09500000    -1.86960000  1.13000000 -0.85785000
Pb  0.74600000  0.75000000 -0.59500000     5.66960000  3.39000000 -5.37285000
Pb  0.24600000  0.75000000  0.09500000     1.86960000  3.39000000  0.85785000
Pb -0.74600000  0.25000000  0.59500000    -5.66960000  1.13000000  5.37285000
Cl  0.15000000  0.25000000 -0.07000000     1.14000000  1.13000000 -0.63210000
Cl  0.35000000  0.75000000 -0.57000000     2.66000000  3.39000000 -5.14710000
Cl -0.15000000  0.75000000  0.07000000    -1.14000000  3.39000000  0.63210000
Cl -0.35000000  0.25000000  0.57000000    -2.66000000  1.13000000  5.14710000
Cl  0.05000000  0.25000000  0.33000000     0.38000000  1.13000000  2.97990000
Cl  0.45000000  0.75000000 -0.17000000     3.42000000  3.39000000 -1.53510000
Cl -0.05000000  0.75000000 -0.33000000    -0.38000000  3.39000000 -2.97990000
Cl -0.45000000  0.25000000  0.17000000    -3.42000000  1.13000000  1.53510000
    &END COORD
    &PRINT
      &SYMMETRY
       CHECK_SYMMETRY mmm
      &END
    &END
    &TOPOLOGY
      CONNECTIVITY OFF
    &END
  &END SUBSYS
&END FORCE_EVAL
&GLOBAL
  PROJECT symmetry
  RUN_TYPE ENERGY
&END GLOBAL
