&FORCE_EVAL
  METHOD Quickstep
  &DFT
    &QS
      METHOD PM6
      &SE
      &END
    &END QS
    &SCF
      MAX_SCF 0
    &END SCF
  &END DFT
  &SUBSYS
    &CELL
#S Si_2 & Ibam & D^{26}_{2h} & #72 & C42 & oI12
     A  -4.77250000  2.78200000  2.77600000
     B   4.77250000 -2.78200000  2.77600000
     C   4.77250000  2.78200000 -2.77600000
    &END CELL
    &COORD
 SCALED
Si   .25000000   .25000000   .00000000      .00000000   .00000000  1.38800000
Si  -.25000000  -.25000000   .00000000      .00000000   .00000000 -1.38800000
S    .20879996   .11820000   .32699996     1.12821900  1.16176300   .00000000
S   -.20879996  -.11820000  -.32699996    -1.12821900 -1.16176300   .00000000
S    .70879996   .38180000   .09059996    -1.12821900  1.16176300  2.77600000
S    .29120004   .61820000  -.09059996     1.12821900 -1.16176300  2.77600000
    &END COORD
    &PRINT
      &SYMMETRY
       CHECK_SYMMETRY mmm
      &END
    &END
    &TOPOLOGY
      CONNECTIVITY OFF
    &END
  &END SUBSYS
&END FORCE_EVAL
&GLOBAL
  PROJECT symmetry
  RUN_TYPE ENERGY
&END GLOBAL
