&FORCE_EVAL
  METHOD Quickstep
  &DFT
    &QS
      METHOD PM6
      &SE
      &END
    &END QS
    &SCF
      MAX_SCF 0
    &END SCF
  &END DFT
  &SUBSYS
    &CELL
#alpha-Np & Pnma & #62 & oP8 & A_c & Donohue, p. 151
      UNIT SCALED_ANGSTROM
     A   6.66300000   .00000000   .00000000
     B    .00000000  4.72300000   .00000000
     C    .00000000   .00000000  4.88700000
    &END CELL
    &COORD
#replace Np by Mn and U be Fe
Mn   .03600000   .25000000   .20800000      .23986800  1.18075000  1.01649600
Mn   .46400000   .75000000  -.29200000     3.09163200  3.54225000 -1.42700400
Mn  -.03600000   .75000000  -.20800000     -.23986800  3.54225000 -1.01649600
Mn   .53600000   .25000000   .29200000     3.57136800  1.18075000  1.42700400
Fe   .31900000   .25000000   .84200000     2.12549700  1.18075000  4.11485400
Fe   .18100000   .75000000   .34200000     1.20600300  3.54225000  1.67135400
Fe  -.31900000   .75000000  -.84200000    -2.12549700  3.54225000 -4.11485400
Fe   .81900000   .25000000  -.34200000     5.45699700  1.18075000 -1.67135400
    &END COORD
    &PRINT
      &SYMMETRY
       CHECK_SYMMETRY mmm
      &END
    &END
    &TOPOLOGY
      CONNECTIVITY OFF
    &END
  &END SUBSYS
&END FORCE_EVAL
&GLOBAL
  PROJECT symmetry
  RUN_TYPE ENERGY
&END GLOBAL
