&FORCE_EVAL
  METHOD Quickstep
  &DFT
    &QS
      METHOD PM6
      &SE
      &END
    &END QS
    &SCF
      MAX_SCF 0
    &END SCF
  &END DFT
  &SUBSYS
    &CELL
#CdPt_3 & Cmmm-D_{2h}^{19} #65 (abf) & L1_3 & oC8 & Stefano Curtarolo, Dane Morgan, Gerbrand Ceder, Computer Coupling of Phase Diagrams and Thermochemistry 29, 163-211 (2005)
     A  2.61629509 -3.70000000  0.00000000
     B  2.61629509  3.70000000  0.00000000
     C  0.00000000  0.00000000  2.61629509
    &END CELL
    &COORD
 SCALED
Cd  0.00000000  0.00000000  0.00000000     0.00000000  0.00000000  0.00000000
Pt  0.50000000  0.50000000  0.00000000     2.61629509  0.00000000  0.00000000
Pt  0.00000000  0.50000000  0.50000000     1.30814754  1.85000000  1.30814754
Pt  0.50000000  0.00000000  0.50000000     1.30814754 -1.85000000  1.30814754
    &END COORD
    &PRINT
      &SYMMETRY
       CHECK_SYMMETRY mmm
      &END
    &END
    &TOPOLOGY
      CONNECTIVITY OFF
    &END
  &END SUBSYS
&END FORCE_EVAL
&GLOBAL
  PROJECT symmetry
  RUN_TYPE ENERGY
&END GLOBAL
