&FORCE_EVAL
  METHOD Quickstep
  &DFT
    &QS
      METHOD PM6
      &SE
      &END
    &END QS
    &SCF
      MAX_SCF 0
    &END SCF
  &END DFT
  &SUBSYS
    &CELL
#Pt Sn_4 & Aba2 & C_{2v}^{17} & #41 & oC20 & D1_c (Pt Sn_4) & Pearson's Handbook Vol. IV
     A   6.38000000  0.00000000  0.00000000
     B   0.00000000  3.20950000 -5.67850000
     C   0.00000000  3.20950000  5.67850000
    &END CELL
    &COORD
 SCALED
Pt  0.00000000  0.00000000  0.00000000     0.00000000  0.00000000  0.00000000
Pt  0.50000000  0.50000000  0.50000000     3.19000000  3.20950000  0.00000000
Sn  0.17300000  0.20200000  0.45200000     1.10374000  2.09901300  1.41962500
Sn -0.17300000 -0.45200000 -0.20200000    -1.10374000 -2.09901300  1.41962500
Sn -0.32700000  0.04800000  0.29800000    -2.08626000  1.11048700  1.41962500
Sn  0.32700000 -0.29800000  0.95200000     2.08626000  2.09901300  7.09812500
Sn  0.32700000  0.29800000  0.04800000     2.08626000  1.11048700 -1.41962500
Sn -0.32700000 -0.04800000 -0.29800000    -2.08626000 -1.11048700 -1.41962500
Sn -0.17300000  0.45200000  0.20200000    -1.10374000  2.09901300 -1.41962500
Sn  0.17300000 -0.20200000 -0.45200000     1.10374000 -2.09901300 -1.41962500
    &END COORD
    &PRINT
      &SYMMETRY
       CHECK_SYMMETRY mmm
      &END
    &END
    &TOPOLOGY
      CONNECTIVITY OFF
    &END
  &END SUBSYS
&END FORCE_EVAL
&GLOBAL
  PROJECT symmetry
  RUN_TYPE ENERGY
&END GLOBAL
