&FORCE_EVAL
  METHOD Quickstep
  &DFT
    LSD
    &QS
      METHOD PM6
      &SE
      &END
    &END QS
    &SCF
      MAX_SCF 0
    &END SCF
  &END DFT
  &SUBSYS
    &CELL
#Re Si_2 & Immm & D_{2h}^{25} & #71 & oI6 & Pearson's Handbook
     A   3.12800000  0.00000000  0.00000000
     B   0.00000000  3.14400000  0.00000000
     C   1.56400000  1.57200000  3.83850000
    &END CELL
    &COORD
 SCALED
Re  0.00000000  0.00000000  0.00000000     0.00000000  0.00000000  0.00000000
Si -0.33900000 -0.33900000  0.67800000     0.00000000  0.00000000  2.60250300
Si  0.33900000  0.33900000 -0.67800000     0.00000000  0.00000000 -2.60250300
    &END COORD
    &PRINT
      &SYMMETRY
       CHECK_SYMMETRY mmm
      &END
    &END
    &TOPOLOGY
      CONNECTIVITY OFF
    &END
  &END SUBSYS
&END FORCE_EVAL
&GLOBAL
  PROJECT symmetry
  RUN_TYPE ENERGY
&END GLOBAL
