&FORCE_EVAL
  METHOD Quickstep
  &DFT
    &QS
      METHOD PM6
      &SE
      &END
    &END QS
    &SCF
      MAX_SCF 0
    &END SCF
  &END DFT
  &SUBSYS
    &CELL
#Pnma             #62 & oP8 & GeS & B16
     A  10.48100000   .00000000   .00000000
     B    .00000000  3.46400000   .00000000
     C    .00000000   .00000000  4.29900000
    &END CELL
    &COORD
 SCALED
Ge   .12210000   .25000000   .12770000     1.27973010   .86600000   .54898230
Ge  -.12210000   .75000000  -.12770000    -1.27973010  2.59800000  -.54898230
Ge   .37790000   .75000000   .62770000     3.96076990  2.59800000  2.69848230
Ge   .62210000   .25000000   .37230000     6.52023010   .86600000  1.60051770
S    .84950000   .25000000   .50230000     8.90360950   .86600000  2.15938770
S   -.84950000   .75000000  -.50230000    -8.90360950  2.59800000 -2.15938770
S   -.34950000   .75000000   .00230000    -3.66310950  2.59800000   .00988770
S    .34950000   .25000000  -.00230000     3.66310950   .86600000  -.00988770
    &END COORD
    &PRINT
      &SYMMETRY
       CHECK_SYMMETRY mmm
      &END
    &END
    &TOPOLOGY
      CONNECTIVITY OFF
    &END
  &END SUBSYS
&END FORCE_EVAL
&GLOBAL
  PROJECT symmetry
  RUN_TYPE ENERGY
&END GLOBAL
