&FORCE_EVAL
  METHOD Quickstep
  &DFT
    &QS
      METHOD PM6
      &SE
      &END
    &END QS
    &SCF
      MAX_SCF 0
    &END SCF
  &END DFT
  &SUBSYS
    &CELL
#alpha-S & Fddd-D_{2h}^{24} #70 & oF128 & A16 & Villars and Calvert, Pearson's Handbook IV, 5117
      UNIT SCALED_ANGSTROM
     A   0.00000000  6.42250000 12.18450000
     B   5.21850000  0.00000000 12.18450000
     C   5.21850000  6.42250000  0.00000000
    &END CELL
    &COORD
S   1.04880000  0.85440000  0.85640000     8.92780980 12.23614700 23.18954040
S  -1.04880000 -0.85440000 -0.85640000    -8.92780980-12.23614700-23.18954040
S  -2.25960000  0.85640000  0.85440000     8.92780980 -9.02489700-17.09729040
S   3.25960000 -0.85640000 -0.85440000    -8.92780980 15.44739700 29.28179040
S   0.85640000 -2.25960000  1.04880000    -6.31855980 12.23614700-17.09729040
S  -0.85640000  3.25960000 -1.04880000    11.53705980-12.23614700 29.28179040
S   0.85440000  1.04880000 -2.25960000    -6.31855980 -9.02489700 23.18954040
S  -0.85440000 -1.04880000  3.25960000    11.53705980 15.44739700-23.18954040
S  -0.67800000  0.83060000  0.73820000     8.18678280  0.38663450  1.85935470
S   0.67800000 -0.83060000 -0.73820000    -8.18678280 -0.38663450 -1.85935470
S  -0.39080000  0.73820000  0.83060000     8.18678280  2.82461550  4.23289530
S   1.39080000 -0.73820000 -0.83060000    -8.18678280  3.59788450  7.95160470
S   0.73820000 -0.39080000 -0.67800000    -5.57753280  0.38663450  4.23289530
S  -0.73820000  1.39080000  0.67800000    10.79603280 -0.38663450  7.95160470
S   0.83060000 -0.67800000 -0.39080000    -5.57753280  2.82461550  1.85935470
S  -0.83060000  0.67800000  1.39080000    10.79603280  3.59788450 -1.85935470
S   0.27660000 -0.26860000  1.68240000     7.37791530 12.58167750  0.09747600
S  -0.27660000  0.26860000 -1.68240000    -7.37791530-12.58167750 -0.09747600
S  -1.19040000  1.68240000 -0.26860000     7.37791530 -9.37042750  5.99477400
S   2.19040000 -1.68240000  0.26860000    -7.37791530 15.79292750  6.18972600
S   1.68240000 -1.19040000  0.27660000    -4.76866530 12.58167750  5.99477400
S  -1.68240000  2.19040000 -0.27660000     9.98716530-12.58167750  6.18972600
S  -0.26860000  0.27660000 -1.19040000    -4.76866530 -9.37042750  0.09747600
S   0.26860000 -0.27660000  2.19040000     9.98716530 15.79292750 -0.09747600
S   0.25010000  0.00790000  1.56450000     8.20556940 11.65426850  3.14360100
S  -0.25010000 -0.00790000 -1.56450000    -8.20556940-11.65426850 -3.14360100
S  -1.32250000  1.56450000  0.00790000     8.20556940 -8.44301850  2.94864900
S   2.32250000 -1.56450000 -0.00790000    -8.20556940 14.86551850  9.23585100
S   1.56450000 -1.32250000  0.25010000    -5.59631940 11.65426850  2.94864900
S  -1.56450000  2.32250000 -0.25010000    10.81481940-11.65426850  9.23585100
S   0.00790000  0.25010000 -1.32250000    -5.59631940 -8.44301850  3.14360100
S  -0.00790000 -0.25010000  2.32250000    10.81481940 14.86551850 -3.14360100
    &END COORD
    &PRINT
      &SYMMETRY
       CHECK_SYMMETRY mmm
      &END
    &END
    &TOPOLOGY
      CONNECTIVITY OFF
    &END
  &END SUBSYS
&END FORCE_EVAL
&GLOBAL
  PROJECT symmetry
  RUN_TYPE ENERGY
&END GLOBAL
