&FORCE_EVAL
  METHOD Quickstep
  &DFT
    &QS
      METHOD PM6
      &SE
      &END
    &END QS
    &SCF
      MAX_SCF 0
    &END SCF
  &END DFT
  &SUBSYS
    &CELL
#MgB4 & Pnma-D_{2h}^{16} #62 & oP20 & Villars and Calvert, Pearson's Handbook II, 1555
     A   5.46400000   .00000000   .00000000
     B    .00000000  4.42800000   .00000000
     C    .00000000   .00000000  7.47200000
    &END CELL
    &COORD
 SCALED
B    .72500000   .25000000   .34300000     3.96140000  1.10700000  2.56289600
B   -.22500000   .75000000   .84300000    -1.22940000  3.32100000  6.29889600
B   -.72500000   .75000000  -.34300000    -3.96140000  3.32100000 -2.56289600
B   1.22500000   .25000000   .15700000     6.69340000  1.10700000  1.17310400
B    .55900000   .25000000   .14600000     3.05437600  1.10700000  1.09091200
B   -.05900000   .75000000   .64600000     -.32237600  3.32100000  4.82691200
B   -.55900000   .75000000  -.14600000    -3.05437600  3.32100000 -1.09091200
B   1.05900000   .25000000   .35400000     5.78637600  1.10700000  2.64508800
Mg   .05100000   .25000000   .86400000      .27866400  1.10700000  6.45580800
Mg   .44900000   .75000000  1.36400000     2.45333600  3.32100000 10.19180800
Mg  -.05100000   .75000000  -.86400000     -.27866400  3.32100000 -6.45580800
Mg   .55100000   .25000000  -.36400000     3.01066400  1.10700000 -2.71980800
B    .13000000   .44200000   .56600000      .71032000  1.95717600  4.22915200
B    .37000000  -.44200000  1.06600000     2.02168000 -1.95717600  7.96515200
B   -.13000000   .94200000  -.56600000     -.71032000  4.17117600 -4.22915200
B    .63000000   .05800000  -.06600000     3.44232000   .25682400  -.49315200
B   -.13000000  -.44200000  -.56600000     -.71032000 -1.95717600 -4.22915200
B    .63000000   .44200000  -.06600000     3.44232000  1.95717600  -.49315200
B    .13000000   .05800000   .56600000      .71032000   .25682400  4.22915200
B    .37000000   .94200000  1.06600000     2.02168000  4.17117600  7.96515200
    &END COORD
    &PRINT
      &SYMMETRY
       CHECK_SYMMETRY mmm
      &END
    &END
    &TOPOLOGY
      CONNECTIVITY OFF
    &END
  &END SUBSYS
&END FORCE_EVAL
&GLOBAL
  PROJECT symmetry
  RUN_TYPE ENERGY
&END GLOBAL
