&FORCE_EVAL
  METHOD Quickstep
  &DFT
    &QS
      METHOD PM6
      &SE
      &END
    &END QS
    &SCF
      MAX_SCF 0
    &END SCF
  &END DFT
  &SUBSYS
    &CELL
#Sb_2 O_3 & Pccn-D_{2h}^{10} #56 & oP20 & Villars and Calvert, Pearson's Handbook v. IV, p 4758
      UNIT SCALED_ANGSTROM
     A   4.91100000  0.00000000  0.00000000
     B   0.00000000 12.46400000  0.00000000
     C   0.00000000  0.00000000  5.41200000
    &END CELL
    &COORD
O   0.25000000  0.25000000  0.02290000     1.22775000  3.11600000  0.12393480
O   0.75000000  0.75000000  0.47710000     3.68325000  9.34800000  2.58206520
O   0.75000000  0.75000000 -0.02290000     3.68325000  9.34800000 -0.12393480
O   0.25000000  0.25000000  0.52290000     1.22775000  3.11600000  2.82993480
O   0.15200000  0.05910000  0.85540000     0.74647200  0.73662240  4.62942480
O   0.34800000  0.44090000  0.85540000     1.70902800  5.49537760  4.62942480
O  -0.15200000  0.55910000 -0.35540000    -0.74647200  6.96862240 -1.92342480
O   0.65200000 -0.05910000 -0.35540000     3.20197200 -0.73662240 -1.92342480
O  -0.15200000 -0.05910000 -0.85540000    -0.74647200 -0.73662240 -4.62942480
O   0.65200000  0.55910000 -0.85540000     3.20197200  6.96862240 -4.62942480
O   0.15200000  0.44090000  0.35540000     0.74647200  5.49537760  1.92342480
O   0.34800000  0.05910000  0.35540000     1.70902800  0.73662240  1.92342480
Sb  0.04149000  0.12745000  0.17845000     0.20375739  1.58853680  0.96577140
Sb  0.45851000  0.37255000  0.17845000     2.25174261  4.64346320  0.96577140
Sb -0.04149000  0.62745000  0.32155000    -0.20375739  7.82053680  1.74022860
Sb  0.54149000 -0.12745000  0.32155000     2.65925739 -1.58853680  1.74022860
Sb -0.04149000 -0.12745000 -0.17845000    -0.20375739 -1.58853680 -0.96577140
Sb  0.54149000  0.62745000 -0.17845000     2.65925739  7.82053680 -0.96577140
Sb  0.04149000  0.37255000 -0.32155000     0.20375739  4.64346320 -1.74022860
Sb  0.45851000  0.12745000 -0.32155000     2.25174261  1.58853680 -1.74022860
    &END COORD
    &PRINT
      &SYMMETRY
       CHECK_SYMMETRY mmm
      &END
    &END
    &TOPOLOGY
      CONNECTIVITY OFF
    &END
  &END SUBSYS
&END FORCE_EVAL
&GLOBAL
  PROJECT symmetry
  RUN_TYPE ENERGY
&END GLOBAL
