&FORCE_EVAL
  METHOD Quickstep
  &DFT
    &QS
      METHOD PM6
      &SE
      &END
    &END QS
    &SCF
      MAX_SCF 0
    &END SCF
  &END DFT
  &SUBSYS
    &CELL
#CoU & I2_13 & T^5 & #199 & cI16 & B_a
      UNIT SCALED_ANGSTROM
     A  -3.17785000  3.17785000  3.17785000
     B   3.17785000 -3.17785000  3.17785000
     C   3.17785000  3.17785000 -3.17785000
    &END CELL
    &COORD
#replace U by Ga
Co  0.58800000  0.58800000  0.58800000     1.86857580  1.86857580  1.86857580
Co  0.50000000  0.00000000 -0.08800000    -1.86857580  1.30927420  1.86857580
Co  0.00000000 -0.08800000  0.50000000     1.30927420  1.86857580 -1.86857580
Co -0.08800000  0.50000000  0.00000000     1.86857580 -1.86857580  1.30927420
Ga  0.06940000  0.06940000  0.06940000     0.22054279  0.22054279  0.22054279
Ga  0.50000000  0.00000000  0.43060000    -0.22054279  2.95730721  0.22054279
Ga  0.00000000  0.43060000  0.50000000     2.95730721  0.22054279 -0.22054279
Ga  0.43060000  0.50000000  0.00000000     0.22054279 -0.22054279  2.95730721
    &END COORD
    &PRINT
      &SYMMETRY
       CHECK_SYMMETRY 23
      &END
    &END
    &TOPOLOGY
      CONNECTIVITY OFF
    &END
  &END SUBSYS
&END FORCE_EVAL
&GLOBAL
  PROJECT symmetry
  RUN_TYPE ENERGY
&END GLOBAL
