&FORCE_EVAL
  METHOD Quickstep
  &DFT
    &QS
      METHOD PM6
      &SE
      &END
    &END QS
    &SCF
      MAX_SCF 0
    &END SCF
  &END DFT
  &SUBSYS
    &CELL
#Al_2 O_3 (Corundum) & R(-3)c (#167) & hR10 & D5_1 & Pearson's Handbook, v. I, pp. 970-1
     A    .25698400  3.62139800  3.62139800
     B   3.62139800   .25698400  3.62139800
     C   3.62139800  3.62139800   .25698400
    &END CELL
    &COORD
 SCALED
Al   .35228000   .35228000   .35228000     2.64202250  2.64202250  2.64202250
Al  -.35228000  -.35228000  -.35228000    -2.64202250 -2.64202250 -2.64202250
Al   .14772000   .14772000   .14772000     1.10786750  1.10786750  1.10786750
Al  -.14772000  -.14772000  -.14772000    -1.10786750 -1.10786750 -1.10786750
O   -.05640000   .55640000   .25000000     2.90580145   .84408855  1.87494500
O    .05640000  -.55640000  -.25000000    -2.90580145  -.84408855 -1.87494500
O    .55640000   .25000000  -.05640000      .84408855  1.87494500  2.90580145
O   -.55640000  -.25000000   .05640000     -.84408855 -1.87494500 -2.90580145
O    .25000000  -.05640000   .55640000     1.87494500  2.90580145   .84408855
O   -.25000000   .05640000  -.55640000    -1.87494500 -2.90580145  -.84408855
    &END COORD
    &PRINT
      &SYMMETRY
       CHECK_SYMMETRY 23
      &END
    &END
    &TOPOLOGY
      CONNECTIVITY OFF
    &END
  &END SUBSYS
&END FORCE_EVAL
&GLOBAL
  PROJECT symmetry
  RUN_TYPE ENERGY
&END GLOBAL
