&FORCE_EVAL
  METHOD Quickstep
  &DFT
    LSD
    &QS
      METHOD PM6
      &SE
      &END
    &END QS
    &SCF
      MAX_SCF 0
    &END SCF
  &END DFT
  &SUBSYS
    &CELL
#Po (beta) & A_i & hR1 & R(-3)m-D_{3d}^5 #166 & Pearson (Alloys) p. 559
      UNIT SCALED_ANGSTROM
      A  2.98911671 -0.21818147 -0.21818147
      B -0.21818147  2.98911671 -0.21818147
      C -0.21818147 -0.21818147  2.98911671
    &END CELL
    &COORD
#Replace Po by P
P   0.00000000  0.00000000  0.00000000     0.00000000  0.00000000  0.00000000
    &END COORD
    &PRINT
      &SYMMETRY
       CHECK_SYMMETRY 23
      &END
    &END
    &TOPOLOGY
      CONNECTIVITY OFF
    &END
  &END SUBSYS
&END FORCE_EVAL
&GLOBAL
  PROJECT symmetry
  RUN_TYPE ENERGY
&END GLOBAL
