&FORCE_EVAL
  METHOD Quickstep
  &DFT
    &QS
      METHOD PM6
      &SE
      &END
    &END QS
    &SCF
      MAX_SCF 0
    &END SCF
  &END DFT
  &SUBSYS
    &CELL
#CO & P2_1 3 (#198, T^4) & B21 & cF8
     A   5.63000000  0.00000000  0.00000000
     B   0.00000000  5.63000000  0.00000000
     C   0.00000000  0.00000000  5.63000000
    &END CELL
    &COORD
 SCALED
C   0.06000000  0.06000000  0.06000000     0.33780000  0.33780000  0.33780000
C   0.56000000  0.44000000 -0.06000000     3.15280000  2.47720000 -0.33780000
C  -0.06000000  0.56000000  0.44000000    -0.33780000  3.15280000  2.47720000
C   0.44000000 -0.06000000  0.56000000     2.47720000 -0.33780000  3.15280000
O  -0.04000000 -0.04000000 -0.04000000    -0.22520000 -0.22520000 -0.22520000
O   0.46000000  0.54000000  0.04000000     2.58980000  3.04020000  0.22520000
O   0.04000000  0.46000000  0.54000000     0.22520000  2.58980000  3.04020000
O   0.54000000  0.04000000  0.46000000     3.04020000  0.22520000  2.58980000
    &END COORD
    &PRINT
      &SYMMETRY
       CHECK_SYMMETRY 23
      &END
    &END
    &TOPOLOGY
      CONNECTIVITY OFF
    &END
  &END SUBSYS
&END FORCE_EVAL
&GLOBAL
  PROJECT symmetry
  RUN_TYPE ENERGY
&END GLOBAL
