&FORCE_EVAL
  METHOD Quickstep
  &DFT
    &QS
      METHOD PM6
      &SE
      &END
    &END QS
    &SCF
      MAX_SCF 0
    &END SCF
  &END DFT
  &SUBSYS
    &CELL
#N_2 (alpha) & Pa(-3)-T_h^6 #205 & cP8 & Wyckoff Vol I., pp. 29-30
     A   5.64400000  0.00000000  0.00000000
     B   0.00000000  5.64400000  0.00000000
     C   0.00000000  0.00000000  5.64400000
    &END CELL
    &COORD
 SCALED
N   0.05400000  0.05400000  0.05400000     0.30477600  0.30477600  0.30477600
N   0.44600000 -0.05400000  0.55400000     2.51722400 -0.30477600  3.12677600
N  -0.05400000  0.55400000  0.44600000    -0.30477600  3.12677600  2.51722400
N   0.55400000  0.44600000 -0.05400000     3.12677600  2.51722400 -0.30477600
N  -0.05400000 -0.05400000 -0.05400000    -0.30477600 -0.30477600 -0.30477600
N   0.55400000  0.05400000  0.44600000     3.12677600  0.30477600  2.51722400
N   0.05400000  0.44600000  0.55400000     0.30477600  2.51722400  3.12677600
N   0.44600000  0.55400000  0.05400000     2.51722400  3.12677600  0.30477600
    &END COORD
    &PRINT
      &SYMMETRY
       CHECK_SYMMETRY m<3>
      &END
    &END
    &TOPOLOGY
      CONNECTIVITY OFF
    &END
  &END SUBSYS
&END FORCE_EVAL
&GLOBAL
  PROJECT symmetry
  RUN_TYPE ENERGY
&END GLOBAL
