&FORCE_EVAL
  METHOD Quickstep
  &DFT
    &QS
      METHOD PM6
      &SE
      &END
    &END QS
    &SCF
      MAX_SCF 0
    &END SCF
  &END DFT
  &SUBSYS
    &CELL
#Mn_2 O_3 & Ia(-3)-T_h^7 #206 (bde) & D5_3 & cI80 & Dachs, Zf Kristall.  107, 37
     A  -4.70000000  4.70000000  4.70000000
     B   4.70000000 -4.70000000  4.70000000
     C   4.70000000  4.70000000 -4.70000000
    &END CELL
    &COORD
 SCALED
Fe  0.50000000  0.50000000  0.50000000     2.35000000  2.35000000  2.35000000
Fe  0.50000000  0.00000000  0.00000000    -2.35000000  2.35000000  2.35000000
Fe  0.00000000  0.50000000  0.00000000     2.35000000 -2.35000000  2.35000000
Fe  0.00000000  0.00000000  0.50000000     2.35000000  2.35000000 -2.35000000
Mn  0.25000000  0.21560000 -0.03440000    -0.32336000  0.00000000  2.35000000
Mn -0.25000000  0.28440000 -0.46560000     0.32336000 -4.70000000  2.35000000
Mn -0.03440000  0.25000000  0.21560000     2.35000000 -0.32336000  0.00000000
Mn -0.46560000 -0.25000000  0.28440000     2.35000000  0.32336000 -4.70000000
Mn  0.21560000 -0.03440000  0.25000000     0.00000000  2.35000000 -0.32336000
Mn  0.28440000 -0.46560000 -0.25000000    -4.70000000  2.35000000  0.32336000
Mn -0.25000000 -0.21560000  0.03440000     0.32336000  0.00000000 -2.35000000
Mn  0.25000000 -0.28440000  0.46560000    -0.32336000  4.70000000 -2.35000000
Mn  0.03440000 -0.25000000 -0.21560000    -2.35000000  0.32336000  0.00000000
Mn  0.46560000  0.25000000 -0.28440000    -2.35000000 -0.32336000  4.70000000
Mn -0.21560000  0.03440000 -0.25000000     0.00000000 -2.35000000  0.32336000
Mn -0.28440000  0.46560000  0.25000000     4.70000000 -2.35000000 -0.32336000
O   0.22500000  0.46300000  0.43800000     3.17720000  0.94000000  1.17500000
O  -0.47500000 -0.21300000  0.06200000     1.52280000 -0.94000000 -3.52500000
O  -0.02500000  0.03700000  0.26200000     1.52280000  0.94000000 -1.17500000
O   0.27500000 -0.28700000  0.23800000    -1.52280000  3.76000000 -1.17500000
O   0.43800000  0.22500000  0.46300000     1.17500000  3.17720000  0.94000000
O   0.06200000 -0.47500000 -0.21300000    -3.52500000  1.52280000 -0.94000000
O   0.26200000 -0.02500000  0.03700000    -1.17500000  1.52280000  0.94000000
O   0.23800000  0.27500000 -0.28700000    -1.17500000 -1.52280000  3.76000000
O   0.46300000  0.43800000  0.22500000     0.94000000  1.17500000  3.17720000
O  -0.21300000  0.06200000 -0.47500000    -0.94000000 -3.52500000  1.52280000
O   0.03700000  0.26200000 -0.02500000     0.94000000 -1.17500000  1.52280000
O  -0.28700000  0.23800000  0.27500000     3.76000000 -1.17500000 -1.52280000
O  -0.22500000 -0.46300000 -0.43800000    -3.17720000 -0.94000000 -1.17500000
O   0.47500000  0.21300000 -0.06200000    -1.52280000  0.94000000  3.52500000
O   0.02500000 -0.03700000 -0.26200000    -1.52280000 -0.94000000  1.17500000
O  -0.27500000  0.28700000 -0.23800000     1.52280000 -3.76000000  1.17500000
O  -0.43800000 -0.22500000 -0.46300000    -1.17500000 -3.17720000 -0.94000000
O  -0.06200000  0.47500000  0.21300000     3.52500000 -1.52280000  0.94000000
O  -0.26200000  0.02500000 -0.03700000     1.17500000 -1.52280000 -0.94000000
O  -0.23800000 -0.27500000  0.28700000     1.17500000  1.52280000 -3.76000000
O  -0.46300000 -0.43800000 -0.22500000    -0.94000000 -1.17500000 -3.17720000
O   0.21300000 -0.06200000  0.47500000     0.94000000  3.52500000 -1.52280000
O  -0.03700000 -0.26200000  0.02500000    -0.94000000  1.17500000 -1.52280000
O   0.28700000 -0.23800000 -0.27500000    -3.76000000  1.17500000  1.52280000
    &END COORD
    &PRINT
      &SYMMETRY
       CHECK_SYMMETRY m<3>
      &END
    &END
    &TOPOLOGY
      CONNECTIVITY OFF
    &END
  &END SUBSYS
&END FORCE_EVAL
&GLOBAL
  PROJECT symmetry
  RUN_TYPE ENERGY
&END GLOBAL
