&FORCE_EVAL
  METHOD Quickstep
  &DFT
    &QS
      METHOD PM6
      &SE
      &END
      EPS_DEFAULT=1
    &END QS
    &SCF
      MAX_SCF 0
    &END SCF
  &END DFT
  &SUBSYS
    &CELL
#P_2 I_4 & P(-1)-C_i^1 #2 & Wyckoff, Vol. I, p 375
     UNIT SCALED_ANGSTROM
     A   4.56000000  0.00000000  0.00000000
     B  -1.00696027  6.98782019  0.00000000
     C  -2.15943322  0.96138158  7.01231728
    &END CELL
    &COORD
P   0.39700000  0.63900000  0.46300000     0.16705481  4.91033677  3.24670290
P  -0.39700000 -0.63900000 -0.46300000    -0.16705481 -4.91033677 -3.24670290
I   0.55700000  0.73000000  0.16500000     1.44853252  5.25973670  1.15703235
I  -0.55700000 -0.73000000 -0.16500000    -1.44853252 -5.25973670 -1.15703235
I   0.82000000  0.80300000  0.69500000     1.42980482  6.27937981  4.87356051
I  -0.82000000 -0.80300000 -0.69500000    -1.42980482 -6.27937981 -4.87356051
    &END COORD
    &PRINT
      &SYMMETRY
        CHECK_SYMMETRY <1>
      &END
    &END
  &END SUBSYS
&END FORCE_EVAL
&GLOBAL
  PROJECT symmetry
  RUN_TYPE ENERGY
&END GLOBAL
