&FORCE_EVAL
  METHOD Quickstep
  &DFT
    &QS
      METHOD PM6
      &SE
      &END
    &END QS
    &SCF
      MAX_SCF 0
    &END SCF
  &END DFT
  &SUBSYS
    &CELL
#Cf & P(-1) (#2, C^1_i) & aP4 & Donohue
     A   3.30700000  0.00000000  0.00000000
     B   0.55574000  7.39114000  0.00000000
     C   0.23614000  0.02819000  2.78286000
    &END CELL
    &COORD
 SCALED
# use P instead of Cf
P   0.00000000  0.00000000  0.00000000     0.00000000  0.00000000  0.00000000
P   0.00000000  0.50000000  0.00000000     0.27787000  3.69557000  0.00000000
P   0.57200000  0.25900000  0.43300000     2.13778928  1.92651153  1.20497838
P  -0.57200000 -0.25900000 -0.43300000    -2.13778928 -1.92651153 -1.20497838
    &END COORD
    &PRINT
      &SYMMETRY
       CHECK_SYMMETRY <1>
      &END
    &END
    &TOPOLOGY
      CONNECTIVITY OFF
    &END
  &END SUBSYS
&END FORCE_EVAL
&GLOBAL
  PROJECT symmetry
  RUN_TYPE ENERGY
&END GLOBAL
