&FORCE_EVAL
  METHOD Quickstep
  &DFT
    &QS
      METHOD PM6
      &SE
      &END
    &END QS
    &SCF
      MAX_SCF 0
    &END SCF
  &END DFT
  &SUBSYS
    &CELL
#gamma Brass Cu_5 Zn_8 & I(-4)3m - T_d^3 #217 (c^2eg) & cF52
      UNIT SCALED_ANGSTROM
     A  -4.43450000  4.43450000  4.43450000
     B   4.43450000 -4.43450000  4.43450000
     C   4.43450000  4.43450000 -4.43450000
    &END CELL
    &COORD
Zn  0.21780000  0.21780000  0.21780000     0.96583410  0.96583410  0.96583410
Zn -0.21780000  0.00000000  0.00000000     0.96583410 -0.96583410 -0.96583410
Zn  0.00000000 -0.21780000  0.00000000    -0.96583410  0.96583410 -0.96583410
Zn  0.00000000  0.00000000 -0.21780000    -0.96583410 -0.96583410  0.96583410
Cu -0.34400000 -0.34400000 -0.34400000    -1.52546800 -1.52546800 -1.52546800
Cu  0.34400000  0.00000000  0.00000000    -1.52546800  1.52546800  1.52546800
Cu  0.00000000  0.34400000  0.00000000     1.52546800 -1.52546800  1.52546800
Cu  0.00000000  0.00000000  0.34400000     1.52546800  1.52546800 -1.52546800
Cu  0.00000000  0.35580000  0.35580000     3.15559020  0.00000000  0.00000000
Cu  0.00000000 -0.35580000 -0.35580000    -3.15559020  0.00000000  0.00000000
Cu  0.35580000  0.00000000  0.35580000     0.00000000  3.15559020  0.00000000
Cu -0.35580000  0.00000000 -0.35580000     0.00000000 -3.15559020  0.00000000
Cu  0.35580000  0.35580000  0.00000000     0.00000000  0.00000000  3.15559020
Cu -0.35580000 -0.35580000  0.00000000     0.00000000  0.00000000 -3.15559020
Zn  0.34940000  0.34940000  0.62560000     2.77422320  2.77422320  0.32460540
Zn -0.27620000 -0.27620000 -0.62560000    -2.77422320 -2.77422320  0.32460540
Zn  0.27620000 -0.34940000  0.00000000    -2.77422320  2.77422320 -0.32460540
Zn -0.34940000  0.27620000  0.00000000     2.77422320 -2.77422320 -0.32460540
Zn  0.62560000  0.34940000  0.34940000     0.32460540  2.77422320  2.77422320
Zn -0.62560000 -0.27620000 -0.27620000     0.32460540 -2.77422320 -2.77422320
Zn  0.00000000  0.27620000 -0.34940000    -0.32460540 -2.77422320  2.77422320
Zn  0.00000000 -0.34940000  0.27620000    -0.32460540  2.77422320 -2.77422320
Zn  0.34940000  0.62560000  0.34940000     2.77422320  0.32460540  2.77422320
Zn -0.27620000 -0.62560000 -0.27620000    -2.77422320  0.32460540 -2.77422320
Zn -0.34940000  0.00000000  0.27620000     2.77422320 -0.32460540 -2.77422320
Zn  0.27620000  0.00000000 -0.34940000    -2.77422320 -0.32460540  2.77422320
    &END COORD
    &PRINT
      &SYMMETRY
       CHECK_SYMMETRY <4>3m
      &END
    &END
    &TOPOLOGY
      CONNECTIVITY OFF
    &END
  &END SUBSYS
&END FORCE_EVAL
&GLOBAL
  PROJECT symmetry
  RUN_TYPE ENERGY
&END GLOBAL
