&FORCE_EVAL
  METHOD Quickstep
  &DFT
    &QS
      METHOD PM6
      &SE
      &END
    &END QS
    &SCF
      MAX_SCF 0
    &END SCF
  &END DFT
  &SUBSYS
    &CELL
#ZnS (Zincblende) & Fm(-3)m-T_d^2 #216 & cF8 & B3 & Wyckoff v I p 108-110
     A   0.00000000  2.70465000  2.70465000
     B   2.70465000  0.00000000  2.70465000
     C   2.70465000  2.70465000  0.00000000
    &END CELL
    &COORD
 SCALED
Zn  0.00000000  0.00000000  0.00000000     0.00000000  0.00000000  0.00000000
S   0.25000000  0.25000000  0.25000000     1.35232500  1.35232500  1.35232500
    &END COORD
    &PRINT
      &SYMMETRY
       CHECK_SYMMETRY <4>3m
      &END
    &END
    &TOPOLOGY
      CONNECTIVITY OFF
    &END
  &END SUBSYS
&END FORCE_EVAL
&GLOBAL
  PROJECT symmetry
  RUN_TYPE ENERGY
&END GLOBAL
