&FORCE_EVAL
  METHOD Quickstep
  &DFT
    &QS
      METHOD PM6
      &SE
      &END
    &END QS
    &SCF
      MAX_SCF 0
    &END SCF
  &END DFT
  &SUBSYS
    &CELL
#Mg Sn Cu_4 & F(-4)3m-T_d^2 #216 & cF24 & Pearson, Alloys, p. 656
      UNIT SCALED_ANGSTROM
     A   0.00000000  3.52183664  3.52183664
     B   3.52183664  0.00000000  3.52183664
     C   3.52183664  3.52183664  0.00000000
    &END CELL
    &COORD
Mg  0.00000000  0.00000000  0.00000000     0.00000000  0.00000000  0.00000000
Sn  0.25000000  0.25000000  0.25000000     1.76091832  1.76091832  1.76091832
Cu -0.37500000 -0.37500000 -0.37500000    -2.64137748 -2.64137748 -2.64137748
Cu  1.12500000 -0.37500000 -0.37500000    -2.64137748  2.64137748  2.64137748
Cu -0.37500000  1.12500000 -0.37500000     2.64137748 -2.64137748  2.64137748
Cu -0.37500000 -0.37500000  1.12500000     2.64137748  2.64137748 -2.64137748
    &END COORD
    &PRINT
      &SYMMETRY
       CHECK_SYMMETRY <4>3m
      &END
    &END
    &TOPOLOGY
      CONNECTIVITY OFF
    &END
  &END SUBSYS
&END FORCE_EVAL
&GLOBAL
  PROJECT symmetry
  RUN_TYPE ENERGY
&END GLOBAL
