&FORCE_EVAL
  METHOD Quickstep
  &DFT
    &QS
      METHOD PM6
      &SE
      &END
    &END QS
    &SCF
      MAX_SCF 0
    &END SCF
  &END DFT
  &SUBSYS
    &CELL
#Li & cI16 & I(-4)3d-T_d^6 & Hanfland et al., Nature 408, 174-8 (9 November 2000)
     A  -2.63580000  2.63580000  2.63580000
     B   2.63580000 -2.63580000  2.63580000
     C   2.63580000  2.63580000 -2.63580000
    &END CELL
    &COORD
 SCALED
Li  0.09800000  0.09800000  0.09800000     0.25830840  0.25830840  0.25830840
Li -0.40200000 -0.40200000 -0.40200000    -1.05959160 -1.05959160 -1.05959160
Li  0.40200000  0.50000000  0.00000000     0.25830840 -0.25830840  2.37749160
Li -0.09800000  0.50000000  0.00000000     1.57620840 -1.57620840  1.05959160
Li  0.00000000  0.40200000  0.50000000     2.37749160  0.25830840 -0.25830840
Li  0.00000000 -0.09800000  0.50000000     1.05959160  1.57620840 -1.57620840
Li  0.50000000  0.00000000  0.40200000    -0.25830840  2.37749160  0.25830840
Li  0.50000000  0.00000000 -0.09800000    -1.57620840  1.05959160  1.57620840
    &END COORD
    &PRINT
      &SYMMETRY
       CHECK_SYMMETRY <4>3m
      &END
    &END
    &TOPOLOGY
      CONNECTIVITY OFF
    &END
  &END SUBSYS
&END FORCE_EVAL
&GLOBAL
  PROJECT symmetry
  RUN_TYPE ENERGY
&END GLOBAL
