&FORCE_EVAL
  METHOD Quickstep
  &DFT
    LSD
    &QS
      METHOD PM6
      &SE
      &END
    &END QS
    &SCF
      MAX_SCF 0
    &END SCF
  &END DFT
  &SUBSYS
    &CELL
#alpha Mn & I(-4)3m-T_d^3 #217 (acg^2) & A12 & cI58 & Donohue, p 192
      UNIT SCALED_ANGSTROM
     A  -4.45640000  4.45640000  4.45640000
     B   4.45640000 -4.45640000  4.45640000
     C   4.45640000  4.45640000 -4.45640000
    &END CELL
    &COORD
Mn   0.00000000  0.00000000  0.00000000     0.00000000  0.00000000  0.00000000
Mn   0.63574000  0.63574000  0.63574000     2.83311174  2.83311174  2.83311174
Mn  -0.63574000  0.00000000  0.00000000     2.83311174 -2.83311174 -2.83311174
Mn   0.00000000 -0.63574000  0.00000000    -2.83311174  2.83311174 -2.83311174
Mn   0.00000000  0.00000000 -0.63574000    -2.83311174 -2.83311174  2.83311174
Mn   0.39163000  0.39163000  0.71412000     3.18240437  3.18240437  0.30811550
Mn  -0.32249000 -0.32249000 -0.71412000    -3.18240437 -3.18240437  0.30811550
Mn   0.32249000 -0.39163000  0.00000000    -3.18240437  3.18240437 -0.30811550
Mn  -0.39163000  0.32249000  0.00000000     3.18240437 -3.18240437 -0.30811550
Mn   0.71412000  0.39163000  0.39163000     0.30811550  3.18240437  3.18240437
Mn  -0.71412000 -0.32249000 -0.32249000     0.30811550 -3.18240437 -3.18240437
Mn   0.00000000  0.32249000 -0.39163000    -0.30811550 -3.18240437  3.18240437
Mn   0.00000000 -0.39163000  0.32249000    -0.30811550  3.18240437 -3.18240437
Mn   0.39163000  0.71412000  0.39163000     3.18240437  0.30811550  3.18240437
Mn  -0.32249000 -0.71412000 -0.32249000    -3.18240437  0.30811550 -3.18240437
Mn  -0.39163000  0.00000000  0.32249000     3.18240437 -0.30811550 -3.18240437
Mn   0.32249000  0.00000000 -0.39163000    -3.18240437 -0.30811550  3.18240437
Mn   0.37152000  0.37152000  0.17916000     0.79840862  0.79840862  2.51287483
Mn   0.19236000  0.19236000 -0.17916000    -0.79840862 -0.79840862  2.51287483
Mn  -0.19236000 -0.37152000  0.00000000    -0.79840862  0.79840862 -2.51287483
Mn  -0.37152000 -0.19236000  0.00000000     0.79840862 -0.79840862 -2.51287483
Mn   0.17916000  0.37152000  0.37152000     2.51287483  0.79840862  0.79840862
Mn  -0.17916000  0.19236000  0.19236000     2.51287483 -0.79840862 -0.79840862
Mn   0.00000000 -0.19236000 -0.37152000    -2.51287483 -0.79840862  0.79840862
Mn   0.00000000 -0.37152000 -0.19236000    -2.51287483  0.79840862 -0.79840862
Mn   0.37152000  0.17916000  0.37152000     0.79840862  2.51287483  0.79840862
Mn   0.19236000 -0.17916000  0.19236000    -0.79840862  2.51287483 -0.79840862
Mn  -0.37152000  0.00000000 -0.19236000     0.79840862 -2.51287483 -0.79840862
Mn  -0.19236000  0.00000000 -0.37152000    -0.79840862 -2.51287483  0.79840862
    &END COORD
    &PRINT
      &SYMMETRY
       CHECK_SYMMETRY <4>3m
      &END
    &END
    &TOPOLOGY
      CONNECTIVITY OFF
    &END
  &END SUBSYS
&END FORCE_EVAL
&GLOBAL
  PROJECT symmetry
  RUN_TYPE ENERGY
&END GLOBAL
