&FORCE_EVAL
  METHOD Quickstep
  &DFT
    &QS
      METHOD PM6
      &SE
      &END
    &END QS
    &SCF
      MAX_SCF 0
    &END SCF
  &END DFT
  &SUBSYS
    &CELL
#C_3 Pu_2 & D5_c & I(-4)3d-T_d^6 #220 & cI40 & Pearson's Handbook
     A  -4.06600000  4.06600000  4.06600000
     B   4.06600000 -4.06600000  4.06600000
     C   4.06600000  4.06600000 -4.06600000
    &END CELL
    &COORD
 SCALED
#replace Pu by Fe
Fe  0.10000000  0.10000000  0.10000000     0.40660000  0.40660000  0.40660000
Fe  0.50000000  0.00000000  0.40000000    -0.40660000  3.65940000  0.40660000
Fe  0.00000000  0.40000000  0.50000000     3.65940000  0.40660000 -0.40660000
Fe  0.40000000  0.50000000  0.00000000     0.40660000 -0.40660000  3.65940000
Fe -0.40000000 -0.40000000 -0.40000000    -1.62640000 -1.62640000 -1.62640000
Fe  0.50000000  0.00000000 -0.10000000    -2.43960000  1.62640000  2.43960000
Fe -0.10000000  0.50000000  0.00000000     2.43960000 -2.43960000  1.62640000
Fe  0.00000000 -0.10000000  0.50000000     1.62640000  2.43960000 -2.43960000
C   0.25000000 -0.46100000  0.28900000    -1.71585200  4.06600000 -2.03300000
C  -0.25000000 -0.03900000  0.21100000     1.71585200  0.00000000 -2.03300000
C   0.28900000  0.25000000 -0.46100000    -2.03300000 -1.71585200  4.06600000
C   0.21100000 -0.25000000 -0.03900000    -2.03300000  1.71585200  0.00000000
C  -0.46100000  0.28900000  0.25000000     4.06600000 -2.03300000 -1.71585200
C  -0.03900000  0.21100000 -0.25000000     0.00000000 -2.03300000  1.71585200
C   0.03900000 -0.25000000 -0.21100000    -2.03300000  0.31714800  0.00000000
C   0.46100000  0.25000000 -0.28900000    -2.03300000 -0.31714800  4.06600000
C  -0.25000000 -0.21100000  0.03900000     0.31714800  0.00000000 -2.03300000
C   0.25000000 -0.28900000  0.46100000    -0.31714800  4.06600000 -2.03300000
C  -0.21100000  0.03900000 -0.25000000     0.00000000 -2.03300000  0.31714800
C  -0.28900000  0.46100000  0.25000000     4.06600000 -2.03300000 -0.31714800
    &END COORD
    &PRINT
      &SYMMETRY
       CHECK_SYMMETRY <4>3m
      &END
    &END
    &TOPOLOGY
      CONNECTIVITY OFF
    &END
  &END SUBSYS
&END FORCE_EVAL
&GLOBAL
  PROJECT symmetry
  RUN_TYPE ENERGY
&END GLOBAL
