&FORCE_EVAL
  METHOD Quickstep
  &DFT
    &QS
      METHOD PM6
      &SE
      &END
    &END QS
    &SCF
      MAX_SCF 0
    &END SCF
  &END DFT
  &SUBSYS
    &CELL
#CaF_2 & Fm(-3)m-O_h^5 #225 & Fluorite & cF12 & C1 & Wyckoff v. I pp. 239-242
      UNIT SCALED_ANGSTROM
     A   0.00000000  2.73147500  2.73147500
     B   2.73147500  0.00000000  2.73147500
     C   2.73147500  2.73147500  0.00000000
    &END CELL
    &COORD
Ca  0.00000000  0.00000000  0.00000000     0.00000000  0.00000000  0.00000000
F   0.25000000  0.25000000  0.25000000     1.36573750  1.36573750  1.36573750
F   0.75000000  0.75000000  0.75000000     4.09721250  4.09721250  4.09721250
    &END COORD
    &PRINT
      &SYMMETRY
       CHECK_SYMMETRY m<3>m
      &END
    &END
    &TOPOLOGY
      CONNECTIVITY OFF
    &END
  &END SUBSYS
&END FORCE_EVAL
&GLOBAL
  PROJECT symmetry
  RUN_TYPE ENERGY
&END GLOBAL
