&FORCE_EVAL
  METHOD Quickstep
  &DFT
    &QS
      METHOD PM6
      &SE
      &END
    &END QS
    &SCF
      MAX_SCF 0
    &END SCF
  &END DFT
  &SUBSYS
    &CELL
#Cu_3 Au & Pm(-3)m-O_h^1 #221 & cP4 & L1_2 & Pearson's Alloys p. 322
     A   3.75000000  0.00000000  0.00000000
     B   0.00000000  3.75000000  0.00000000
     C   0.00000000  0.00000000  3.75000000
    &END CELL
    &COORD
 SCALED
Au  0.00000000  0.00000000  0.00000000     0.00000000  0.00000000  0.00000000
Cu  0.00000000  0.50000000  0.50000000     0.00000000  1.87500000  1.87500000
Cu  0.50000000  0.00000000  0.50000000     1.87500000  0.00000000  1.87500000
Cu  0.50000000  0.50000000  0.00000000     1.87500000  1.87500000  0.00000000
    &END COORD
    &PRINT
      &SYMMETRY
       CHECK_SYMMETRY m<3>m
      &END
    &END
    &TOPOLOGY
      CONNECTIVITY OFF
    &END
  &END SUBSYS
&END FORCE_EVAL
&GLOBAL
  PROJECT symmetry
  RUN_TYPE ENERGY
&END GLOBAL
