&FORCE_EVAL
  METHOD Quickstep
  &DFT
    &QS
      METHOD PM6
      &SE
      &END
    &END QS
    &SCF
      MAX_SCF 0
    &END SCF
  &END DFT
  &SUBSYS
    &CELL
#Ca_7 Ge & Fm(-3)m-O_h^5 #225 & cF32 & Pearson's Handbook Vol. IV, p. 2057
      UNIT SCALED_ANGSTROM
     A   0.00000000  4.72500000  4.72500000
     B   4.72500000  0.00000000  4.72500000
     C   4.72500000  4.72500000  0.00000000
    &END CELL
    &COORD
Ge  0.00000000  0.00000000  0.00000000     0.00000000  0.00000000  0.00000000
Ca  0.50000000  0.00000000  0.00000000     0.00000000  2.36250000  2.36250000
Ca  0.00000000  0.50000000  0.00000000     2.36250000  0.00000000  2.36250000
Ca  0.00000000  0.00000000  0.50000000     2.36250000  2.36250000  0.00000000
Ca  0.00000000  0.50000000 -0.50000000     0.00000000 -2.36250000  2.36250000
Ca  0.50000000  0.00000000 -0.50000000    -2.36250000  0.00000000  2.36250000
Ca  0.50000000 -0.50000000  0.00000000    -2.36250000  2.36250000  0.00000000
Ca  0.50000000  0.50000000  0.50000000     4.72500000  4.72500000  4.72500000
    &END COORD
    &PRINT
      &SYMMETRY
       CHECK_SYMMETRY m<3>m
      &END
    &END
    &TOPOLOGY
      CONNECTIVITY OFF
    &END
  &END SUBSYS
&END FORCE_EVAL
&GLOBAL
  PROJECT symmetry
  RUN_TYPE ENERGY
&END GLOBAL
