&FORCE_EVAL
  METHOD Quickstep
  &DFT
    &QS
      METHOD PM6
      &SE
      &END
    &END QS
    &SCF
      MAX_SCF 0
    &END SCF
  &END DFT
  &SUBSYS
    &CELL
#16 atom bcc supercell of fcc with full symmetry & Im(-3)m & O_h^9 & #229 & cI32
      UNIT SCALED_ANGSTROM
     A  -3.52000000  3.52000000  3.52000000
     B   3.52000000 -3.52000000  3.52000000
     C   3.52000000  3.52000000 -3.52000000
    &END CELL
    &COORD
Cr  0.00000000  0.00000000  0.00000000     0.00000000  0.00000000  0.00000000
Fe  0.47500000  0.23750000  0.23750000     0.00000000  1.67200000  1.67200000
Fe  0.23750000  0.47500000  0.23750000     1.67200000  0.00000000  1.67200000
Fe  0.23750000  0.23750000  0.47500000     1.67200000  1.67200000  0.00000000
Fe  0.00000000 -0.23750000  0.23750000     0.00000000  1.67200000 -1.67200000
Fe -0.23750000  0.00000000  0.23750000     1.67200000  0.00000000 -1.67200000
Fe -0.23750000  0.23750000  0.00000000     1.67200000 -1.67200000  0.00000000
Fe  0.00000000  0.23750000 -0.23750000     0.00000000 -1.67200000  1.67200000
Fe  0.23750000  0.00000000 -0.23750000    -1.67200000  0.00000000  1.67200000
Fe  0.23750000 -0.23750000  0.00000000    -1.67200000  1.67200000  0.00000000
Fe -0.47500000 -0.23750000 -0.23750000     0.00000000 -1.67200000 -1.67200000
Fe -0.23750000 -0.47500000 -0.23750000    -1.67200000  0.00000000 -1.67200000
Fe -0.23750000 -0.23750000 -0.47500000    -1.67200000 -1.67200000  0.00000000
Ni  0.00000000  0.50000000  0.50000000     3.52000000  0.00000000  0.00000000
Ni  0.50000000  0.00000000  0.50000000     0.00000000  3.52000000  0.00000000
Ni  0.50000000  0.50000000  0.00000000     0.00000000  0.00000000  3.52000000
    &END COORD
    &PRINT
      &SYMMETRY
       CHECK_SYMMETRY m<3>m
      &END
    &END
    &TOPOLOGY
      CONNECTIVITY OFF
    &END
  &END SUBSYS
&END FORCE_EVAL
&GLOBAL
  PROJECT symmetry
  RUN_TYPE ENERGY
&END GLOBAL
