&FORCE_EVAL
  METHOD Quickstep
  &DFT
    &QS
      METHOD PM6
      &SE
      &END
    &END QS
    &SCF
      MAX_SCF 0
    &END SCF
  &END DFT
  &SUBSYS
    &CELL
#C (Diamond) & Fd(-3)m & #227 & O_h^7 & cF8 & A4 & Ashcroft and Mermin, 76
     A   0.00000000  1.78500000  1.78500000
     B   1.78500000  0.00000000  1.78500000
     C   1.78500000  1.78500000  0.00000000
    &END CELL
    &COORD
 SCALED
C   0.12500000  0.12500000  0.12500000     0.44625000  0.44625000  0.44625000
C  -0.12500000 -0.12500000 -0.12500000    -0.44625000 -0.44625000 -0.44625000
    &END COORD
    &PRINT
      &SYMMETRY
       CHECK_SYMMETRY m<3>m
      &END
    &END
    &TOPOLOGY
      CONNECTIVITY OFF
    &END
  &END SUBSYS
&END FORCE_EVAL
&GLOBAL
  PROJECT symmetry
  RUN_TYPE ENERGY
&END GLOBAL
