&FORCE_EVAL
  METHOD Quickstep
  &DFT
    LSD
    &QS
      METHOD PM6
      &SE
      &END
    &END QS
    &SCF
      MAX_SCF 0
    &END SCF
  &END DFT
  &SUBSYS
    &CELL
#cubic La_2 O_3 & Im(-3)m-O_h^9 #229 & cI5 & O 1/2 filled & Villars and Calvert, Pearson's Handbook IV, 4189
      UNIT SCALED_ANGSTROM
     A  -2.25500000  2.25500000  2.25500000
     B   2.25500000 -2.25500000  2.25500000
     C   2.25500000  2.25500000 -2.25500000
    &END CELL
    &COORD
La  0.00000000  0.00000000  0.00000000     0.00000000  0.00000000  0.00000000
O   0.00000000  0.50000000  0.50000000     2.25500000  0.00000000  0.00000000
O   0.50000000  0.00000000  0.50000000     0.00000000  2.25500000  0.00000000
O   0.50000000  0.50000000  0.00000000     0.00000000  0.00000000  2.25500000
    &END COORD
    &PRINT
      &SYMMETRY
       CHECK_SYMMETRY m<3>m
      &END
    &END
    &TOPOLOGY
      CONNECTIVITY OFF
    &END
  &END SUBSYS
&END FORCE_EVAL
&GLOBAL
  PROJECT symmetry
  RUN_TYPE ENERGY
&END GLOBAL
