&FORCE_EVAL
  METHOD Quickstep
  &DFT
    &QS
      METHOD PM6
      &SE
      &END
    &END QS
    &SCF
      MAX_SCF 0
    &END SCF
  &END DFT
  &SUBSYS
    &CELL
#Ideal beta-Cristobalite (SiO_2) & Fd(-3)m (#227, O^7_h) & cF24 & C9 & Wyckoff, Vol. I, pp. 318-19, Pearson's Handbook Vol. IV, p. 4759
      UNIT SCALED_ANGSTROM
     A    .00000000  3.58300000  3.58300000
     B   3.58300000   .00000000  3.58300000
     C   3.58300000  3.58300000   .00000000
    &END CELL
    &COORD
Si   .12500000   .12500000   .12500000      .89575000   .89575000   .89575000
Si  -.12500000  -.12500000  -.12500000     -.89575000  -.89575000  -.89575000
O    .00000000   .00000000   .00000000      .00000000   .00000000   .00000000
O    .50000000   .00000000   .00000000      .00000000  1.79150000  1.79150000
O    .00000000   .50000000   .00000000     1.79150000   .00000000  1.79150000
O    .00000000   .00000000   .50000000     1.79150000  1.79150000   .00000000
    &END COORD
    &PRINT
      &SYMMETRY
       CHECK_SYMMETRY m<3>m
      &END
    &END
    &TOPOLOGY
      CONNECTIVITY OFF
    &END
  &END SUBSYS
&END FORCE_EVAL
&GLOBAL
  PROJECT symmetry
  RUN_TYPE ENERGY
&END GLOBAL
