&FORCE_EVAL
  METHOD Quickstep
  &DFT
    &QS
      METHOD PM6
      &SE
      &END
    &END QS
    &SCF
      MAX_SCF 0
    &END SCF
  &END DFT
  &SUBSYS
    &CELL
#NaCl & Fm(-3)m-O_h^5 #225 & cF8 & B1 & Kittel p. 17
     A   0.00000000  2.81500000  2.81500000
     B   2.81500000  0.00000000  2.81500000
     C   2.81500000  2.81500000  0.00000000
    &END CELL
    &COORD
 SCALED
Na  0.00000000  0.00000000  0.00000000     0.00000000  0.00000000  0.00000000
Cl  0.50000000  0.50000000  0.50000000     2.81500000  2.81500000  2.81500000
    &END COORD
    &PRINT
      &SYMMETRY
       CHECK_SYMMETRY m<3>m
      &END
    &END
    &TOPOLOGY
      CONNECTIVITY OFF
    &END
  &END SUBSYS
&END FORCE_EVAL
&GLOBAL
  PROJECT symmetry
  RUN_TYPE ENERGY
&END GLOBAL
