&FORCE_EVAL
  METHOD Quickstep
  &DFT
    &QS
      METHOD PM6
      &SE
      &END
    &END QS
    &SCF
      MAX_SCF 0
    &END SCF
  &END DFT
  &SUBSYS
    &CELL
#32 atom bcc supercell of bcc with full symmetry & Fm(-3)m & O_h^5 & #225 & cF12
      UNIT SCALED_ANGSTROM
     A   0.00000000  5.74000000  5.74000000
     B   5.74000000  0.00000000  5.74000000
     C   5.74000000  5.74000000  0.00000000
    &END CELL
    &COORD
Cr  0.00000000  0.00000000  0.00000000     0.00000000  0.00000000  0.00000000
Fe  0.12000000  0.12000000  0.12000000     1.37760000  1.37760000  1.37760000
Fe  0.36000000 -0.12000000 -0.12000000    -1.37760000  1.37760000  1.37760000
Fe -0.12000000  0.36000000 -0.12000000     1.37760000 -1.37760000  1.37760000
Fe -0.12000000 -0.12000000  0.36000000     1.37760000  1.37760000 -1.37760000
Fe -0.12000000 -0.12000000 -0.12000000    -1.37760000 -1.37760000 -1.37760000
Fe -0.36000000  0.12000000  0.12000000     1.37760000 -1.37760000 -1.37760000
Fe  0.12000000 -0.36000000  0.12000000    -1.37760000  1.37760000 -1.37760000
Fe  0.12000000  0.12000000 -0.36000000    -1.37760000 -1.37760000  1.37760000
Ni -0.25900000  0.25900000  0.25900000     2.97332000  0.00000000  0.00000000
Ni  0.25900000 -0.25900000  0.25900000     0.00000000  2.97332000  0.00000000
Ni  0.25900000  0.25900000 -0.25900000     0.00000000  0.00000000  2.97332000
Ni  0.25900000 -0.25900000 -0.25900000    -2.97332000  0.00000000  0.00000000
Ni -0.25900000  0.25900000 -0.25900000     0.00000000 -2.97332000  0.00000000
Ni -0.25900000 -0.25900000  0.25900000     0.00000000  0.00000000 -2.97332000
Cr  0.50000000  0.00000000  0.00000000     0.00000000  2.87000000  2.87000000
Cr  0.00000000  0.50000000  0.00000000     2.87000000  0.00000000  2.87000000
Cr  0.00000000  0.00000000  0.50000000     2.87000000  2.87000000  0.00000000
Cr  0.00000000 -0.50000000  0.50000000     0.00000000  2.87000000 -2.87000000
Cr -0.50000000  0.00000000  0.50000000     2.87000000  0.00000000 -2.87000000
Cr -0.50000000  0.50000000  0.00000000     2.87000000 -2.87000000  0.00000000
Fe -0.63500000  0.36500000  0.36500000     4.19020000 -1.54980000 -1.54980000
Fe  0.09500000 -0.36500000 -0.36500000    -4.19020000 -1.54980000 -1.54980000
Fe -0.36500000  0.09500000 -0.36500000    -1.54980000 -4.19020000 -1.54980000
Fe -0.36500000 -0.36500000  0.09500000    -1.54980000 -1.54980000 -4.19020000
Fe  0.63500000 -0.36500000 -0.36500000    -4.19020000  1.54980000  1.54980000
Fe -0.09500000  0.36500000  0.36500000     4.19020000  1.54980000  1.54980000
Fe  0.36500000 -0.09500000  0.36500000     1.54980000  4.19020000  1.54980000
Fe  0.36500000  0.36500000 -0.09500000     1.54980000  1.54980000  4.19020000
Cr  0.25000000  0.25000000  0.25000000     2.87000000  2.87000000  2.87000000
Cr -0.25000000 -0.25000000 -0.25000000    -2.87000000 -2.87000000 -2.87000000
Ni -0.50000000  0.50000000  0.50000000     5.74000000  0.00000000  0.00000000
    &END COORD
    &PRINT
      &SYMMETRY
       CHECK_SYMMETRY m<3>m
      &END
    &END
    &TOPOLOGY
      CONNECTIVITY OFF
    &END
  &END SUBSYS
&END FORCE_EVAL
&GLOBAL
  PROJECT symmetry
  RUN_TYPE ENERGY
&END GLOBAL
