&FORCE_EVAL
  METHOD Quickstep
  &DFT
    &QS
      METHOD PM6
      &SE
      &END
    &END QS
    &SCF
      MAX_SCF 0
    &END SCF
  &END DFT
  &SUBSYS
    &CELL
#16 atom simple cubic supercell of bcc with full symmetry & Pm(-3)m & O_h^1 & #2
      UNIT SCALED_ANGSTROM
     A   5.74000000  0.00000000  0.00000000
     B   0.00000000  5.74000000  0.00000000
     C   0.00000000  0.00000000  5.74000000
    &END CELL
    &COORD
Cr  0.00000000  0.00000000  0.00000000     0.00000000  0.00000000  0.00000000
Fe  0.24500000  0.24500000  0.24500000     1.40630000  1.40630000  1.40630000
Fe -0.24500000  0.24500000  0.24500000    -1.40630000  1.40630000  1.40630000
Fe  0.24500000 -0.24500000  0.24500000     1.40630000 -1.40630000  1.40630000
Fe  0.24500000  0.24500000 -0.24500000     1.40630000  1.40630000 -1.40630000
Fe -0.24500000 -0.24500000 -0.24500000    -1.40630000 -1.40630000 -1.40630000
Fe  0.24500000 -0.24500000 -0.24500000     1.40630000 -1.40630000 -1.40630000
Fe -0.24500000  0.24500000 -0.24500000    -1.40630000  1.40630000 -1.40630000
Fe -0.24500000 -0.24500000  0.24500000    -1.40630000 -1.40630000  1.40630000
Ni  0.50000000  0.00000000  0.00000000     2.87000000  0.00000000  0.00000000
Ni  0.00000000  0.50000000  0.00000000     0.00000000  2.87000000  0.00000000
Ni  0.00000000  0.00000000  0.50000000     0.00000000  0.00000000  2.87000000
Ni  0.00000000  0.50000000  0.50000000     0.00000000  2.87000000  2.87000000
Ni  0.50000000  0.00000000  0.50000000     2.87000000  0.00000000  2.87000000
Ni  0.50000000  0.50000000  0.00000000     2.87000000  2.87000000  0.00000000
Mo  0.50000000  0.50000000  0.50000000     2.87000000  2.87000000  2.87000000
    &END COORD
    &PRINT
      &SYMMETRY
       CHECK_SYMMETRY m<3>m
      &END
    &END
    &TOPOLOGY
      CONNECTIVITY OFF
    &END
  &END SUBSYS
&END FORCE_EVAL
&GLOBAL
  PROJECT symmetry
  RUN_TYPE ENERGY
&END GLOBAL
