&FORCE_EVAL
  METHOD Quickstep
  &DFT
    &QS
      METHOD PM6
      &SE
      &END
    &END QS
    &SCF
      MAX_SCF 0
    &END SCF
  &END DFT
  &SUBSYS
    &CELL
#Si(46) Clathrate & Pm(-3)n-O_h^3 #223 & cP46 & Adams et al. PRB 49, 8048 (1994)
     A  10.35500000   .00000000   .00000000
     B    .00000000 10.35500000   .00000000
     C    .00000000   .00000000 10.35500000
    &END CELL
    &COORD
 SCALED
Si   .25000000   .50000000   .00000000     2.58875000  5.17750000   .00000000
Si   .00000000   .25000000   .50000000      .00000000  2.58875000  5.17750000
Si   .50000000   .00000000   .25000000     5.17750000   .00000000  2.58875000
Si   .75000000   .50000000   .00000000     7.76625000  5.17750000   .00000000
Si   .00000000   .75000000   .50000000      .00000000  7.76625000  5.17750000
Si   .50000000   .00000000   .75000000     5.17750000   .00000000  7.76625000
Si   .18370000   .18370000   .18370000     1.90221350  1.90221350  1.90221350
Si  -.18370000  -.18370000  -.18370000    -1.90221350 -1.90221350 -1.90221350
Si   .18370000  -.18370000  -.18370000     1.90221350 -1.90221350 -1.90221350
Si  -.18370000   .18370000  -.18370000    -1.90221350  1.90221350 -1.90221350
Si  -.18370000  -.18370000   .18370000    -1.90221350 -1.90221350  1.90221350
Si  -.18370000   .18370000   .18370000    -1.90221350  1.90221350  1.90221350
Si   .18370000  -.18370000   .18370000     1.90221350 -1.90221350  1.90221350
Si   .18370000   .18370000  -.18370000     1.90221350  1.90221350 -1.90221350
Si   .68370000   .68370000   .68370000     7.07971350  7.07971350  7.07971350
Si  -.68370000  -.68370000  -.68370000    -7.07971350 -7.07971350 -7.07971350
Si   .68370000  -.68370000  -.68370000     7.07971350 -7.07971350 -7.07971350
Si  -.68370000   .68370000  -.68370000    -7.07971350  7.07971350 -7.07971350
Si  -.68370000  -.68370000   .68370000    -7.07971350 -7.07971350  7.07971350
Si  -.68370000   .68370000   .68370000    -7.07971350  7.07971350  7.07971350
Si   .68370000  -.68370000   .68370000     7.07971350 -7.07971350  7.07971350
Si   .68370000   .68370000  -.68370000     7.07971350  7.07971350 -7.07971350
Si   .00000000   .11720000   .30770000      .00000000  1.21360600  3.18623350
Si   .00000000  -.11720000  -.30770000      .00000000 -1.21360600 -3.18623350
Si   .30770000   .00000000   .11720000     3.18623350   .00000000  1.21360600
Si  -.30770000   .00000000  -.11720000    -3.18623350   .00000000 -1.21360600
Si   .11720000   .30770000   .00000000     1.21360600  3.18623350   .00000000
Si  -.11720000  -.30770000   .00000000    -1.21360600 -3.18623350   .00000000
Si   .00000000   .11720000  -.30770000      .00000000  1.21360600 -3.18623350
Si   .00000000  -.11720000   .30770000      .00000000 -1.21360600  3.18623350
Si  -.30770000   .00000000   .11720000    -3.18623350   .00000000  1.21360600
Si   .30770000   .00000000  -.11720000     3.18623350   .00000000 -1.21360600
Si   .11720000  -.30770000   .00000000     1.21360600 -3.18623350   .00000000
Si  -.11720000   .30770000   .00000000    -1.21360600  3.18623350   .00000000
Si   .50000000   .80770000   .61720000     5.17750000  8.36373350  6.39110600
Si   .50000000  -.80770000  -.61720000     5.17750000 -8.36373350 -6.39110600
Si   .50000000  -.80770000   .61720000     5.17750000 -8.36373350  6.39110600
Si   .50000000   .80770000  -.61720000     5.17750000  8.36373350 -6.39110600
Si   .61720000   .50000000   .80770000     6.39110600  5.17750000  8.36373350
Si  -.61720000   .50000000  -.80770000    -6.39110600  5.17750000 -8.36373350
Si   .61720000   .50000000  -.80770000     6.39110600  5.17750000 -8.36373350
Si  -.61720000   .50000000   .80770000    -6.39110600  5.17750000  8.36373350
Si   .80770000   .61720000   .50000000     8.36373350  6.39110600  5.17750000
Si  -.80770000  -.61720000   .50000000    -8.36373350 -6.39110600  5.17750000
Si  -.80770000   .61720000   .50000000    -8.36373350  6.39110600  5.17750000
Si   .80770000  -.61720000   .50000000     8.36373350 -6.39110600  5.17750000
    &END COORD
    &PRINT
      &SYMMETRY
       CHECK_SYMMETRY m<3>m
      &END
    &END
    &TOPOLOGY
      CONNECTIVITY OFF
    &END
  &END SUBSYS
&END FORCE_EVAL
&GLOBAL
  PROJECT symmetry
  RUN_TYPE ENERGY
&END GLOBAL
