&FORCE_EVAL
  METHOD Quickstep
  &DFT
    LSD
    &QS
      METHOD PM6
      &SE
      &END
    &END QS
    &SCF
      MAX_SCF 0
    &END SCF
  &END DFT
  &SUBSYS
    &CELL
#alpha Re O_3 & Pm(-3)m (#221) & cP4 & D0_9
      UNIT SCALED_ANGSTROM
     A   3.74774000   .00000000   .00000000
     B    .00000000  3.74774000   .00000000
     C    .00000000   .00000000  3.74774000
    &END CELL
    &COORD
Re   .00000000   .00000000   .00000000      .00000000   .00000000   .00000000
O    .50000000   .00000000   .00000000     1.87387000   .00000000   .00000000
O    .00000000   .50000000   .00000000      .00000000  1.87387000   .00000000
O    .00000000   .00000000   .50000000      .00000000   .00000000  1.87387000
    &END COORD
    &PRINT
      &SYMMETRY
       CHECK_SYMMETRY m<3>m
      &END
    &END
    &TOPOLOGY
      CONNECTIVITY OFF
    &END
  &END SUBSYS
&END FORCE_EVAL
&GLOBAL
  PROJECT symmetry
  RUN_TYPE ENERGY
&END GLOBAL
