&FORCE_EVAL
  METHOD Quickstep
  &DFT
    &QS
      METHOD PM6
      &SE
      &END
    &END QS
    &SCF
      MAX_SCF 0
    &END SCF
  &END DFT
  &SUBSYS
    &CELL
#27 atom bcc supercell of bcc with full symmetry & Im(-3)m & O_h^9 & #229 & cI27
     A  -4.30500000  4.30500000  4.30500000
     B   4.30500000 -4.30500000  4.30500000
     C   4.30500000  4.30500000 -4.30500000
    &END CELL
    &COORD
 SCALED
Cr  0.00000000  0.00000000  0.00000000     0.00000000  0.00000000  0.00000000
Fe  0.30000000  0.30000000  0.30000000     1.29150000  1.29150000  1.29150000
Fe  0.30000000  0.00000000  0.00000000    -1.29150000  1.29150000  1.29150000
Fe  0.00000000  0.30000000  0.00000000     1.29150000 -1.29150000  1.29150000
Fe  0.00000000  0.00000000  0.30000000     1.29150000  1.29150000 -1.29150000
Fe -0.30000000 -0.30000000 -0.30000000    -1.29150000 -1.29150000 -1.29150000
Fe -0.30000000  0.00000000  0.00000000     1.29150000 -1.29150000 -1.29150000
Fe  0.00000000 -0.30000000  0.00000000    -1.29150000  1.29150000 -1.29150000
Fe  0.00000000  0.00000000 -0.30000000    -1.29150000 -1.29150000  1.29150000
Ni  0.00000000  0.34000000  0.34000000     2.92740000  0.00000000  0.00000000
Ni  0.34000000  0.00000000  0.34000000     0.00000000  2.92740000  0.00000000
Ni  0.34000000  0.34000000  0.00000000     0.00000000  0.00000000  2.92740000
Ni  0.00000000 -0.34000000 -0.34000000    -2.92740000  0.00000000  0.00000000
Ni -0.34000000  0.00000000 -0.34000000     0.00000000 -2.92740000  0.00000000
Ni -0.34000000 -0.34000000  0.00000000     0.00000000  0.00000000 -2.92740000
Fe  0.64000000  0.32000000  0.32000000     0.00000000  2.75520000  2.75520000
Fe  0.32000000  0.64000000  0.32000000     2.75520000  0.00000000  2.75520000
Fe  0.32000000  0.32000000  0.64000000     2.75520000  2.75520000  0.00000000
Fe  0.00000000 -0.32000000  0.32000000     0.00000000  2.75520000 -2.75520000
Fe -0.32000000  0.00000000  0.32000000     2.75520000  0.00000000 -2.75520000
Fe -0.32000000  0.32000000  0.00000000     2.75520000 -2.75520000  0.00000000
Fe -0.64000000 -0.32000000 -0.32000000     0.00000000 -2.75520000 -2.75520000
Fe -0.32000000 -0.64000000 -0.32000000    -2.75520000  0.00000000 -2.75520000
Fe -0.32000000 -0.32000000 -0.64000000    -2.75520000 -2.75520000  0.00000000
Fe  0.00000000  0.32000000 -0.32000000     0.00000000 -2.75520000  2.75520000
Fe  0.32000000  0.00000000 -0.32000000    -2.75520000  0.00000000  2.75520000
Fe  0.32000000 -0.32000000  0.00000000    -2.75520000  2.75520000  0.00000000
    &END COORD
    &PRINT
      &SYMMETRY
       CHECK_SYMMETRY m<3>m
      &END
    &END
    &TOPOLOGY
      CONNECTIVITY OFF
    &END
  &END SUBSYS
&END FORCE_EVAL
&GLOBAL
  PROJECT symmetry
  RUN_TYPE ENERGY
&END GLOBAL
