&FORCE_EVAL
  METHOD Quickstep
  &DFT
    &QS
      METHOD PM6
      &SE
      &END
    &END QS
    &SCF
      MAX_SCF 0
    &END SCF
  &END DFT
  &SUBSYS
    &CELL
#Fe_3 W_3 C & E9_3 & Fd(-3)m-O_h^7 #227 & cF112 & Strukturbericht II pp. 71-2
      UNIT SCALED_ANGSTROM
     A   0.00000000  5.52000000  5.52000000
     B   5.52000000  0.00000000  5.52000000
     C   5.52000000  5.52000000  0.00000000
    &END CELL
    &COORD
C   0.00000000  0.00000000  0.00000000     0.00000000  0.00000000  0.00000000
C   0.50000000  0.00000000  0.00000000     0.00000000  2.76000000  2.76000000
C   0.00000000  0.50000000  0.00000000     2.76000000  0.00000000  2.76000000
C   0.00000000  0.00000000  0.50000000     2.76000000  2.76000000  0.00000000
Cr  0.00000000  0.50000000 -0.50000000     0.00000000 -2.76000000  2.76000000
Cr  0.50000000  0.00000000 -0.50000000    -2.76000000  0.00000000  2.76000000
Cr  0.50000000 -0.50000000  0.00000000    -2.76000000  2.76000000  0.00000000
Cr -0.50000000  0.50000000  0.50000000     5.52000000  0.00000000  0.00000000
Fe  0.05000000  0.05000000  0.05000000     0.55200000  0.55200000  0.55200000
Fe  0.05000000  0.05000000  0.35000000     2.20800000  2.20800000  0.55200000
Fe  0.05000000  0.35000000  0.05000000     2.20800000  0.55200000  2.20800000
Fe  0.35000000  0.05000000  0.05000000     0.55200000  2.20800000  2.20800000
Fe -0.05000000 -0.05000000 -0.05000000    -0.55200000 -0.55200000 -0.55200000
Fe -0.05000000 -0.05000000 -0.35000000    -2.20800000 -2.20800000 -0.55200000
Fe -0.05000000 -0.35000000 -0.05000000    -2.20800000 -0.55200000 -2.20800000
Fe -0.35000000 -0.05000000 -0.05000000    -0.55200000 -2.20800000 -2.20800000
W   0.32000000 -0.07000000 -0.07000000    -0.77280000  1.38000000  1.38000000
W  -0.07000000  0.32000000 -0.07000000     1.38000000 -0.77280000  1.38000000
W  -0.07000000 -0.07000000  0.32000000     1.38000000  1.38000000 -0.77280000
W  -0.07000000  0.32000000  0.32000000     3.53280000  1.38000000  1.38000000
W   0.32000000 -0.07000000  0.32000000     1.38000000  3.53280000  1.38000000
W   0.32000000  0.32000000 -0.07000000     1.38000000  1.38000000  3.53280000
W  -0.32000000  0.07000000  0.07000000     0.77280000 -1.38000000 -1.38000000
W   0.07000000 -0.32000000  0.07000000    -1.38000000  0.77280000 -1.38000000
W   0.07000000  0.07000000 -0.32000000    -1.38000000 -1.38000000  0.77280000
W   0.07000000 -0.32000000 -0.32000000    -3.53280000 -1.38000000 -1.38000000
W  -0.32000000  0.07000000 -0.32000000    -1.38000000 -3.53280000 -1.38000000
W  -0.32000000 -0.32000000  0.07000000    -1.38000000 -1.38000000 -3.53280000
    &END COORD
    &PRINT
      &SYMMETRY
       CHECK_SYMMETRY m<3>m
      &END
    &END
    &TOPOLOGY
      CONNECTIVITY OFF
    &END
  &END SUBSYS
&END FORCE_EVAL
&GLOBAL
  PROJECT symmetry
  RUN_TYPE ENERGY
&END GLOBAL
