&FORCE_EVAL
  METHOD Quickstep
  &DFT
    &QS
      METHOD PM6
      &SE
      &END
    &END QS
    &SCF
      MAX_SCF 0
    &END SCF
  &END DFT
  &SUBSYS
    &CELL
#Al Mg_2 O_4 & Fd(-3m) (#227) & cF56 & H1_1 & Spinel & Pearson's Handbook v. I, p. 906
     A    .00000000  4.03750000  4.03750000
     B   4.03750000   .00000000  4.03750000
     C   4.03750000  4.03750000   .00000000
    &END CELL
    &COORD
 SCALED
Mg   .12500000   .12500000   .12500000     1.00937500  1.00937500  1.00937500
Mg  -.12500000  -.12500000  -.12500000    -1.00937500 -1.00937500 -1.00937500
Al   .50000000   .50000000   .50000000     4.03750000  4.03750000  4.03750000
Al   .00000000   .50000000   .50000000     4.03750000  2.01875000  2.01875000
Al   .50000000   .00000000   .50000000     2.01875000  4.03750000  2.01875000
Al   .50000000   .50000000   .00000000     2.01875000  2.01875000  4.03750000
O    .23600000   .23600000   .23600000     1.90570000  1.90570000  1.90570000
O   -.20800000   .23600000   .23600000     1.90570000   .11305000   .11305000
O    .23600000  -.20800000   .23600000      .11305000  1.90570000   .11305000
O    .23600000   .23600000  -.20800000      .11305000   .11305000  1.90570000
O   -.23600000  -.23600000  -.23600000    -1.90570000 -1.90570000 -1.90570000
O    .20800000  -.23600000  -.23600000    -1.90570000  -.11305000  -.11305000
O   -.23600000   .20800000  -.23600000     -.11305000 -1.90570000  -.11305000
O   -.23600000  -.23600000   .20800000     -.11305000  -.11305000 -1.90570000
    &END COORD
    &PRINT
      &SYMMETRY
       CHECK_SYMMETRY m<3>m
      &END
    &END
    &TOPOLOGY
      CONNECTIVITY OFF
    &END
  &END SUBSYS
&END FORCE_EVAL
&GLOBAL
  PROJECT symmetry
  RUN_TYPE ENERGY
&END GLOBAL
