&FORCE_EVAL
  METHOD Quickstep
  &DFT
    &QS
      METHOD PM6
      &SE
      &END
    &END QS
    &SCF
      MAX_SCF 0
    &END SCF
  &END DFT
  &SUBSYS
    &CELL
#Ga_4 Ni_3 & Ia(-3)d & O_h^{10} & #230 & cI112 & Pearson's Handbook
     A  -5.70550000  5.70550000  5.70550000
     B   5.70550000 -5.70550000  5.70550000
     C   5.70550000  5.70550000 -5.70550000
    &END CELL
    &COORD
 SCALED
Ga  0.00000000  0.00000000  0.00000000     0.00000000  0.00000000  0.00000000
Ga  0.00000000  0.50000000  0.50000000     5.70550000  0.00000000  0.00000000
Ga  0.50000000  0.00000000  0.50000000     0.00000000  5.70550000  0.00000000
Ga  0.50000000  0.50000000  0.00000000     0.00000000  0.00000000  5.70550000
Ga  0.50000000  0.00000000  0.00000000    -2.85275000  2.85275000  2.85275000
Ga  0.00000000  0.50000000  0.00000000     2.85275000 -2.85275000  2.85275000
Ga  0.00000000  0.00000000  0.50000000     2.85275000  2.85275000 -2.85275000
Ga  0.50000000  0.50000000  0.50000000     2.85275000  2.85275000  2.85275000
Ga  0.25000000  0.25010000  0.00010000     0.00114110  0.00000000  2.85275000
Ga -0.25000000  0.24990000  0.49990000     5.70435890  0.00000000 -2.85275000
Ga  0.00010000  0.25000000  0.25010000     2.85275000  0.00114110  0.00000000
Ga  0.49990000 -0.25000000  0.24990000    -2.85275000  5.70435890  0.00000000
Ga  0.25010000  0.00010000  0.25000000     0.00000000  2.85275000  0.00114110
Ga  0.24990000  0.49990000 -0.25000000     0.00000000 -2.85275000  5.70435890
Ga  0.25010000 -0.25000000  0.00010000    -2.85275000  2.85389110  0.00000000
Ga  0.24990000  0.25000000  0.49990000     2.85275000  2.85160890  0.00000000
Ga -0.25000000  0.00010000  0.25010000     2.85389110  0.00000000 -2.85275000
Ga  0.25000000  0.49990000  0.24990000     2.85160890  0.00000000  2.85275000
Ga  0.49990000  0.24990000  0.25000000     0.00000000  2.85275000  2.85160890
Ga  0.00010000  0.25010000 -0.25000000     0.00000000 -2.85275000  2.85389110
Ga -0.25000000 -0.25010000 -0.00010000    -0.00114110  0.00000000 -2.85275000
Ga  0.25000000 -0.24990000 -0.49990000    -5.70435890  0.00000000  2.85275000
Ga -0.00010000 -0.25000000 -0.25010000    -2.85275000 -0.00114110  0.00000000
Ga -0.49990000  0.25000000 -0.24990000     2.85275000 -5.70435890  0.00000000
Ga -0.25010000 -0.00010000 -0.25000000     0.00000000 -2.85275000 -0.00114110
Ga -0.24990000 -0.49990000  0.25000000     0.00000000  2.85275000 -5.70435890
Ga -0.25010000  0.25000000 -0.00010000     2.85275000 -2.85389110  0.00000000
Ga -0.24990000 -0.25000000 -0.49990000    -2.85275000 -2.85160890  0.00000000
Ga  0.25000000 -0.00010000 -0.25010000    -2.85389110  0.00000000  2.85275000
Ga -0.25000000 -0.49990000 -0.24990000    -2.85160890  0.00000000 -2.85275000
Ga -0.49990000 -0.24990000 -0.25000000     0.00000000 -2.85275000 -2.85160890
Ga -0.00010000 -0.25010000  0.25000000     0.00000000  2.85275000 -2.85389110
Ni  0.25000000 -0.00010000 -0.49990000    -4.27912500 -1.42523390  4.27798390
Ni -0.00020000 -0.25010000 -0.00010000    -1.42637500  1.42523390 -1.42751610
Ni -0.49980000 -0.49990000 -0.24990000    -1.42637500 -1.42523390 -4.27798390
Ni  0.25000000 -0.24990000 -0.25010000    -4.27912500  1.42523390  1.42751610
Ni -0.49990000  0.25000000 -0.00010000     4.27798390 -4.27912500 -1.42523390
Ni -0.00010000 -0.00020000 -0.25010000    -1.42751610 -1.42637500  1.42523390
Ni -0.24990000 -0.49980000 -0.49990000    -4.27798390 -1.42637500 -1.42523390
Ni -0.25010000  0.25000000 -0.24990000     1.42751610 -4.27912500  1.42523390
Ni -0.00010000 -0.49990000  0.25000000    -1.42523390  4.27798390 -4.27912500
Ni -0.25010000 -0.00010000 -0.00020000     1.42523390 -1.42751610 -1.42637500
Ni -0.49990000 -0.24990000 -0.49980000    -1.42523390 -4.27798390 -1.42637500
Ni -0.24990000 -0.25010000  0.25000000     1.42523390  1.42751610 -4.27912500
Ni -0.25000000  0.00010000  0.49990000     4.27912500  1.42523390 -4.27798390
Ni  0.00020000  0.25010000  0.00010000     1.42637500 -1.42523390  1.42751610
Ni  0.49980000  0.49990000 -0.75010000    -4.27912500 -4.28026610  9.98348390
Ni -0.25000000  0.24990000  0.25010000     4.27912500 -1.42523390 -1.42751610
Ni  0.49990000 -0.25000000  0.00010000    -4.27798390  4.27912500  1.42523390
Ni  0.00010000  0.00020000  0.25010000     1.42751610  1.42637500 -1.42523390
Ni  0.24990000  0.49980000  0.49990000     4.27798390  1.42637500  1.42523390
Ni  0.25010000 -0.25000000  0.24990000    -1.42751610  4.27912500 -1.42523390
Ni  0.00010000  0.49990000 -0.25000000     1.42523390 -4.27798390  4.27912500
Ni  0.25010000  0.00010000  0.00020000    -1.42523390  1.42751610  1.42637500
Ni  0.49990000  0.24990000  0.49980000     1.42523390  4.27798390  1.42637500
Ni  0.24990000  0.25010000 -0.25000000    -1.42523390 -1.42751610  4.27912500
    &END COORD
    &PRINT
      &SYMMETRY
       CHECK_SYMMETRY m<3>m
      &END
    &END
    &TOPOLOGY
      CONNECTIVITY OFF
    &END
  &END SUBSYS
&END FORCE_EVAL
&GLOBAL
  PROJECT symmetry
  RUN_TYPE ENERGY
&END GLOBAL
