&FORCE_EVAL
  METHOD Quickstep
  &DFT
    &QS
      METHOD PM6
      &SE
      &END
    &END QS
    &SCF
      MAX_SCF 0
    &END SCF
  &END DFT
  &SUBSYS
    &CELL
#AlMnCu_2   cF16 Fm(-3)m (#225)  L2_1 (Heusler)
     A    .00000000  2.97850000  2.97850000
     B   2.97850000   .00000000  2.97850000
     C   2.97850000  2.97850000   .00000000
    &END CELL
    &COORD
 SCALED
Al   .00000000   .00000000   .00000000      .00000000   .00000000   .00000000
Mn   .50000000   .50000000   .50000000     2.97850000  2.97850000  2.97850000
Cu  -.25000000  -.25000000  -.25000000    -1.48925000 -1.48925000 -1.48925000
Cu   .25000000   .25000000   .25000000     1.48925000  1.48925000  1.48925000
    &END COORD
    &PRINT
      &SYMMETRY
       CHECK_SYMMETRY m<3>m
      &END
    &END
    &TOPOLOGY
      CONNECTIVITY OFF
    &END
  &END SUBSYS
&END FORCE_EVAL
&GLOBAL
  PROJECT symmetry
  RUN_TYPE ENERGY
&END GLOBAL
