&FORCE_EVAL
  METHOD Quickstep
  &DFT
    &QS
      METHOD PM6
      &SE
      &END
    &END QS
    &SCF
      MAX_SCF 0
    &END SCF
  &END DFT
  &SUBSYS
    &CELL
#27 atom fcc supercell of fcc with full symmetry & Fm(-3)m & O_h^5 & #225 & cF10
     A   0.00000000  5.28000000  5.28000000
     B   5.28000000  0.00000000  5.28000000
     C   5.28000000  5.28000000  0.00000000
    &END CELL
    &COORD
 SCALED
Cr  0.00000000  0.00000000  0.00000000     0.00000000  0.00000000  0.00000000
Fe  0.32000000  0.00000000  0.00000000     0.00000000  1.68960000  1.68960000
Fe  0.00000000  0.32000000  0.00000000     1.68960000  0.00000000  1.68960000
Fe  0.00000000  0.00000000  0.32000000     1.68960000  1.68960000  0.00000000
Fe  0.00000000 -0.32000000  0.32000000     0.00000000  1.68960000 -1.68960000
Fe -0.32000000  0.00000000  0.32000000     1.68960000  0.00000000 -1.68960000
Fe -0.32000000  0.32000000  0.00000000     1.68960000 -1.68960000  0.00000000
Fe  0.00000000  0.32000000 -0.32000000     0.00000000 -1.68960000  1.68960000
Fe  0.32000000  0.00000000 -0.32000000    -1.68960000  0.00000000  1.68960000
Fe  0.32000000 -0.32000000  0.00000000    -1.68960000  1.68960000  0.00000000
Fe -0.32000000  0.00000000  0.00000000     0.00000000 -1.68960000 -1.68960000
Fe  0.00000000 -0.32000000  0.00000000    -1.68960000  0.00000000 -1.68960000
Fe  0.00000000  0.00000000 -0.32000000    -1.68960000 -1.68960000  0.00000000
Fe -0.32500000  0.32500000  0.32500000     3.43200000  0.00000000  0.00000000
Fe  0.32500000 -0.32500000  0.32500000     0.00000000  3.43200000  0.00000000
Fe  0.32500000  0.32500000 -0.32500000     0.00000000  0.00000000  3.43200000
Fe  0.32500000 -0.32500000 -0.32500000    -3.43200000  0.00000000  0.00000000
Fe -0.32500000  0.32500000 -0.32500000     0.00000000 -3.43200000  0.00000000
Fe -0.32500000 -0.32500000  0.32500000     0.00000000  0.00000000 -3.43200000
Ni  0.34167000  0.34167000  0.34167000     3.60803520  3.60803520  3.60803520
Ni  1.02500000 -0.34167000 -0.34167000    -3.60803520  3.60798240  3.60798240
Ni -0.34167000  1.02500000 -0.34167000     3.60798240 -3.60803520  3.60798240
Ni -0.34167000 -0.34167000  1.02500000     3.60798240  3.60798240 -3.60803520
Ni -0.34167000 -0.34167000 -0.34167000    -3.60803520 -3.60803520 -3.60803520
Ni -1.02500000  0.34167000  0.34167000     3.60803520 -3.60798240 -3.60798240
Ni  0.34167000 -1.02500000  0.34167000    -3.60798240  3.60803520 -3.60798240
Ni  0.34167000  0.34167000 -1.02500000    -3.60798240 -3.60798240  3.60803520
    &END COORD
    &PRINT
      &SYMMETRY
       CHECK_SYMMETRY m<3>m
      &END
    &END
    &TOPOLOGY
      CONNECTIVITY OFF
    &END
  &END SUBSYS
&END FORCE_EVAL
&GLOBAL
  PROJECT symmetry
  RUN_TYPE ENERGY
&END GLOBAL
