&FORCE_EVAL
  METHOD Quickstep
  &DFT
    &QS
      METHOD PM6
      &SE
      &END
    &END QS
    &SCF
      MAX_SCF 0
    &END SCF
  &END DFT
  &SUBSYS
    &CELL
#B_6 Ca & Pm(-3)m & #221 & cP7 & D2_1
     A   4.14500000   .00000000   .00000000
     B    .00000000  4.14500000   .00000000
     C    .00000000   .00000000  4.14500000
    &END CELL
    &COORD
 SCALED
Ca   .00000000   .00000000   .00000000      .00000000   .00000000   .00000000
B    .20700000   .50000000   .50000000      .85801500  2.07250000  2.07250000
B   -.20700000   .50000000   .50000000     -.85801500  2.07250000  2.07250000
B    .50000000   .20700000   .50000000     2.07250000   .85801500  2.07250000
B    .50000000  -.20700000   .50000000     2.07250000  -.85801500  2.07250000
B    .50000000   .50000000   .20700000     2.07250000  2.07250000   .85801500
B    .50000000   .50000000  -.20700000     2.07250000  2.07250000  -.85801500
    &END COORD
    &PRINT
      &SYMMETRY
       CHECK_SYMMETRY m<3>m
      &END
    &END
    &TOPOLOGY
      CONNECTIVITY OFF
    &END
  &END SUBSYS
&END FORCE_EVAL
&GLOBAL
  PROJECT symmetry
  RUN_TYPE ENERGY
&END GLOBAL
