&FORCE_EVAL
  METHOD Quickstep
  &DFT
    LSD
    &QS
      METHOD PM6
      &SE
      &END
    &END QS
    &SCF
      MAX_SCF 0
    &END SCF
  &END DFT
  &SUBSYS
    &CELL
#Au (standing in for Cu) & Fm(-3)m & #225 & cF4 & A1 & Ashcroft and Mermin, 70
      UNIT SCALED_ANGSTROM
     A    .00000000  2.04000000  2.04000000
     B   2.04000000   .00000000  2.04000000
     C   2.04000000  2.04000000   .00000000
    &END CELL
    &COORD
Au   .00000000   .00000000   .00000000      .00000000   .00000000   .00000000
    &END COORD
    &PRINT
      &SYMMETRY
       CHECK_SYMMETRY m<3>m
      &END
    &END
    &TOPOLOGY
      CONNECTIVITY OFF
    &END
  &END SUBSYS
&END FORCE_EVAL
&GLOBAL
  PROJECT symmetry
  RUN_TYPE ENERGY
&END GLOBAL
