&FORCE_EVAL
  METHOD Quickstep
  &DFT
    &QS
      METHOD PM6
      &SE
      &END
    &END QS
    &SCF
      MAX_SCF 0
    &END SCF
  &END DFT
  &SUBSYS
    &CELL
#Ba Hg_{11} & Pm(-3)m-O_h^1 #221 & cP36 & D2_e & Pearon's Alloys pp. 751-3
      UNIT SCALED_ANGSTROM
     A   9.60000000  0.00000000  0.00000000
     B   0.00000000  9.60000000  0.00000000
     C   0.00000000  0.00000000  9.60000000
    &END CELL
    &COORD
Ba  0.50000000  0.00000000  0.00000000     4.80000000  0.00000000  0.00000000
Ba  0.00000000  0.50000000  0.00000000     0.00000000  4.80000000  0.00000000
Ba  0.00000000  0.00000000  0.50000000     0.00000000  0.00000000  4.80000000
Hg  0.50000000  0.50000000  0.50000000     4.80000000  4.80000000  4.80000000
Hg  0.15500000  0.15500000  0.15500000     1.48800000  1.48800000  1.48800000
Hg -0.15500000  0.15500000  0.15500000    -1.48800000  1.48800000  1.48800000
Hg  0.15500000 -0.15500000  0.15500000     1.48800000 -1.48800000  1.48800000
Hg  0.15500000  0.15500000 -0.15500000     1.48800000  1.48800000 -1.48800000
Hg -0.15500000 -0.15500000 -0.15500000    -1.48800000 -1.48800000 -1.48800000
Hg  0.15500000 -0.15500000 -0.15500000     1.48800000 -1.48800000 -1.48800000
Hg -0.15500000  0.15500000 -0.15500000    -1.48800000  1.48800000 -1.48800000
Hg -0.15500000 -0.15500000  0.15500000    -1.48800000 -1.48800000  1.48800000
Hg  0.00000000  0.34500000  0.34500000     0.00000000  3.31200000  3.31200000
Hg  0.34500000  0.00000000  0.34500000     3.31200000  0.00000000  3.31200000
Hg  0.34500000  0.34500000  0.00000000     3.31200000  3.31200000  0.00000000
Hg  0.00000000  0.34500000 -0.34500000     0.00000000  3.31200000 -3.31200000
Hg  0.34500000  0.00000000 -0.34500000     3.31200000  0.00000000 -3.31200000
Hg  0.34500000 -0.34500000  0.00000000     3.31200000 -3.31200000  0.00000000
Hg  0.00000000 -0.34500000 -0.34500000     0.00000000 -3.31200000 -3.31200000
Hg -0.34500000  0.00000000 -0.34500000    -3.31200000  0.00000000 -3.31200000
Hg -0.34500000 -0.34500000  0.00000000    -3.31200000 -3.31200000  0.00000000
Hg  0.00000000 -0.34500000  0.34500000     0.00000000 -3.31200000  3.31200000
Hg -0.34500000  0.00000000  0.34500000    -3.31200000  0.00000000  3.31200000
Hg -0.34500000  0.34500000  0.00000000    -3.31200000  3.31200000  0.00000000
Hg  0.50000000  0.27500000  0.27500000     4.80000000  2.64000000  2.64000000
Hg  0.27500000  0.50000000  0.27500000     2.64000000  4.80000000  2.64000000
Hg  0.27500000  0.27500000  0.50000000     2.64000000  2.64000000  4.80000000
Hg  0.50000000  0.27500000 -0.27500000     4.80000000  2.64000000 -2.64000000
Hg  0.27500000  0.50000000 -0.27500000     2.64000000  4.80000000 -2.64000000
Hg  0.27500000 -0.27500000  0.50000000     2.64000000 -2.64000000  4.80000000
Hg  0.50000000 -0.27500000 -0.27500000     4.80000000 -2.64000000 -2.64000000
Hg -0.27500000  0.50000000 -0.27500000    -2.64000000  4.80000000 -2.64000000
Hg -0.27500000 -0.27500000  0.50000000    -2.64000000 -2.64000000  4.80000000
Hg  0.50000000 -0.27500000  0.27500000     4.80000000 -2.64000000  2.64000000
Hg -0.27500000  0.50000000  0.27500000    -2.64000000  4.80000000  2.64000000
Hg -0.27500000  0.27500000  0.50000000    -2.64000000  2.64000000  4.80000000
    &END COORD
    &PRINT
      &SYMMETRY
       CHECK_SYMMETRY m<3>m
      &END
    &END
    &TOPOLOGY
      CONNECTIVITY OFF
    &END
  &END SUBSYS
&END FORCE_EVAL
&GLOBAL
  PROJECT symmetry
  RUN_TYPE ENERGY
&END GLOBAL
