&FORCE_EVAL
  METHOD Quickstep
  &DFT
    &QS
      METHOD PM6
      &SE
      &END
    &END QS
    &SCF
      MAX_SCF 0
    &END SCF
  &END DFT
  &SUBSYS
    &CELL
#Si(34) Clathrate & Fd(-3)m-O_h^7 #227 & cF136 & Adams et al. PRB 49, 8048 (1994)
      UNIT SCALED_ANGSTROM
     A    .00000000  7.43200000  7.43200000
     B   7.43200000   .00000000  7.43200000
     C   7.43200000  7.43200000   .00000000
    &END CELL
    &COORD
Si   .12500000   .12500000   .12500000     1.85800000  1.85800000  1.85800000
Si  -.12500000  -.12500000  -.12500000    -1.85800000 -1.85800000 -1.85800000
Si   .21740000   .21740000   .21740000     3.23143360  3.23143360  3.23143360
Si  -.15220000   .21740000   .21740000     3.23143360   .48456640   .48456640
Si   .21740000  -.15220000   .21740000      .48456640  3.23143360   .48456640
Si   .21740000   .21740000  -.15220000      .48456640   .48456640  3.23143360
Si  -.21740000  -.21740000  -.21740000    -3.23143360 -3.23143360 -3.23143360
Si   .15220000  -.21740000  -.21740000    -3.23143360  -.48456640  -.48456640
Si  -.21740000   .15220000  -.21740000     -.48456640 -3.23143360  -.48456640
Si  -.21740000  -.21740000   .15220000     -.48456640  -.48456640 -3.23143360
Si   .37010000   .37010000  -.00530000     2.71119360  2.71119360  5.50116640
Si  -.23490000  -.00530000   .37010000     2.71119360  1.00480640 -1.78516640
Si  -.00530000  -.23490000   .37010000     1.00480640  2.71119360 -1.78516640
Si   .37010000   .37010000  -.23490000     1.00480640  1.00480640  5.50116640
Si  -.37010000  -.37010000   .00530000    -2.71119360 -2.71119360 -5.50116640
Si   .23490000   .00530000  -.37010000    -2.71119360 -1.00480640  1.78516640
Si   .00530000   .23490000  -.37010000    -1.00480640 -2.71119360  1.78516640
Si  -.37010000  -.37010000   .23490000    -1.00480640 -1.00480640 -5.50116640
Si  -.00530000   .37010000   .37010000     5.50116640  2.71119360  2.71119360
Si  -.23490000   .37010000   .37010000     5.50116640  1.00480640  1.00480640
Si   .37010000  -.23490000  -.00530000    -1.78516640  2.71119360  1.00480640
Si   .37010000  -.00530000  -.23490000    -1.78516640  1.00480640  2.71119360
Si   .00530000  -.37010000  -.37010000    -5.50116640 -2.71119360 -2.71119360
Si   .23490000  -.37010000  -.37010000    -5.50116640 -1.00480640 -1.00480640
Si  -.37010000   .23490000   .00530000     1.78516640 -2.71119360 -1.00480640
Si  -.37010000   .00530000   .23490000     1.78516640 -1.00480640 -2.71119360
Si   .37010000  -.00530000   .37010000     2.71119360  5.50116640  2.71119360
Si  -.23490000   .37010000  -.00530000     2.71119360 -1.78516640  1.00480640
Si   .37010000  -.23490000   .37010000     1.00480640  5.50116640  1.00480640
Si  -.00530000   .37010000  -.23490000     1.00480640 -1.78516640  2.71119360
Si  -.37010000   .00530000  -.37010000    -2.71119360 -5.50116640 -2.71119360
Si   .23490000  -.37010000   .00530000    -2.71119360  1.78516640 -1.00480640
Si  -.37010000   .23490000  -.37010000    -1.00480640 -5.50116640 -1.00480640
Si   .00530000  -.37010000   .23490000    -1.00480640  1.78516640 -2.71119360
    &END COORD
    &PRINT
      &SYMMETRY
       CHECK_SYMMETRY m<3>m
      &END
    &END
    &TOPOLOGY
      CONNECTIVITY OFF
    &END
  &END SUBSYS
&END FORCE_EVAL
&GLOBAL
  PROJECT symmetry
  RUN_TYPE ENERGY
&END GLOBAL
