&FORCE_EVAL
  METHOD Quickstep
  &DFT
    &QS
      METHOD PM6
      &SE
      &END
    &END QS
    &SCF
      MAX_SCF 0
    &END SCF
  &END DFT
  &SUBSYS
    &CELL
#Cu_2Mg (cubic Laves) & Fd(-3)m-O_h^7 (#227) & cF24 & C15 & Wyckoff Vol. I, p. 365
     A   0.00000000  3.51000000  3.51000000
     B   3.51000000  0.00000000  3.51000000
     C   3.51000000  3.51000000  0.00000000
    &END CELL
    &COORD
 SCALED
Mg  0.12500000  0.12500000  0.12500000     0.87750000  0.87750000  0.87750000
Mg -0.12500000 -0.12500000 -0.12500000    -0.87750000 -0.87750000 -0.87750000
Cu  0.50000000  0.50000000  0.50000000     3.51000000  3.51000000  3.51000000
Cu  0.00000000  0.50000000  0.50000000     3.51000000  1.75500000  1.75500000
Cu  0.50000000  0.00000000  0.50000000     1.75500000  3.51000000  1.75500000
Cu  0.50000000  0.50000000  0.00000000     1.75500000  1.75500000  3.51000000
    &END COORD
    &PRINT
      &SYMMETRY
       CHECK_SYMMETRY m<3>m
      &END
    &END
    &TOPOLOGY
      CONNECTIVITY OFF
    &END
  &END SUBSYS
&END FORCE_EVAL
&GLOBAL
  PROJECT symmetry
  RUN_TYPE ENERGY
&END GLOBAL
