&FORCE_EVAL
  METHOD Quickstep
  &DFT
    &QS
      METHOD PM6
      &SE
      &END
    &END QS
    &SCF
      MAX_SCF 0
    &END SCF
  &END DFT
  &SUBSYS
    &CELL
#32 atom simple supercell of fcc with full symmetry & Pm(-3)m & O_h^1 & #221 & c
      UNIT SCALED_ANGSTROM
     A   7.04000000  0.00000000  0.00000000
     B   0.00000000  7.04000000  0.00000000
     C   0.00000000  0.00000000  7.04000000
    &END CELL
    &COORD
Cr  0.00000000  0.00000000  0.00000000     0.00000000  0.00000000  0.00000000
Fe  0.00000000  0.24500000  0.24500000     0.00000000  1.72480000  1.72480000
Fe  0.24500000  0.00000000  0.24500000     1.72480000  0.00000000  1.72480000
Fe  0.24500000  0.24500000  0.00000000     1.72480000  1.72480000  0.00000000
Fe  0.00000000  0.24500000 -0.24500000     0.00000000  1.72480000 -1.72480000
Fe  0.24500000  0.00000000 -0.24500000     1.72480000  0.00000000 -1.72480000
Fe  0.24500000 -0.24500000  0.00000000     1.72480000 -1.72480000  0.00000000
Fe  0.00000000 -0.24500000  0.24500000     0.00000000 -1.72480000  1.72480000
Fe -0.24500000  0.00000000  0.24500000    -1.72480000  0.00000000  1.72480000
Fe -0.24500000  0.24500000  0.00000000    -1.72480000  1.72480000  0.00000000
Fe  0.00000000 -0.24500000 -0.24500000     0.00000000 -1.72480000 -1.72480000
Fe -0.24500000  0.00000000 -0.24500000    -1.72480000  0.00000000 -1.72480000
Fe -0.24500000 -0.24500000  0.00000000    -1.72480000 -1.72480000  0.00000000
Ni  0.50000000  0.00000000  0.00000000     3.52000000  0.00000000  0.00000000
Ni  0.00000000  0.50000000  0.00000000     0.00000000  3.52000000  0.00000000
Ni  0.00000000  0.00000000  0.50000000     0.00000000  0.00000000  3.52000000
Fe  0.50000000  0.26000000  0.26000000     3.52000000  1.83040000  1.83040000
Fe  0.26000000  0.50000000  0.26000000     1.83040000  3.52000000  1.83040000
Fe  0.26000000  0.26000000  0.50000000     1.83040000  1.83040000  3.52000000
Fe  0.50000000  0.26000000 -0.26000000     3.52000000  1.83040000 -1.83040000
Fe  0.26000000  0.50000000 -0.26000000     1.83040000  3.52000000 -1.83040000
Fe  0.26000000 -0.26000000  0.50000000     1.83040000 -1.83040000  3.52000000
Fe  0.50000000 -0.26000000  0.26000000     3.52000000 -1.83040000  1.83040000
Fe -0.26000000  0.50000000  0.26000000    -1.83040000  3.52000000  1.83040000
Fe -0.26000000  0.26000000  0.50000000    -1.83040000  1.83040000  3.52000000
Fe  0.50000000 -0.26000000 -0.26000000     3.52000000 -1.83040000 -1.83040000
Fe -0.26000000  0.50000000 -0.26000000    -1.83040000  3.52000000 -1.83040000
Fe -0.26000000 -0.26000000  0.50000000    -1.83040000 -1.83040000  3.52000000
Ni  0.00000000  0.50000000  0.50000000     0.00000000  3.52000000  3.52000000
Ni  0.50000000  0.00000000  0.50000000     3.52000000  0.00000000  3.52000000
Ni  0.50000000  0.50000000  0.00000000     3.52000000  3.52000000  0.00000000
Fe  0.50000000  0.50000000  0.50000000     3.52000000  3.52000000  3.52000000
    &END COORD
    &PRINT
      &SYMMETRY
       CHECK_SYMMETRY m<3>m
      &END
    &END
    &TOPOLOGY
      CONNECTIVITY OFF
    &END
  &END SUBSYS
&END FORCE_EVAL
&GLOBAL
  PROJECT symmetry
  RUN_TYPE ENERGY
&END GLOBAL
