&FORCE_EVAL
  METHOD Quickstep
  &DFT
    &QS
      METHOD PM6
      &SE
      &END
    &END QS
    &SCF
      MAX_SCF 0
    &END SCF
  &END DFT
  &SUBSYS
    &CELL
#Ag_2 O   (Cuprite) Pn(-3)m (#224) & cP6 & C3
      UNIT SCALED_ANGSTROM
     A   4.72300000   .00000000   .00000000
     B    .00000000  4.72300000   .00000000
     C    .00000000   .00000000  4.72300000
    &END CELL
    &COORD
Ag   .00000000   .00000000   .00000000      .00000000   .00000000   .00000000
Ag   .00000000   .50000000   .50000000      .00000000  2.36150000  2.36150000
Ag   .50000000   .00000000   .50000000     2.36150000   .00000000  2.36150000
Ag   .50000000   .50000000   .00000000     2.36150000  2.36150000   .00000000
O    .25000000   .25000000   .25000000     1.18075000  1.18075000  1.18075000
O    .75000000   .75000000   .75000000     3.54225000  3.54225000  3.54225000
    &END COORD
    &PRINT
      &SYMMETRY
       CHECK_SYMMETRY m<3>m
      &END
    &END
    &TOPOLOGY
      CONNECTIVITY OFF
    &END
  &END SUBSYS
&END FORCE_EVAL
&GLOBAL
  PROJECT symmetry
  RUN_TYPE ENERGY
&END GLOBAL
