&FORCE_EVAL
  METHOD Quickstep
  &DFT
    &QS
      METHOD PM6
      &SE
      &END
    &END QS
    &SCF
      MAX_SCF 0
    &END SCF
  &END DFT
  &SUBSYS
#Pb Zr_{.52} Ti_{.48} O_3 & Cm-C_s^3 #8 & mC10 & Noheda et al., PRB 61, 8687 (20
    &CELL
A  2.86102000 -2.85478500  0.00000000
B  2.86102000  2.85478500  0.00000000
C -0.03595300  0.00000000  4.13635380
    &END CELL
    &COORD
 SCALED
Pb  0.00000000  0.00000000  0.00000000     0.00000000  0.00000000  0.00000000
Zr  0.52300000  0.52300000  0.44920000     2.97647683  0.00000000  1.85805013
O   0.55150000  0.55150000 -0.09940000     3.15927879  0.00000000 -0.41115357
O   0.04460000  0.53140000  0.37290000     1.63454065  1.38970934  1.54244633
O   0.53140000  0.04460000  0.37290000     1.63454065 -1.38970934  1.54244633
    &END COORD
    &PRINT
      &SYMMETRY
       CHECK_SYMMETRY m
      &END
    &END
    &TOPOLOGY
      CONNECTIVITY OFF
    &END
  &END SUBSYS
&END FORCE_EVAL
&GLOBAL
  PROJECT symmetry
  RUN_TYPE ENERGY
&END GLOBAL
