&FORCE_EVAL
  METHOD Quickstep
  &DFT
    &QS
      METHOD PM6
      &SE
      &END
    &END QS
    &SCF
      MAX_SCF 0
    &END SCF
  &END DFT
  &SUBSYS
    &CELL
#B_2 Pd_5 & B2/b & #15 & C_{2h}^6 & mC28 & base-centered monoclinic primitive ce
     A   6.39000000 -2.47750000  0.00000000
     B   6.39000000  2.47750000  0.00000000
     C  -0.66971270  0.00000000  5.43086260
    &END CELL
    &COORD
 SCALED
Pd -0.57270000  0.57270000  0.25000000    -0.16742818  2.83772850  1.35771565
Pd  0.57270000 -0.57270000  0.75000000    -0.50228453 -2.83772850  4.07314695
B  -0.20500000  0.41700000  0.07700000     1.30311212  1.54100500  0.41817642
B  -0.41700000  0.20500000  0.42300000    -1.63796847  1.54100500  2.29725488
B   0.20500000 -0.41700000 -0.07700000    -1.30311212 -1.54100500 -0.41817642
B   0.41700000 -0.20500000 -0.42300000     1.63796847 -1.54100500 -2.29725488
Pd  0.00060000  0.19100000  0.42130000     0.94217404  0.47171600  2.28802241
Pd -0.19100000 -0.00060000  0.07870000    -1.27703039  0.47171600  0.42740889
Pd -0.00060000 -0.19100000 -0.42130000    -0.94217404 -0.47171600 -2.28802241
Pd  0.19100000  0.00060000 -0.07870000     1.27703039 -0.47171600 -0.42740889
Pd -0.35990000  0.78530000  0.31380000     2.50815015  2.83723300  1.70420468
Pd -0.78530000  0.35990000  0.18620000    -2.84300650  2.83723300  1.01122662
Pd  0.35990000 -0.78530000 -0.31380000    -2.50815015 -2.83723300 -1.70420468
Pd  0.78530000 -0.35990000 -0.18620000     2.84300650 -2.83723300 -1.01122662
    &END COORD
    &PRINT
      &SYMMETRY
       CHECK_SYMMETRY 2/m
      &END
    &END
    &TOPOLOGY
      CONNECTIVITY OFF
    &END
  &END SUBSYS
&END FORCE_EVAL
&GLOBAL
  PROJECT symmetry
  RUN_TYPE ENERGY
&END GLOBAL
