&FORCE_EVAL
  METHOD Quickstep
  &DFT
    &QS
      METHOD PM6
      &SE
      &END
    &END QS
    &SCF
      MAX_SCF 0
    &END SCF
  &END DFT
  &SUBSYS
    &CELL
#Al Cl_3 & C2/m-C_{2h}^3 #12 & mC8 & D0_{15} & Wyckoff, Vol. II, pp. 55-57
     A   2.96000000 -5.11000000  0.00000000
     B   2.96000000  5.11000000  0.00000000
     C  -1.90354468  0.00000000  5.85850814
    &END CELL
    &COORD
 SCALED
Al -0.16700000  0.16700000  0.00000000     0.00000000  1.70674000  0.00000000
Al  0.16700000 -0.16700000  0.00000000     0.00000000 -1.70674000  0.00000000
Cl  0.22600000  0.22600000  0.21900000     0.92104371  0.00000000  1.28301328
Cl -0.22600000 -0.22600000 -0.21900000    -0.92104371  0.00000000 -1.28301328
Cl  0.07500000  0.42500000 -0.21900000     1.89687629  1.78850000 -1.28301328
Cl  0.42500000  0.07500000 -0.21900000     1.89687629 -1.78850000 -1.28301328
Cl -0.07500000 -0.42500000  0.21900000    -1.89687629 -1.78850000  1.28301328
Cl -0.42500000 -0.07500000  0.21900000    -1.89687629  1.78850000  1.28301328
    &END COORD
    &PRINT
      &SYMMETRY
       CHECK_SYMMETRY 2/m
      &END
    &END
    &TOPOLOGY
      CONNECTIVITY OFF
    &END
  &END SUBSYS
&END FORCE_EVAL
&GLOBAL
  PROJECT symmetry
  RUN_TYPE ENERGY
&END GLOBAL
