&FORCE_EVAL
  METHOD Quickstep
  &DFT
    &QS
      METHOD PM6
      &SE
      &END
    &END QS
    &SCF
      MAX_SCF 0
    &END SCF
  &END DFT
  &SUBSYS
    &CELL
#alpha-Se & P2_1/c-C_{2h}^5 #14 & mP64 & A_k & Villars and Calvert, Pearson's Handbook IV, 5216
      UNIT SCALED_ANGSTROM
     A  15.01800000  0.00000000  0.00000000
     B   0.00000000 14.71300000  0.00000000
     C  -0.55340000  0.00000000  8.77156000
    &END CELL
    &COORD
Se  0.18310000  0.14060000  0.03450000     2.73070350  2.06864780  0.30261882
Se -0.18310000  0.64060000  0.46550000    -3.00740350  9.42514780  4.08316118
Se -0.18310000 -0.14060000 -0.03450000    -2.73070350 -2.06864780 -0.30261882
Se  0.18310000  0.35940000  0.53450000     2.45400350  5.28785220  4.68839882
Se  0.22860000  0.28410000  0.12260000     3.36526796  4.17996330  1.07539326
Se -0.22860000  0.78410000  0.37740000    -3.64196796 11.53646330  3.31038674
Se -0.22860000 -0.28410000 -0.12260000    -3.36526796 -4.17996330 -1.07539326
Se  0.22860000  0.21590000  0.62260000     3.08856796  3.17653670  5.46117326
Se  0.35550000  0.31910000  0.99450000     4.78854270  4.69491830  8.72331642
Se -0.35550000  0.81910000 -0.49450000    -5.06524270 12.05141830 -4.33753642
Se -0.35550000 -0.31910000 -0.99450000    -4.78854270 -4.69491830 -8.72331642
Se  0.35550000  0.18090000  0.49450000     5.06524270  2.66158170  4.33753642
Se  0.47830000  0.28780000  0.16130000     7.09384598  4.23440140  1.41485263
Se -0.47830000  0.78780000  0.33870000    -7.37054598 11.59090140  2.97092737
Se -0.47830000 -0.28780000 -0.16130000    -7.09384598 -4.23440140 -1.41485263
Se  0.47830000  0.21220000  0.66130000     6.81714598  3.12209860  5.80063263
Se  0.52850000  0.14440000  0.09350000     7.88527010  2.12455720  0.82014086
Se -0.52850000  0.64440000  0.40650000    -8.16197010  9.48105720  3.56563914
Se -0.52850000 -0.14440000 -0.09350000    -7.88527010 -2.12455720 -0.82014086
Se  0.52850000  0.35560000  0.59350000     7.60857010  5.23194280  5.20592086
Se  0.47970000  0.04030000  0.27100000     7.05416320  0.59293390  2.37709276
Se -0.47970000  0.54030000  0.22900000    -7.33086320  7.94943390  2.00868724
Se -0.47970000 -0.04030000 -0.27100000    -7.05416320 -0.59293390 -2.37709276
Se  0.47970000  0.45970000  0.77100000     6.77746320  6.76356610  6.76287276
Se  0.35300000 -0.02820000  0.15120000     5.21767992 -0.41490660  1.32625987
Se -0.35300000  0.47180000  0.34880000    -5.49437992  6.94159340  3.05952013
Se -0.35300000  0.02820000 -0.15120000    -5.21767992  0.41490660 -1.32625987
Se  0.35300000  0.52820000  0.65120000     4.94097992  7.77140660  5.71203987
Se  0.22520000  0.04260000  0.23430000     3.25239198  0.62677380  2.05517651
Se -0.22520000  0.54260000  0.26570000    -3.52909198  7.98327380  2.33060349
Se -0.22520000 -0.04260000 -0.23430000    -3.25239198 -0.62677380 -2.05517651
Se  0.22520000  0.45740000  0.73430000     2.97569198  6.72972620  6.44095651
Se  0.09550000  0.48600000  0.14210000     1.35558086  7.15051800  1.24643868
Se -0.09550000  0.98600000  0.35790000    -1.63228086 14.50701800  3.13934132
Se -0.09550000 -0.48600000 -0.14210000    -1.35558086 -7.15051800 -1.24643868
Se  0.09550000  0.01400000  0.64210000     1.07888086  0.20598200  5.63221868
Se  0.01300000  0.58880000  0.27820000     0.04127812  8.66301440  2.44024799
Se -0.01300000  0.08880000  0.22180000    -0.31797812  1.30651440  1.94553201
Se -0.01300000 -0.58880000 -0.27820000    -0.04127812 -8.66301440 -2.44024799
Se  0.01300000 -0.08880000  0.77820000    -0.23542188 -1.30651440  6.82602799
Se -0.01930000 -0.28520000  0.12140000    -0.35703016 -4.19614760  1.06486738
Se  0.01930000  0.21480000  0.37860000     0.08033016  3.16035240  3.32091262
Se  0.01930000  0.28520000 -0.12140000     0.35703016  4.19614760 -1.06486738
Se -0.01930000  0.78520000  0.62140000    -0.63373016 11.55264760  5.45064738
Se  0.08350000 -0.17050000  0.18550000     1.15134730 -2.50856650  1.62712438
Se -0.08350000  0.32950000  0.31450000    -1.42804730  4.84793350  2.75865562
Se -0.08350000  0.17050000 -0.18550000    -1.15134730  2.50856650 -1.62712438
Se  0.08350000  0.67050000  0.68550000     0.87464730  9.86506650  6.01290438
Se  0.19180000 -0.18660000  0.00960000     2.87513976 -2.74544580  0.08420698
Se -0.19180000  0.31340000  0.49040000    -3.15183976  4.61105420  4.30157302
Se -0.19180000  0.18660000 -0.00960000    -2.87513976  2.74544580 -0.08420698
Se  0.19180000  0.68660000  0.50960000     2.59843976 10.10194580  4.46998698
Se  0.31020000  0.73960000  0.14400000     4.57889400 10.88173480  1.26310464
Se -0.31020000  0.23960000  0.35600000    -4.85559400  3.52523480  3.12267536
Se -0.31020000  0.26040000 -0.14400000    -4.57889400  3.83126520 -1.26310464
Se  0.31020000 -0.23960000  0.64400000     4.30219400 -3.52523480  5.64888464
Se  0.30830000  0.59140000  0.04780000     4.60359688  8.70126820  0.41928057
Se -0.30830000  0.09140000  0.45220000    -4.88029688  1.34476820  3.96649943
Se -0.30830000 -0.59140000 -0.04780000    -4.60359688 -8.70126820 -0.41928057
Se  0.30830000 -0.09140000  0.54780000     4.32689688 -1.34476820  4.80506057
Se  0.24350000  0.50550000  0.23350000     3.52766410  7.43742150  2.04815926
Se -0.24350000  0.00550000  0.26650000    -3.80436410  0.08092150  2.33762074
Se -0.24350000 -0.50550000 -0.23350000    -3.52766410 -7.43742150 -2.04815926
Se  0.24350000 -0.00550000  0.73350000     3.25096410 -0.08092150  6.43393926
    &END COORD
    &PRINT
      &SYMMETRY
       CHECK_SYMMETRY 2/m
      &END
    &END
    &TOPOLOGY
      CONNECTIVITY OFF
    &END
  &END SUBSYS
&END FORCE_EVAL
&GLOBAL
  PROJECT symmetry
  RUN_TYPE ENERGY
&END GLOBAL
