&FORCE_EVAL
  METHOD Quickstep
  &DFT
    &QS
      METHOD PM6
      &SE
      &END
    &END QS
    &SCF
      MAX_SCF 0
    &END SCF
  &END DFT
  &SUBSYS
    &CELL
#beta-Se & P2_1/c-C_{2h}^5 #14 & mP32 & A_l & Donohue, pp. 379-84
     A   9.31000000  0.00000000  0.00000000
     B   0.00000000  8.07000000  0.00000000
     C  -0.70163000  0.00000000 12.83083000
    &END CELL
    &COORD
 SCALED
Se  0.43700000  0.31500000  0.58400000     3.65871808  2.54205000  7.49320472
Se -0.43700000  0.81500000 -0.08400000    -4.00953308  6.57705000 -1.07778972
Se -0.43700000 -0.31500000 -0.58400000    -3.65871808 -2.54205000 -7.49320472
Se  0.43700000  0.18500000  0.08400000     4.00953308  1.49295000  1.07778972
Se  0.24600000  0.22700000  0.47700000     1.95558249  1.83189000  6.12030591
Se -0.24600000  0.72700000  0.02300000    -2.30639749  5.86689000  0.29510909
Se -0.24600000 -0.22700000 -0.47700000    -1.95558249 -1.83189000 -6.12030591
Se  0.24600000  0.27300000  0.97700000     1.60476749  2.20311000 12.53572091
Se  0.24000000  0.39800000  0.32800000     2.00426536  3.21186000  4.20851224
Se -0.24000000  0.89800000  0.17200000    -2.35508036  7.24686000  2.20690276
Se -0.24000000 -0.39800000 -0.32800000    -2.00426536 -3.21186000 -4.20851224
Se  0.24000000  0.10200000  0.82800000     1.65345036  0.82314000 10.62392724
Se  0.05000000  0.58000000  0.35200000     0.21852624  4.68060000  4.51645216
Se -0.05000000  0.08000000  0.14800000    -0.56934124  0.64560000  1.89896284
Se -0.05000000 -0.58000000 -0.35200000    -0.21852624 -4.68060000 -4.51645216
Se  0.05000000 -0.08000000  0.85200000    -0.13228876 -0.64560000 10.93186716
Se  0.15700000  0.83100000  0.41000000     1.17400170  6.70617000  5.26064030
Se -0.15700000  0.33100000  0.09000000    -1.52481670  2.67117000  1.15477470
Se -0.15700000 -0.83100000 -0.41000000    -1.17400170 -6.70617000 -5.26064030
Se  0.15700000 -0.33100000  0.91000000     0.82318670 -2.67117000 11.67605530
Se  0.14200000  0.84000000  0.59000000     0.90805830  6.77880000  7.57018970
Se -0.14200000  0.34000000 -0.09000000    -1.25887330  2.74380000 -1.15477470
Se -0.14200000 -0.84000000 -0.59000000    -0.90805830 -6.77880000 -7.57018970
Se  0.14200000 -0.34000000  0.09000000     1.25887330 -2.74380000  1.15477470
Se  0.36800000  0.75400000  0.66000000     2.96300420  6.08478000  8.46834780
Se -0.36800000  0.25400000 -0.16000000    -3.31381920  2.04978000 -2.05293280
Se -0.36800000 -0.75400000 -0.66000000    -2.96300420 -6.08478000 -8.46834780
Se  0.36800000 -0.25400000  0.16000000     3.31381920 -2.04978000  2.05293280
Se  0.33400000  0.47900000  0.71000000     2.61138270  3.86553000  9.10988930
Se -0.33400000  0.97900000 -0.21000000    -2.96219770  7.90053000 -2.69447430
Se -0.33400000 -0.47900000 -0.71000000    -2.61138270 -3.86553000 -9.10988930
Se  0.33400000  0.02100000  0.21000000     2.96219770  0.16947000  2.69447430
    &END COORD
    &PRINT
      &SYMMETRY
       CHECK_SYMMETRY 2/m
      &END
    &END
    &TOPOLOGY
      CONNECTIVITY OFF
    &END
  &END SUBSYS
&END FORCE_EVAL
&GLOBAL
  PROJECT symmetry
  RUN_TYPE ENERGY
&END GLOBAL
