&FORCE_EVAL
  METHOD Quickstep
  &DFT
    &QS
      METHOD PM6
      &SE
      &END
    &END QS
    &SCF
      MAX_SCF 0
    &END SCF
  &END DFT
  &SUBSYS
    &CELL
#CuO (Cr for Cu) & C2/c (#15) C^6_{2h} & mC8 & B26
     A   2.32650000 -1.70500000   .00000000
     B   2.32650000  1.70500000   .00000000
     C   -.84160000   .00000000  5.03819000
    &END CELL
    &COORD
 SCALED
Cr  0.00000000   .50000000   .00000000     1.16325000   .85250000   .00000000
Cr   .50000018   .00000018   .50000099      .74245000  -.85250000  2.51910000
O   -.58399991   .58400009   .25000050     -.21040000  1.99144000  1.25955000
O    .58399991  -.58400009  -.25000050      .21040000 -1.99144000 -1.25955000
    &END COORD
    &PRINT
      &SYMMETRY
       CHECK_SYMMETRY 2/m
      &END
    &END
  &END SUBSYS
&END FORCE_EVAL
&GLOBAL
  PROJECT symmetry
  RUN_TYPE ENERGY
&END GLOBAL
