&FORCE_EVAL
  METHOD Quickstep
  &DFT
    &QS
      METHOD PM6
      &SE
      &END
    &END QS
    &SCF
      MAX_SCF 0
    &END SCF
  &END DFT
  &SUBSYS
    &CELL
#HgBr_2 & C24 & oC12 & Cmc2_1-C_{2v}^{12} #36 & Strukturbericht II, p. 18
     A   2.31000000 -3.39500000  0.00000000
     B   2.31000000  3.39500000  0.00000000
     C   0.00000000  0.00000000 12.44000000
    &END CELL
    &COORD
 SCALED
Hg -0.33000000  0.33000000  0.00000000     0.00000000  2.24070000  0.00000000
Hg  0.33000000 -0.33000000  0.50000000     0.00000000 -2.24070000  6.22000000
Br -0.06000000  0.06000000  0.13000000     0.00000000  0.40740000  1.61720000
Br  0.06000000 -0.06000000  0.63000000     0.00000000 -0.40740000  7.83720000
Br -0.39000000  0.39000000  0.37000000     0.00000000  2.64810000  4.60280000
Br  0.39000000 -0.39000000  0.87000000     0.00000000 -2.64810000 10.82280000
    &END COORD
    &PRINT
      &SYMMETRY
       CHECK_SYMMETRY 2/m
      &END
    &END
    &TOPOLOGY
      CONNECTIVITY OFF
    &END
  &END SUBSYS
&END FORCE_EVAL
&GLOBAL
  PROJECT symmetry
  RUN_TYPE ENERGY
&END GLOBAL
