&FORCE_EVAL
  METHOD Quickstep
  &DFT
    &QS
      METHOD PM6
      &SE
      &END
    &END QS
    &SCF
      MAX_SCF 0
    &END SCF
  &END DFT
  &SUBSYS
    &CELL
#As K_3 S_4 & oP32 & Pna2_1-C_{2v}^9 #33 & Pearson's Handbook I, 1164
      UNIT SCALED_ANGSTROM
     A   9.11000000  0.00000000  0.00000000
     B   0.00000000  9.28000000  0.00000000
     C   0.00000000  0.00000000 10.58000000
    &END CELL
    &COORD
As  0.21870000  0.51930000  0.20310000     1.99235700  4.81910400  2.14879800
As -0.21870000 -0.51930000  0.70310000    -1.99235700 -4.81910400  7.43879800
As  0.71870000 -0.01930000  0.20310000     6.54735700 -0.17910400  2.14879800
As  0.28130000  1.01930000  0.70310000     2.56264300  9.45910400  7.43879800
K   0.44180000  0.79480000  0.00150000     4.02479800  7.37574400  0.01587000
K  -0.44180000 -0.79480000  0.50150000    -4.02479800 -7.37574400  5.30587000
K   0.94180000 -0.29480000  0.00150000     8.57979800 -2.73574400  0.01587000
K   0.05820000  1.29480000  0.50150000     0.53020200 12.01574400  5.30587000
K   0.44880000  0.80330000  0.41460000     4.08856800  7.45462400  4.38646800
K  -0.44880000 -0.80330000  0.91460000    -4.08856800 -7.45462400  9.67646800
K   0.94880000 -0.30330000  0.41460000     8.64356800 -2.81462400  4.38646800
K   0.05120000  1.30330000  0.91460000     0.46643200 12.09462400  9.67646800
K   0.14220000  0.08240000  0.22460000     1.29544200  0.76467200  2.37626800
K  -0.14220000 -0.08240000  0.72460000    -1.29544200 -0.76467200  7.66626800
K   0.64220000  0.41760000  0.22460000     5.85044200  3.87532800  2.37626800
K   0.35780000  0.58240000  0.72460000     3.25955800  5.40467200  7.66626800
S   0.19100000  0.74940000  0.22280000     1.74001000  6.95443200  2.35722400
S  -0.19100000 -0.74940000  0.72280000    -1.74001000 -6.95443200  7.64722400
S   0.69100000 -0.24940000  0.22280000     6.29501000 -2.31443200  2.35722400
S   0.30900000  1.24940000  0.72280000     2.81499000 11.59443200  7.64722400
S   0.34240000  0.46390000  0.04150000     3.11926400  4.30499200  0.43907000
S  -0.34240000 -0.46390000  0.54150000    -3.11926400 -4.30499200  5.72907000
S   0.84240000  0.03610000  0.04150000     7.67426400  0.33500800  0.43907000
S   0.15760000  0.96390000  0.54150000     1.43573600  8.94499200  5.72907000
S   0.00690000  0.41240000  0.22120000     0.06285900  3.82707200  2.34029600
S  -0.00690000 -0.41240000  0.72120000    -0.06285900 -3.82707200  7.63029600
S   0.50690000  0.08760000  0.22120000     4.61785900  0.81292800  2.34029600
S   0.49310000  0.91240000  0.72120000     4.49214100  8.46707200  7.63029600
S   0.33550000  0.45400000  0.37610000     3.05640500  4.21312000  3.97913800
S  -0.33550000 -0.45400000  0.87610000    -3.05640500 -4.21312000  9.26913800
S   0.83550000  0.04600000  0.37610000     7.61140500  0.42688000  3.97913800
S   0.16450000  0.95400000  0.87610000     1.49859500  8.85312000  9.26913800
    &END COORD
    &PRINT
      &SYMMETRY
       CHECK_SYMMETRY 2/m
      &END
    &END
    &TOPOLOGY
      CONNECTIVITY OFF
    &END
  &END SUBSYS
&END FORCE_EVAL
&GLOBAL
  PROJECT symmetry
  RUN_TYPE ENERGY
&END GLOBAL
