&FORCE_EVAL
  METHOD Quickstep
  &DFT
    &QS
      METHOD PM6
      &SE
      &END
    &END QS
    &SCF
      MAX_SCF 0
    &END SCF
  &END DFT
  &SUBSYS
    &CELL
#(Ca_.58 Fe_.42)(Ca_.97 Fe_.03)(Si_.54 Al_.46) O_3 & C2/c & #15 & mC40 & Esseneite
      UNIT SCALED_ANGSTROM
     A   4.89500000 -4.41000000  0.00000000
     B   4.89500000  4.41000000  0.00000000
     C  -1.56016582  0.00000000  5.51350910
    &END CELL
    &COORD
Fe -0.09420000  0.09420000  0.75000000    -1.17012436  0.83084400  4.13513183
Fe  0.09420000 -0.09420000  0.25000000    -0.39004145 -0.83084400  1.37837728
Ca -0.69180000  0.69180000  0.75000000    -1.17012436  6.10167600  4.13513183
Ca  0.69180000 -0.69180000  0.25000000    -0.39004145 -6.10167600  1.37837728
Si -0.19400000  0.61740000  0.77640000     0.86123026  3.57827400  4.28068847
Si -0.61740000  0.19400000 -0.27640000    -1.64131317  3.57827400 -1.52393392
Si  0.19400000 -0.61740000 -0.77640000    -0.86123026 -3.57827400 -4.28068847
Si  0.61740000 -0.19400000  0.27640000     1.64131317 -3.57827400  1.52393392
O  -0.02350000  0.80110000  0.86590000     2.45540442  3.63648600  4.77414753
O  -0.80110000  0.02350000 -0.36590000    -3.23548733  3.63648600 -2.01739298
O   0.02350000 -0.80110000 -0.86590000    -2.45540442 -3.63648600 -4.77414753
O   0.80110000 -0.02350000  0.36590000     3.23548733 -3.63648600  2.01739298
O  -0.10450000  0.37770000  0.67990000     0.27655726  2.12650200  3.74863484
O  -0.37770000  0.10450000 -0.17990000    -1.05664017  2.12650200 -0.99188029
O   0.10450000 -0.37770000 -0.67990000    -0.27655726 -2.12650200 -3.74863484
O   0.37770000 -0.10450000  0.17990000     1.05664017 -2.12650200  0.99188029
O  -0.33340000  0.62700000  0.01240000     1.41782594  4.23536400  0.06836751
O  -0.62700000  0.33340000  0.48760000    -2.19790885  4.23536400  2.68838704
O   0.33340000 -0.62700000 -0.01240000    -1.41782594 -4.23536400 -0.06836751
O   0.62700000 -0.33340000 -0.48760000     2.19790885 -4.23536400 -2.68838704
    &END COORD
    &PRINT
      &SYMMETRY
       CHECK_SYMMETRY 2/m
      &END
    &END
    &TOPOLOGY
      CONNECTIVITY OFF
    &END
  &END SUBSYS
&END FORCE_EVAL
&GLOBAL
  PROJECT symmetry
  RUN_TYPE ENERGY
&END GLOBAL
