&FORCE_EVAL
  METHOD Quickstep
  &DFT
    &QS
      METHOD PM6
      &SE
      &END
    &END QS
    &SCF
      MAX_SCF 0
    &END SCF
  &END DFT
  &SUBSYS
    &CELL
#AuTe_2 & Pma2-C_{2v}^4 #28 & oP24 & C46 & Krennerite & (Au_0.8,Ag_0.2)Te_2 & Tunnell and Murata, Am. Min. 35, 359 (1950)
      UNIT SCALED_ANGSTROM
     A  16.54000000  0.00000000  0.00000000
     B   0.00000000  8.82000000  0.00000000
     C   0.00000000  0.00000000  4.46000000
    &END CELL
    &COORD
Au  0.00000000  0.00000000  0.00000000     0.00000000  0.00000000  0.00000000
Au  0.50000000  0.00000000  0.00000000     8.27000000  0.00000000  0.00000000
Au  0.25000000  0.31900000  0.01400000     4.13500000  2.81358000  0.06244000
Au -0.25000000 -0.31900000  0.01400000    -4.13500000 -2.81358000  0.06244000
Au  0.12400000  0.66600000  0.50000000     2.05096000  5.87412000  2.23000000
Au -0.12400000 -0.66600000  0.50000000    -2.05096000 -5.87412000  2.23000000
Au  0.62400000 -0.66600000  0.50000000    10.32096000 -5.87412000  2.23000000
Au  0.37600000  0.66600000  0.50000000     6.21904000  5.87412000  2.23000000
Te  0.25000000  0.01800000  0.04200000     4.13500000  0.15876000  0.18732000
Te -0.25000000 -0.01800000  0.04200000    -4.13500000 -0.15876000  0.18732000
Te  0.25000000  0.61700000  0.04200000     4.13500000  5.44194000  0.18732000
Te -0.25000000 -0.61700000  0.04200000    -4.13500000 -5.44194000  0.18732000
Te  0.00300000  0.69900000  0.04200000     0.04962000  6.16518000  0.18732000
Te -0.00300000 -0.69900000  0.04200000    -0.04962000 -6.16518000  0.18732000
Te  0.50300000 -0.69900000  0.04200000     8.31962000 -6.16518000  0.18732000
Te  0.49700000  0.69900000  0.04200000     8.22038000  6.16518000  0.18732000
Te  0.13200000  0.36400000  0.50000000     2.18328000  3.21048000  2.23000000
Te -0.13200000 -0.36400000  0.50000000    -2.18328000 -3.21048000  2.23000000
Te  0.63200000 -0.36400000  0.50000000    10.45328000 -3.21048000  2.23000000
Te  0.36800000  0.36400000  0.50000000     6.08672000  3.21048000  2.23000000
Te  0.11900000  0.96400000  0.50000000     1.96826000  8.50248000  2.23000000
Te -0.11900000 -0.96400000  0.50000000    -1.96826000 -8.50248000  2.23000000
Te  0.61900000 -0.96400000  0.50000000    10.23826000 -8.50248000  2.23000000
Te  0.38100000  0.96400000  0.50000000     6.30174000  8.50248000  2.23000000
    &END COORD
    &PRINT
      &SYMMETRY
       CHECK_SYMMETRY 2/m
      &END
    &END
    &TOPOLOGY
      CONNECTIVITY OFF
    &END
  &END SUBSYS
&END FORCE_EVAL
&GLOBAL
  PROJECT symmetry
  RUN_TYPE ENERGY
&END GLOBAL
