&FORCE_EVAL
  METHOD Quickstep
  &DFT
    &QS
      METHOD PM6
      &SE
      &END
    &END QS
    &SCF
      MAX_SCF 0
    &END SCF
  &END DFT
  &SUBSYS
    &CELL
#AsCu_3S_4 & Enargite & Pm2_1-C_{2v}^7 & H2_5 & oP16 & Pearson's Handbook
     A   7.43000000  0.00000000  0.00000000
     B   0.00000000  6.46000000  0.00000000
     C   0.00000000  0.00000000  6.18000000
    &END CELL
    &COORD
 SCALED
As  0.00000000  0.82000000  0.00000000     0.00000000  5.29720000  0.00000000
As  0.50000000 -0.82000000  0.50000000     3.71500000 -5.29720000  3.09000000
Cu  0.00000000  0.16500000 -0.50000000     0.00000000  1.06590000 -3.09000000
Cu  0.50000000 -0.16500000  0.00000000     3.71500000 -1.06590000  0.00000000
S   0.00000000  0.83000000 -0.36000000     0.00000000  5.36180000 -2.22480000
S   0.50000000 -0.83000000  0.14000000     3.71500000 -5.36180000  0.86520000
S   0.00000000  0.14000000  0.12500000     0.00000000  0.90440000  0.77250000
S   0.50000000 -0.14000000  0.62500000     3.71500000 -0.90440000  3.86250000
Cu  0.24500000  0.33300000  0.03000000     1.82035000  2.15118000  0.18540000
Cu -0.24500000  0.33300000  0.03000000    -1.82035000  2.15118000  0.18540000
Cu  0.25500000 -0.33300000  0.53000000     1.89465000 -2.15118000  3.27540000
Cu  0.74500000 -0.33300000  0.53000000     5.53535000 -2.15118000  3.27540000
S   0.25500000  0.33000000 -0.36700000     1.89465000  2.13180000 -2.26806000
S  -0.25500000  0.33000000 -0.36700000    -1.89465000  2.13180000 -2.26806000
S   0.24500000 -0.33000000  0.13300000     1.82035000 -2.13180000  0.82194000
S   0.75500000 -0.33000000  0.13300000     5.60965000 -2.13180000  0.82194000
    &END COORD
    &PRINT
      &SYMMETRY
       CHECK_SYMMETRY 2/m
      &END
    &END
    &TOPOLOGY
      CONNECTIVITY OFF
    &END
  &END SUBSYS
&END FORCE_EVAL
&GLOBAL
  PROJECT symmetry
  RUN_TYPE ENERGY
&END GLOBAL
