&FORCE_EVAL
  METHOD Quickstep
  &DFT
    &QS
      METHOD PM6
      &SE
      &END
    &END QS
    &SCF
      MAX_SCF 0
    &END SCF
  &END DFT
  &SUBSYS
    &CELL
#CdTe & Pmm2-C_{2v}^1 #25 & oP2 & Pearson's Handbook Vol. II  2186
      UNIT SCALED_ANGSTROM
     A   2.81020000  0.00000000  0.00000000
     B   0.00000000  5.25800000  0.00000000
     C   0.00000000  0.00000000  3.02650000
    &END CELL
    &COORD
Te  0.00000000  0.00000000  0.00000000     0.00000000  0.00000000  0.00000000
Cd  0.00000000  0.50000000  0.25000000     0.00000000  2.62900000  0.75662500
    &END COORD
    &PRINT
      &SYMMETRY
       CHECK_SYMMETRY 2/m
      &END
    &END
    &TOPOLOGY
      CONNECTIVITY OFF
    &END
  &END SUBSYS
&END FORCE_EVAL
&GLOBAL
  PROJECT symmetry
  RUN_TYPE ENERGY
&END GLOBAL
