&FORCE_EVAL
  METHOD Quickstep
  &DFT
    &QS
      METHOD PM6
      &SE
      &END
    &END QS
    &SCF
      MAX_SCF 0
    &END SCF
  &END DFT
  &SUBSYS
    &CELL
#Bi I_3 & R(-3)-C_{2i}^3 (#148) & D0_5 & hR8 & Strukturbericht Vol. II 25
     A   0.00000000  4.32796575  6.89407807
     B  -3.74812829 -2.16398287  6.89407807
     C   3.74812829 -2.16398287  6.89407807
    &END CELL
    &COORD
 SCALED
Bi  0.33333333  0.33333333  0.33333333     0.00000000  0.00000000  6.89407800
Bi -0.33333333 -0.33333333 -0.33333333     0.00000000  0.00000000 -6.89407800
I  -0.24500000  0.42100000  0.08800000    -1.24812672 -2.16181889  1.82003661
I   0.08800000 -0.24500000  0.42100000     2.49625344  0.00000000  1.82003661
I   0.42100000  0.08800000 -0.24500000    -1.24812672  2.16181889  1.82003661
I   0.24500000 -0.42100000 -0.08800000     1.24812672  2.16181889 -1.82003661
I  -0.08800000  0.24500000 -0.42100000    -2.49625344  0.00000000 -1.82003661
I  -0.42100000 -0.08800000  0.24500000     1.24812672 -2.16181889 -1.82003661
    &END COORD
    &PRINT
      &SYMMETRY
       CHECK_SYMMETRY <3>
      &END
    &END
    &TOPOLOGY
      CONNECTIVITY OFF
    &END
  &END SUBSYS
&END FORCE_EVAL
&GLOBAL
  PROJECT symmetry
  RUN_TYPE ENERGY
&END GLOBAL
