&FORCE_EVAL
  METHOD Quickstep
  &DFT
    &QS
      METHOD PM6
      &SE
      &END
    &END QS
    &SCF
      MAX_SCF 0
    &END SCF
  &END DFT
  &SUBSYS
    &CELL
#C_8 H_8 & R(-3)-C_{2i}^3 (#148) & cubane & hR16 & Fleischer, J. Am. Chem. Soc. 86, 3889 (1964)
      UNIT SCALED_ANGSTROM
      A  0.00000000  3.63565232  3.91121876
      B -3.14856727 -1.81782616  3.91121876
      C  3.14856727 -1.81782616  3.91121876
    &END CELL
    &COORD
C   0.11546000  0.11546000  0.11546000     0.00000000  0.00000000  1.35476795
C  -0.11546000 -0.11546000 -0.11546000     0.00000000  0.00000000 -1.35476795
H   0.21000000  0.21000000  0.21000000     0.00000000  0.00000000  2.46406782
H  -0.21000000 -0.21000000 -0.21000000     0.00000000  0.00000000 -2.46406782
C  -0.18711000  0.19519000  0.10706000    -0.27748323 -1.22970486  0.45033773
C   0.10706000 -0.18711000  0.19519000     1.20369727  0.37454490  0.45033773
C   0.19519000  0.10706000 -0.18711000    -0.92621403  0.85515996  0.45033773
C   0.18711000 -0.19519000 -0.10706000     0.27748323  1.22970486 -0.45033773
C  -0.10706000  0.18711000 -0.19519000    -1.20369727 -0.37454490 -0.45033773
C  -0.19519000 -0.10706000  0.18711000     0.92621403 -0.85515996 -0.45033773
H  -0.32460000  0.34680000  0.18480000    -0.51006790 -2.14648913  0.80962228
H   0.18480000 -0.32460000  0.34680000     2.11394807  0.63151281  0.80962228
H   0.34680000  0.18480000 -0.32460000    -1.60388017  1.51497632  0.80962228
H   0.32460000 -0.34680000 -0.18480000     0.51006790  2.14648913 -0.80962228
H  -0.18480000  0.32460000 -0.34680000    -2.11394807 -0.63151281 -0.80962228
H  -0.34680000 -0.18480000  0.32460000     1.60388017 -1.51497632 -0.80962228
    &END COORD
    &PRINT
      &SYMMETRY
       CHECK_SYMMETRY <3>
      &END
    &END
    &TOPOLOGY
      CONNECTIVITY OFF
    &END
  &END SUBSYS
&END FORCE_EVAL
&GLOBAL
  PROJECT symmetry
  RUN_TYPE ENERGY
&END GLOBAL
