&FORCE_EVAL
  METHOD Quickstep
  &DFT
    LSD
    &QS
      METHOD PM6
      &SE
      &END
    &END QS
    &SCF
      MAX_SCF 0
    &END SCF
  &END DFT
  &SUBSYS
    &CELL
#Fe_2P & C22 & hP9 & P321-D_3^2 #150 & Strukturbereicht II, p. 15 & Original
      UNIT SCALED_ANGSTROM
     A   2.92500000 -5.06624861  0.00000000
     B   2.92500000  5.06624861  0.00000000
     C   0.00000000  0.00000000  3.45000000
    &END CELL
    &COORD
P   0.00000000  0.00000000  0.50000000     0.00000000  0.00000000  1.72500000
P   0.33333333  0.66666667 -0.12500000     2.92500000  1.68874954 -0.43125000
P   0.66666667  0.33333333  0.12500000     2.92500000 -1.68874954  0.43125000
Fe  0.26000000  0.00000000  0.00000000     0.76050000 -1.31722464  0.00000000
Fe  0.00000000  0.26000000  0.00000000     0.76050000  1.31722464  0.00000000
Fe -0.26000000 -0.26000000  0.00000000    -1.52100000  0.00000000  0.00000000
Fe  0.60000000  0.00000000  0.50000000     1.75500000 -3.03974917  1.72500000
Fe  0.00000000  0.60000000  0.50000000     1.75500000  3.03974917  1.72500000
Fe -0.60000000 -0.60000000  0.50000000    -3.51000000  0.00000000  1.72500000
    &END COORD
    &PRINT
      &SYMMETRY
       CHECK_SYMMETRY 32
      &END
    &END
    &TOPOLOGY
      CONNECTIVITY OFF
    &END
  &END SUBSYS
&END FORCE_EVAL
&GLOBAL
  PROJECT symmetry
  RUN_TYPE ENERGY
&END GLOBAL
