&FORCE_EVAL
  METHOD Quickstep
  &DFT
    &QS
      METHOD PM6
      &SE
      &END
    &END QS
    &SCF
      MAX_SCF 0
    &END SCF
  &END DFT
  &SUBSYS
    &CELL
#gamma Se & P3_21-D_3^6 #152 & hP3 & A8 & Villars and Calvert, Pearson's Handbook IV, 5215
      A  1.90500000 -3.29955679   .00000000
      B  1.90500000  3.29955679   .00000000
      C   .00000000   .00000000  5.11000000
    &END CELL
    &COORD
 SCALED
Se   .24860000   .00000000   .33333333      .47358300  -.82026982  1.70333333
Se   .00000000   .24860000   .66666667      .47358300   .82026982  3.40666667
Se  -.24860000  -.24860000   .00000000     -.94716600   .00000000   .00000000
    &END COORD
    &PRINT
      &SYMMETRY
       CHECK_SYMMETRY 32
      &END
    &END
    &TOPOLOGY
      CONNECTIVITY OFF
    &END
  &END SUBSYS
&END FORCE_EVAL
&GLOBAL
  PROJECT symmetry
  RUN_TYPE ENERGY
&END GLOBAL
