&FORCE_EVAL
  METHOD Quickstep
  &DFT
    &QS
      METHOD PM6
      &SE
      &END
    &END QS
    &SCF
      MAX_SCF 0
    &END SCF
  &END DFT
  &SUBSYS
    &CELL
#alpha-SiO_2 (low quartz) & P3_221 (#154, D^6_3) & hP9
      UNIT SCALED_ANGSTROM
     A   2.45670000 -4.25512922   .00000000
     B   2.45670000  4.25512922   .00000000
     C    .00000000   .00000000  5.40520000
    &END CELL
    &COORD
Si   .46990000  0.00000000   .66666667     1.15440333 -1.99948522  3.60346667
Si  0.00000000   .46990000   .33333333     1.15440333  1.99948522  1.80173333
Si  -.46990000  -.46990000   .00000000    -2.30880666  -.00000000   .00000000
O    .41410000   .26810000   .78540000     1.67596074  -.62124887  4.24524408
O   -.26810000   .14600000   .45206667     -.29996307  1.76204901  2.44351075
O   -.14600000  -.41410000   .11873333    -1.37599767 -1.14080014   .64177741
O    .26810000   .41410000  -.78540000     1.67596074   .62124887 -4.24524408
O   -.41410000  -.14600000  -.11873333    -1.37599767  1.14080014  -.64177741
O    .14600000  -.26810000  -.45206667     -.29996307 -1.76204901 -2.44351075
    &END COORD
    &PRINT
      &SYMMETRY
       CHECK_SYMMETRY 32
      &END
    &END
    &TOPOLOGY
      CONNECTIVITY OFF
    &END
  &END SUBSYS
&END FORCE_EVAL
&GLOBAL
  PROJECT symmetry
  RUN_TYPE ENERGY
&END GLOBAL
