&FORCE_EVAL
  METHOD Quickstep
  &DFT
    &QS
      METHOD PM6
      &SE
      &END
    &END QS
    &SCF
      MAX_SCF 0
    &END SCF
  &END DFT
  &SUBSYS
    &CELL
#Ferro-electric LiNbO3 & R3c (#161, C^6_{3v}) & hR10 & Acta Cryst. B50, 405 (1994)
     A   2.57565000 -1.48705222  4.62180000
     B   0.00000000  2.97410444  4.62180000
     C  -2.57565000 -1.48705222  4.62180000
    &END CELL
    &COORD
 SCALED
Li  0.30210000  0.30210000  0.30210000     0.00000000  0.00000000  4.18873734
Li  0.80210000  0.80210000  0.80210000     0.00000000  0.00000000 11.12143734
Nb  0.01920000  0.01920000  0.01920000     0.00000000  0.00000000  0.26621568
Nb  0.51920000  0.51920000  0.51920000     0.00000000  0.00000000  7.19891568
O  -0.06681567  0.47913134 -0.16241567     0.24623214  1.76586564  1.15498782
O   0.47913134 -0.16241567 -0.06681567     1.40616843 -1.09617611  1.15498782
O  -0.16241567 -0.06681567  0.47913134    -1.65240057 -0.66968953  1.15498782
O   0.97913134  0.43318433  0.33758433     1.65240057 -0.66968953  8.08768782
O   0.43318433  0.33758433  0.97913134    -1.40616843 -1.09617611  8.08768782
O   0.33758433  0.97913134  0.43318433    -0.24623214  1.76586564  8.08768782
    &END COORD
    &PRINT
      &SYMMETRY
       CHECK_SYMMETRY 3m
      &END
    &END
    &TOPOLOGY
      CONNECTIVITY OFF
    &END
  &END SUBSYS
&END FORCE_EVAL
&GLOBAL
  PROJECT symmetry
  RUN_TYPE ENERGY
&END GLOBAL
