&FORCE_EVAL
  METHOD Quickstep
  &DFT
    &QS
      METHOD PM6
      &SE
      &END
    &END QS
    &SCF
      MAX_SCF 0
    &END SCF
  &END DFT
  &SUBSYS
    &CELL
      ABC 20.0 20.0 20.0
      UNIT ANGSTROM
      PERIODIC NONE
    &END CELL
    &COORD
C   1.00000000000    1.00000000000    0.00000000000
C   1.00000000000   -1.00000000000    0.00000000000
C  -1.00000000000    1.00000000000    0.00000000000
C  -1.00000000000   -1.00000000000    0.00000000000
C   1.00000000000    1.10000000000    0.00000000000
C   1.10000000000   -1.00000000000    0.00000000000
C  -1.10000000000    1.00000000000    0.00000000000
C  -1.00000000000   -1.10000000000    0.00000000000
    &END COORD
    &PRINT
      &SYMMETRY
        MOLECULE
        ALL
        CHECK_SYMMETRY C4h
      &END
    &END
  &END SUBSYS
&END FORCE_EVAL
&GLOBAL
  PROJECT symmetry
  RUN_TYPE ENERGY
&END GLOBAL
