&FORCE_EVAL
  METHOD Quickstep
  &DFT
    &QS
      METHOD PM6
      &SE
      &END
    &END QS
    &SCF
      MAX_SCF 0
    &END SCF
  &END DFT
  &SUBSYS
    &CELL
      ABC 20.0 20.0 20.0
      PERIODIC NONE
    &END CELL
    &COORD
C 0. 1. 0.
C 0.9510565162951535 0.30901699437494745 0.
C 0.5877852522924732 -0.8090169943749473 0.
C -0.587785252292473 -0.8090169943749475 0.
C -0.9510565162951536 0.30901699437494723 0.
C 0.34729635533386066 1.969615506024416 0.
C 1.9805361374831407 0.27834620192013093 0.
C 0.8767422935781554 -1.7975880925983336 0.
C -1.4386796006773017 -1.389316740917995 0.
C -1.7658951857178542 0.9389431255717808 0.
    &END COORD
    &PRINT
      &SYMMETRY
        MOLECULE
        ALL
        CHECK_SYMMETRY C5h
      &END
    &END
  &END SUBSYS
&END FORCE_EVAL
&GLOBAL
  PROJECT symmetry
  RUN_TYPE ENERGY
&END GLOBAL
