&FORCE_EVAL
  METHOD Quickstep
  &DFT
    &QS
      METHOD PM6
      &SE
      &END
    &END QS
    &SCF
      MAX_SCF 0
    &END SCF
  &END DFT
  &SUBSYS
    &CELL
      ABC 20.0 20.0 20.0
      UNIT ANGSTROM
      PERIODIC NONE
    &END CELL
    &COORD
C  0       0      0
H  0.0000  1.0000 1
H  0.8660  0.5000 1
H  0.8660 -0.5000 1
H  0.0000 -1.0000 1
H -0.8660 -0.5000 1
H -0.8660  0.5000 1
    &END COORD
    &PRINT
      &SYMMETRY
        MOLECULE
        CHECK_SYMMETRY C6v
        ALL
      &END
    &END
  &END SUBSYS
&END FORCE_EVAL
&GLOBAL
  PROJECT symmetry
  RUN_TYPE ENERGY
&END GLOBAL
