&FORCE_EVAL
  METHOD Quickstep
  &DFT
    &QS
      METHOD PM6
      &SE
      &END
    &END QS
    &SCF
      MAX_SCF 0
    &END SCF
  &END DFT
  &SUBSYS
    &CELL
      ABC 20.0 20.0 20.0
      UNIT ANGSTROM
      PERIODIC NONE
    &END CELL
    &COORD
H 0. 1. 0.
H 0.8660254037844386 0.5000000000000001 0.
H 0.8660254037844387 -0.4999999999999998 0.
H 1.2246467991473532E-16 -1. 0.
H -0.8660254037844385 -0.5000000000000004 0.
H -0.866025403784439 0.49999999999999933 0.
H 0.19101299543362338 1.0832885283134288 0.
H 1.0336618828644992 0.37622215765823575 0.
H 0.8426488874308763 -0.707066370655193 0.
H -0.19101299543362305 -1.083288528313429 0.
H -1.033661882864499 -0.37622215765823636 0.
H -0.8426488874308766 0.7070663706551925 0.
    &END COORD
    &PRINT
      &SYMMETRY
        MOLECULE
        ALL
        CHECK_SYMMETRY C6h
      &END
    &END
  &END SUBSYS
&END FORCE_EVAL
&GLOBAL
  PROJECT symmetry
  RUN_TYPE ENERGY
&END GLOBAL
