&FORCE_EVAL
  METHOD Quickstep
  &DFT
    &QS
      METHOD PM6
      &SE
      &END
    &END QS
    &SCF
      MAX_SCF 0
    &END SCF
  &END DFT
  &SUBSYS
    &CELL
      ABC 20.0 20.0 20.0
      PERIODIC NONE
    &END CELL
    &COORD
C 0. 0. 5.
C 0. 1. 0.
C 0.8660254037844386 0.500000000000000 0.
C 0.8660254037844387 -0.50000000000000   0.
C 1.2246467991473532E-16 -1. 0.
C -0.8660254037844385 -0.50000000000000 0.
C -0.866025403784439 0.500000000000000   0.
C 0.34729635533386066 1.969615506024416 0.
C 1.8793852415718166 0.6840402866513376 0.
C 1.5320888862379567 -1.285575219373078 0.
C -0.34729635533386005 -1.9696155060244163 0.
C -1.8793852415718164 -0.6840402866513388 0.
C -1.5320888862379574 1.2855752193730772 0.
    &END COORD
    &PRINT
      &SYMMETRY
        MOLECULE
        ALL
        CHECK_SYMMETRY C6
      &END
    &END
  &END SUBSYS
&END FORCE_EVAL
&GLOBAL
  PROJECT symmetry
  RUN_TYPE ENERGY
&END GLOBAL
