&FORCE_EVAL
  METHOD Quickstep
  &DFT
    &QS
      METHOD PM6
      &SE
      &END
    &END QS
    &SCF
      MAX_SCF 0
    &END SCF
  &END DFT
  &SUBSYS
    &CELL
      ABC 20.0 20.0 20.0
      UNIT ANGSTROM
      PERIODIC NONE
    &END CELL
    &COORD
N  0        0       0
H  0.00000  1.00000 1
H  0.78183  0.62349 1
H  0.97493 -0.22252 1
H  0.43388 -0.90097 1
H -0.43388 -0.90097 1
H -0.97493 -0.22252 1
H -0.78183  0.62349 1
    &END COORD
    &PRINT
      &SYMMETRY
        MOLECULE
        ALL
        CHECK_SYMMETRY C7v
      &END
    &END
  &END SUBSYS
&END FORCE_EVAL
&GLOBAL
  PROJECT symmetry
  RUN_TYPE ENERGY
&END GLOBAL
