&FORCE_EVAL
  METHOD Quickstep
  &DFT
    &QS
      METHOD PM6
      &SE
      &END
    &END QS
    &SCF
      MAX_SCF 0
    &END SCF
  &END DFT
  &SUBSYS
    &CELL
      ABC 20.0 20.0 20.0
      PERIODIC NONE
    &END CELL
    &COORD
N  0        0       0
H  0.00000  1.00000 1
He  0.09950  0.99504 1
H  0.78183  0.62349 1
He  0.83999  0.54260 1
H  0.97493 -0.22252 1
He  0.94795 -0.31843 1
H  0.43388 -0.90097 1
He  0.34208 -0.93967 1
H -0.43388 -0.90097 1
He -0.52138 -0.85332 1
H -0.97493 -0.22252 1
He -0.99223 -0.12441 1
H -0.78183  0.62349 1
He -0.71591  0.69819 1
    &END COORD
    &PRINT
      &SYMMETRY
        MOLECULE
        ALL
        CHECK_SYMMETRY C7
      &END
    &END
  &END SUBSYS
&END FORCE_EVAL
&GLOBAL
  PROJECT symmetry
  RUN_TYPE ENERGY
&END GLOBAL
