&FORCE_EVAL
  METHOD Quickstep
  &DFT
    &QS
      METHOD PM6
      &SE
      &END
    &END QS
    &SCF
      MAX_SCF 0
    &END SCF
  &END DFT
  &SUBSYS
    &CELL
      ABC 20.0 20.0 20.0
      UNIT ANGSTROM
      PERIODIC NONE
    &END CELL
    &COORD
C  1   0  0
C -1   0  0
N  .5  1  .2
N -.5 -1 -.2
O  0   0  1
O  0   0 -1
    &END COORD
    &PRINT
      &SYMMETRY
        MOLECULE
        ALL
        CHECK_SYMMETRY Ci
      &END
    &END
  &END SUBSYS
&END FORCE_EVAL
&GLOBAL
  PROJECT symmetry
  RUN_TYPE ENERGY
&END GLOBAL
