&FORCE_EVAL
  METHOD Quickstep
  &DFT
    &QS
      METHOD PM6
      &SE
      &END
    &END QS
    &SCF
      MAX_SCF 0
    &END SCF
  &END DFT
  &SUBSYS
    &CELL
      ABC 20.0 20.0 20.0
      PERIODIC NONE
    &END CELL
    &COORD
C  0       0      0
C  0       0      2
He 0. 1. 1.
He 0.9510565162951535 0.30901699437494745 1.
He 0.5877852522924732 -0.8090169943749473 1.
He -0.587785252292473 -0.8090169943749475 1.
He -0.9510565162951536 0.30901699437494723 1.
    &END COORD
    &PRINT
      &SYMMETRY
        MOLECULE
        ALL
        CHECK_SYMMETRY D5h
      &END
    &END
  &END SUBSYS
&END FORCE_EVAL
&GLOBAL
  PROJECT symmetry
  RUN_TYPE ENERGY
&END GLOBAL
