
&FORCE_EVAL
  METHOD Quickstep
  &DFT
    &QS
      METHOD PM6
      &SE
      &END
    &END QS
    &SCF
      MAX_SCF 0
    &END SCF
  &END DFT
  &SUBSYS
    &CELL
      ABC 20.0 20.0 20.0
      UNIT ANGSTROM
      PERIODIC NONE
    &END CELL
    &COORD
He  0.09950  0.99504 1.1
He -0.09950  0.99504 0.9
He  0.97708  0.21285 1.1
He  0.91559  0.40212 0.9
He  0.50437 -0.86349 1.1
He  0.66537 -0.74652 0.9
He -0.66537 -0.74652 1.1
He -0.50437 -0.86349 0.9
He -0.91559  0.40212 1.1
He -0.97708  0.21285 0.9
    &END COORD
    &PRINT
      &SYMMETRY
        MOLECULE
        ALL
        CHECK_SYMMETRY D5
      &END
    &END
  &END SUBSYS
&END FORCE_EVAL
&GLOBAL
  PROJECT symmetry
  RUN_TYPE ENERGY
&END GLOBAL
