&FORCE_EVAL
  METHOD Quickstep
  &DFT
    &QS
      METHOD PM6
      &SE
      &END
    &END QS
    &SCF
      MAX_SCF 0
    &END SCF
  &END DFT
  &SUBSYS
    &CELL
      ABC 20.0 20.0 20.0
      UNIT ANGSTROM
      PERIODIC NONE
    &END CELL
    &COORD
He  0.09950  0.99504 1.1
He -0.09950  0.99504 0.9
He  0.91148  0.41135 1.1
He  0.81198  0.58369 0.9
He  0.81198 -0.58369 1.1
He  0.91148 -0.41135 0.9
He -0.09950 -0.99504 1.1
He  0.09950 -0.99504 0.9
He -0.91148 -0.41135 1.1
He -0.81198 -0.58369 0.9
He -0.81198  0.58369 1.1
He -0.91148  0.41135 0.9
    &END COORD
    &PRINT
      &SYMMETRY
        MOLECULE
        CHECK_SYMMETRY D6
        ALL
      &END
    &END
  &END SUBSYS
&END FORCE_EVAL
&GLOBAL
  PROJECT symmetry
  RUN_TYPE ENERGY
&END GLOBAL
