&FORCE_EVAL
  METHOD Quickstep
  &DFT
    &QS
      METHOD PM6
      &SE
      &END
    &END QS
    &SCF
      MAX_SCF 0
    &END SCF
  &END DFT
  &SUBSYS
    &CELL
      ABC 20.0 20.0 20.0
      PERIODIC NONE
    &END CELL
    &COORD
He  0.00000  1.00000 1.0
He  0.50000  0.86603 1.1
He  0.86603  0.50000 1.0
He  1.00000  0.00000 1.1
He  0.86603 -0.50000 1.0
He  0.50000 -0.86603 1.1
He  0.00000 -1.00000 1.0
He -0.50000 -0.86603 1.1
He -0.86603 -0.50000 1.0
He -1.00000  0.00000 1.1
He -0.86603  0.50000 1.0
He -0.50000  0.86603 1.1
    &END COORD
    &PRINT
      &SYMMETRY
        MOLECULE
        ALL
        CHECK_SYMMETRY D6d
      &END
    &END
  &END SUBSYS
&END FORCE_EVAL
&GLOBAL
  PROJECT symmetry
  RUN_TYPE ENERGY
&END GLOBAL
