&FORCE_EVAL
  METHOD Quickstep
  &DFT
    &QS
      METHOD PM6
      &SE
      &END
    &END QS
    &SCF
      MAX_SCF 0
    &END SCF
  &END DFT
  &SUBSYS
    &CELL
      ABC 20.0 20.0 20.0
      UNIT ANGSTROM
      PERIODIC NONE
    &END CELL
    &COORD
He  0.00000  1.00000 1.0
He  0.43388  0.90097 1.1
He  0.78183  0.62349 1.0
He  0.97493  0.22252 1.1
He  0.97493 -0.22252 1.0
He  0.78183 -0.62349 1.1
He  0.43388 -0.90097 1.0
He  0.00000 -1.00000 1.1
He -0.43388 -0.90097 1.0
He -0.78183 -0.62349 1.1
He -0.97493 -0.22252 1.0
He -0.97493  0.22252 1.1
He -0.78183  0.62349 1.0
He -0.43388  0.90097 1.1
    &END COORD
    &PRINT
      &SYMMETRY
        MOLECULE
        CHECK_SYMMETRY D7d
        ALL
      &END
    &END
  &END SUBSYS
&END FORCE_EVAL
&GLOBAL
  PROJECT symmetry
  RUN_TYPE ENERGY
&END GLOBAL
