&FORCE_EVAL
  METHOD Quickstep
  &DFT
    &QS
      METHOD PM6
      &SE
      &END
    &END QS
    &SCF
      MAX_SCF 0
    &END SCF
  &END DFT
  &SUBSYS
    &CELL
      ABC 20.0 20.0 20.0
      PERIODIC NONE
    &END CELL
    &COORD
He  0.09950  0.99504 1.1
He -0.09950  0.99504 0.9
He  0.77396  0.63324 1.1
He  0.63324  0.77396 0.9
He  0.99504 -0.09950 1.1
He  0.99504  0.09950 0.9
He  0.63324 -0.77396 1.1
He  0.77396 -0.63324 0.9
He -0.09950 -0.99504 1.1
He  0.09950 -0.99504 0.9
He -0.77396 -0.63324 1.1
He -0.63324 -0.77396 0.9
He -0.99504  0.09950 1.1
He -0.99504 -0.09950 0.9
He -0.63324  0.77396 1.1
He -0.77396  0.63324 0.9
    &END COORD
    &PRINT
      &SYMMETRY
        MOLECULE
        CHECK_SYMMETRY D8
        ALL
      &END
    &END
  &END SUBSYS
&END FORCE_EVAL
&GLOBAL
  PROJECT symmetry
  RUN_TYPE ENERGY
&END GLOBAL
