&FORCE_EVAL
  METHOD Quickstep
  &DFT
    &QS
      METHOD PM6
      &SE
      &END
    &END QS
    &SCF
      MAX_SCF 0
    &END SCF
  &END DFT
  &SUBSYS
    &CELL
      ABC 20.0 20.0 20.0
      UNIT ANGSTROM
      PERIODIC NONE
    &END CELL
    &COORD
C 0 0 0
O 1 1 1
C 2 2 2
    &END COORD
    &PRINT
      &SYMMETRY
        MOLECULE
        CHECK_SYMMETRY D*h
        ALL
      &END
    &END
  &END SUBSYS
&END FORCE_EVAL
&GLOBAL
  PROJECT symmetry
  RUN_TYPE ENERGY
&END GLOBAL
