&FORCE_EVAL
  METHOD Quickstep
  &DFT
    &QS
      METHOD PM6
      &SE
      &END
    &END QS
    &SCF
      MAX_SCF 0
    &END SCF
  &END DFT
  &SUBSYS
    &CELL
      ABC 20.0 20.0 20.0
      UNIT ANGSTROM
      PERIODIC NONE
    &END CELL
    &COORD
C     -0.134836165729   -0.500000000000   -1.566531156354
C     -0.134836165729    0.500000000000    1.566531156354
C     -0.125000000000    1.180259913385    1.146107408698
C      0.343169499062    1.045423747656    1.229440742031
C     -0.420423747656    0.843169499062    1.354440742031
C      0.337090414323    0.625000000000    1.489276907760
C      0.134836165729    0.500000000000   -1.566531156354
C     -0.343169499062    1.045423747656   -1.229440742031
C      0.125000000000    1.180259913385   -1.146107408698
C     -0.337090414323    0.625000000000   -1.489276907760
C      0.420423747656    0.843169499062   -1.354440742031
C      0.134836165729   -0.500000000000    1.566531156354
C     -0.343169499062   -1.045423747656    1.229440742031
C      0.125000000000   -1.180259913385    1.146107408698
C     -0.337090414323   -0.625000000000    1.489276907760
C      0.420423747656   -0.843169499062    1.354440742031
C     -0.125000000000   -1.180259913385   -1.146107408698
C      0.343169499062   -1.045423747656   -1.229440742031
C     -0.420423747656   -0.843169499062   -1.354440742031
C      0.337090414323   -0.625000000000   -1.489276907760
C      0.843169499062    1.354440742031   -0.420423747656
C      0.625000000000    1.489276907760    0.337090414323
C      0.500000000000    1.566531156354   -0.134836165729
C      1.180259913385    1.146107408698   -0.125000000000
C      1.045423747656    1.229440742031    0.343169499062
C      0.625000000000   -1.489276907760   -0.337090414323
C      0.843169499062   -1.354440742031    0.420423747656
C      0.500000000000   -1.566531156354    0.134836165729
C      1.045423747656   -1.229440742031   -0.343169499062
C      1.180259913385   -1.146107408698    0.125000000000
C     -0.625000000000    1.489276907760   -0.337090414323
C     -0.843169499062    1.354440742031    0.420423747656
C     -0.500000000000    1.566531156354    0.134836165729
C     -1.045423747656    1.229440742031   -0.343169499062
C     -1.180259913385    1.146107408698    0.125000000000
C     -0.843169499062   -1.354440742031   -0.420423747656
C     -0.625000000000   -1.489276907760    0.337090414323
C     -0.500000000000   -1.566531156354   -0.134836165729
C     -1.180259913385   -1.146107408698   -0.125000000000
C     -1.045423747656   -1.229440742031    0.343169499062
C      1.146107408698   -0.125000000000    1.180259913385
C      1.229440742031    0.343169499062    1.045423747656
C      1.354440742031   -0.420423747656    0.843169499062
C      1.489276907760    0.337090414323    0.625000000000
C      1.566531156354   -0.134836165729    0.500000000000
C      1.229440742031   -0.343169499062   -1.045423747656
C      1.146107408698    0.125000000000   -1.180259913385
C      1.489276907760   -0.337090414323   -0.625000000000
C      1.354440742031    0.420423747656   -0.843169499062
C      1.566531156354    0.134836165729   -0.500000000000
C     -1.229440742031   -0.343169499062    1.045423747656
C     -1.146107408698    0.125000000000    1.180259913385
C     -1.489276907760   -0.337090414323    0.625000000000
C     -1.354440742031    0.420423747656    0.843169499062
C     -1.566531156354    0.134836165729    0.500000000000
C     -1.146107408698   -0.125000000000   -1.180259913385
C     -1.229440742031    0.343169499062   -1.045423747656
C     -1.354440742031   -0.420423747656   -0.843169499062
C     -1.489276907760    0.337090414323   -0.625000000000
C     -1.566531156354   -0.134836165729   -0.500000000000
    &END COORD
    &PRINT
      &SYMMETRY
        MOLECULE
        CHECK_SYMMETRY I
        ALL
      &END
    &END
  &END SUBSYS
&END FORCE_EVAL
&GLOBAL
  PROJECT symmetry
  RUN_TYPE ENERGY
&END GLOBAL
