&FORCE_EVAL
  METHOD Quickstep
  &DFT
    &QS
      METHOD PM6
      &SE
      &END
    &END QS
    &SCF
      MAX_SCF 0
    &END SCF
  &END DFT
  &SUBSYS
    &CELL
      ABC 20.0 20.0 20.0
      PERIODIC NONE
    &END CELL
    &COORD
C    0.000000000000  1.00000000000   1.618033988749895
C    0.000000000000 -1.00000000000   1.618033988749895
C    0.000000000000  1.00000000000  -1.618033988749895
C    0.000000000000 -1.00000000000  -1.618033988749895
C    1.00000000000   1.618033988749895  0.000000000000
C   -1.00000000000   1.618033988749895  0.000000000000
C    1.00000000000  -1.618033988749895  0.000000000000
C   -1.00000000000  -1.618033988749895  0.000000000000
C    1.618033988749895  0.000000000000  1.000000000000
C    1.618033988749895  0.000000000000 -1.000000000000
C   -1.618033988749895  0.000000000000  1.000000000000
C   -1.618033988749895  0.000000000000 -1.000000000000
    &END COORD
    &PRINT
      &SYMMETRY
        MOLECULE
        CHECK_SYMMETRY Ih
        ALL
      &END
    &END
  &END SUBSYS
&END FORCE_EVAL
&GLOBAL
  PROJECT symmetry
  RUN_TYPE ENERGY
&END GLOBAL
