&FORCE_EVAL
  METHOD Quickstep
  &DFT
    &QS
      METHOD PM6
      &SE
      &END
    &END QS
    &SCF
      MAX_SCF 0
    &END SCF
  &END DFT
  &SUBSYS
    &CELL
      ABC 20.0 20.0 20.0
      PERIODIC NONE
    &END CELL
    &COORD
C 0. 1. 0.
C 0.8660254037844386 0.500000000000000 1.
C 0.8660254037844387 -0.50000000000000 0.
C 0. -1. 1.
C -0.8660254037844385 -0.500000000000000 0.
C -0.866025403784439 0.5000000000000000 1.
N -0.5440211108893698 -0.8390715290764524 0.5
N -0.998667815217146 0.05160033768699969 0.5
N -0.45464670432777676 0.8906718667634513 0.5
N 0.5440211108893697 0.8390715290764525 0.5
N 0.9986678152171461 -0.051600337686997795 0.5
N 0.4546467043277769 -0.8906718667634512 0.5
    &END COORD
    &PRINT
      &SYMMETRY
        MOLECULE
        CHECK_SYMMETRY S6
        ALL
      &END
    &END
  &END SUBSYS
&END FORCE_EVAL
&GLOBAL
  PROJECT symmetry
  RUN_TYPE ENERGY
&END GLOBAL
