&FORCE_EVAL
  METHOD Quickstep
  &DFT
    &QS
      METHOD PM6
      &SE
      &END
    &END QS
    &SCF
      MAX_SCF 0
    &END SCF
  &END DFT
  &SUBSYS
    &CELL
      ABC 20.0 20.0 20.0
      UNIT ANGSTROM
      PERIODIC NONE
    &END CELL
    &COORD
C   0.10      0.20      1.00
C  -0.10     -0.20      1.00
C   1.00      0.10      0.20
C   1.00     -0.10     -0.20
C  -1.00     -0.10      0.20
C  -1.00      0.10     -0.20
C   0.20      1.00      0.10
C  -0.20      1.00     -0.10
C  -0.20     -1.00      0.10
C   0.20     -1.00     -0.10
C   0.10     -0.20     -1.00
C  -0.10      0.20     -1.00
    &END COORD
    &PRINT
      &SYMMETRY
        MOLECULE
        CHECK_SYMMETRY T
        ALL
      &END
    &END
  &END SUBSYS
&END FORCE_EVAL
&GLOBAL
  PROJECT symmetry
  RUN_TYPE ENERGY
&END GLOBAL
