&FORCE_EVAL
  METHOD Quickstep
  &DFT
    &QS
      METHOD PM6
      &SE
      &END
    &END QS
    &SCF
      MAX_SCF 0
    &END SCF
  &END DFT
  &SUBSYS
    &CELL
      ABC 20.0 20.0 20.0
      PERIODIC NONE
    &END CELL
    &COORD
H  0.00000000000000  0.00000000000000  1.00000000000000000
H -0.9428090415820634  0.00000000000000 -0.33333333333333333
H  0.4714045207910317  0.816496580927726 -0.33333333333333333
H  0.4714045207910317 -0.816496580927726 -0.33333333333333333
    &END COORD
    &PRINT
      &SYMMETRY
        MOLECULE
        ALL
        CHECK_SYMMETRY Td
      &END
    &END
  &END SUBSYS
&END FORCE_EVAL
&GLOBAL
  PROJECT symmetry
  RUN_TYPE ENERGY
&END GLOBAL
