@SET RESTART_WFN          FALSE
@SET WFN_FILE             HeH-noconstraint-1_0.wfn
@SET PROJECT_NAME         HeH-noconstraint
@SET WRITE_WFN            1
@SET CHARGE               1
@SET WRITE_CUBE           FALSE
@SET XYZFILE              HeH.xyz

@SET BECKE_ACTIVE         FALSE
@SET BECKE_FRAGMENT       FALSE
@SET MAX_SCF              0
! He+ H
@SET BECKE_TARGET_1       0.0
@SET BECKE_STR_1          0.0
! He H+
@SET BECKE_TARGET_2       2.0
@SET BECKE_STR_2          0.0

@SET BECKE_GLOBAL_CUTOFF  TRUE
@SET BECKE_CUTOFF_ELEMENT FALSE

@SET BECKE_ADJUST_SIZE    FALSE

@SET BECKE_ATOMIC_CHARGES FALSE

@SET BECKE_CAVITY_CONFINE FALSE
@SET BECKE_CAVITY_SHAPE   VDW
@SET BECKE_CAVITY_PRINT   FALSE

@SET BECKE_SHOULD_SKIP    FALSE

@SET BECKE_IN_MEMORY      FALSE

&GLOBAL
  PROJECT ${PROJECT_NAME}
  RUN_TYPE ENERGY
  PRINT_LEVEL MEDIUM
&END GLOBAL

&FORCE_EVAL
  METHOD QS
  @include dft-common-params.inc
  @include subsys.inc
&END FORCE_EVAL
