&GLOBAL
  PRINT_LEVEL LOW
  PROJECT h2_periodic_kpoints_sym_casino
  RUN_TYPE ENERGY
&END GLOBAL

&FORCE_EVAL
  METHOD Quickstep
  &DFT
    BASIS_SET_FILE_NAME EMSL_BASIS_SETS
    POTENTIAL_FILE_NAME POTENTIAL
    &KPOINTS
      EPS_SYMMETRY 1.0E-8
      FULL_GRID OFF
      SCHEME MONKHORST-PACK 2 1 1
      SYMMETRY ON
      SYMMETRY_BACKEND K290
      WAVEFUNCTIONS COMPLEX
    &END KPOINTS
    &MGRID
      CUTOFF 100
    &END MGRID
    &PRINT
      &CASINO
        FILENAME gwfn.data
      &END CASINO
    &END PRINT
    &QS
      METHOD GAPW
    &END QS
    &SCF
      ADDED_MOS 20
      EPS_SCF 1.0E-6
      MAX_SCF 80
      SCF_GUESS ATOMIC
      &DIAGONALIZATION
        ALGORITHM STANDARD
      &END DIAGONALIZATION
      &MIXING
        ALPHA 0.4
        METHOD BROYDEN_MIXING
      &END MIXING
    &END SCF
    &XC
      &XC_FUNCTIONAL BLYP
      &END XC_FUNCTIONAL
    &END XC
  &END DFT
  &SUBSYS
    &CELL
      ABC 5.0 5.0 5.0
      PERIODIC XYZ
    &END CELL
    &COORD
      H   0.000000  0.000000  0.373334
      H   0.000000  0.000000 -0.373334
    &END COORD
    &KIND H
      BASIS_SET 3-21G*
      HARD_EXP_RADIUS 0.8
      LEBEDEV_GRID 10
      POTENTIAL ALL
      RADIAL_GRID 20
    &END KIND
  &END SUBSYS
&END FORCE_EVAL
