&GLOBAL
  PRINT_LEVEL MEDIUM
  PROJECT COBe
  RUN_TYPE DEBUG
&END GLOBAL

&DEBUG
  DEBUG_FORCES T
  DEBUG_STRESS_TENSOR T
  DX 0.0001
&END DEBUG

&FORCE_EVAL
  STRESS_TENSOR ANALYTICAL
  &DFT
    &QS
      METHOD xTB
      &XTB
        &TBLITE
          METHOD GFN2
        &END TBLITE
      &END XTB
    &END QS
    &SCF
      EPS_SCF 1.e-8
      MAX_SCF 100
      SCF_GUESS MOPAC
      &MIXING
        ALPHA 0.2
        METHOD DIRECT_P_MIXING
      &END MIXING
    &END SCF
  &END DFT
  &PRINT
    &FORCES ON
    &END FORCES
  &END PRINT
  &SUBSYS
    &CELL
      ABC 20.0 20.0 20.0
      PERIODIC NONE
    &END CELL
    &COORD
      O    -0.564000    0.000000    0.000000
      C     0.564000    0.000000    0.000000
      Be    0.000000    4.000000    0.000000
    &END COORD
  &END SUBSYS
&END FORCE_EVAL
