&GLOBAL
  PRINT_LEVEL LOW
  PROJECT Hg2Cl2
  RUN_TYPE DEBUG
&END GLOBAL

&DEBUG
  DEBUG_FORCES T
  DEBUG_STRESS_TENSOR F
  DX 0.0001
&END DEBUG

&FORCE_EVAL
  STRESS_TENSOR ANALYTICAL
  &DFT
    CHARGE 0
    MULTIPLICITY 1
    &PRINT
      &DERIVATIVES ON
      &END DERIVATIVES
    &END PRINT
    &QS
      METHOD xTB
      &XTB
        &TBLITE
          METHOD GFN2
        &END TBLITE
      &END XTB
    &END QS
    &SCF
      ADDED_MOS -1 -1
      EPS_SCF 0.8e-8
      MAX_SCF 100
      SCF_GUESS RESTART
      &SMEAR ON
        ELECTRONIC_TEMPERATURE 300
        METHOD Fermi_Dirac
      &END SMEAR
    &END SCF
  &END DFT
  &PRINT
    &FORCES ON
    &END FORCES
  &END PRINT
  &SUBSYS
    &CELL
      ABC 15 15 15
      PERIODIC NONE
    &END CELL
    &COORD
      Hg      10.49952604       9.17700906      10.50000000
      Hg      10.50047396      11.82218607      10.50000000
      Cl      10.50004307       6.80917540      10.50000000
      Cl      10.50001456      14.19082460      10.50000000
    &END COORD
    &TOPOLOGY
      &CENTER_COORDINATES T
      &END CENTER_COORDINATES
    &END TOPOLOGY
  &END SUBSYS
&END FORCE_EVAL
