&GLOBAL
  PRINT_LEVEL HIGH
  PROJECT dat_NH3
  RUN_TYPE ENERGY
&END GLOBAL

&FORCE_EVAL
  &DFT
    &POISSON
      PERIODIC NONE
      POISSON_SOLVER ANALYTIC
    &END POISSON
    &QS
      METHOD xTB
      &XTB
        &TBLITE
          METHOD GFN2
        &END TBLITE
      &END XTB
    &END QS
    &SCF
      EPS_SCF 1.e-8
      MAX_SCF 100
      &MIXING
        ALPHA 0.2
        METHOD DIRECT_P_MIXING
      &END MIXING
    &END SCF
  &END DFT
  &SUBSYS
    &CELL
      ABC 4.96216369999999 4.96216369999999 4.96216369999999
      PERIODIC NONE
    &END CELL
    &COORD
      H      1.85960    1.35580    0.52320
      H      1.35580    0.52320    1.85960
      H      0.52320    1.85960    1.35580
      N      1.03420    1.03420    1.03420
    &END COORD
  &END SUBSYS
&END FORCE_EVAL
