&GLOBAL
  PRINT_LEVEL MEDIUM
  PROJECT O2_gfn2_uks_kp_debug
  RUN_TYPE DEBUG
&END GLOBAL

&DEBUG
  DEBUG_FORCES T
  DEBUG_STRESS_TENSOR T
  DX 0.0001
  STOP_ON_MISMATCH F
&END DEBUG

&FORCE_EVAL
  STRESS_TENSOR ANALYTICAL
  &DFT
    LSD
    MULTIPLICITY 3
    &KPOINTS
      FULL_GRID OFF
      SCHEME MONKHORST-PACK 2 2 2
      SYMMETRY ON
      SYMMETRY_BACKEND SPGLIB
    &END KPOINTS
    &QS
      EPS_DEFAULT 1.00E-12
      METHOD xTB
      &XTB
        GFN_TYPE TBLITE
        SCC_MIXER TBLITE
        &TBLITE
          METHOD GFN2
        &END TBLITE
      &END XTB
    &END QS
    &SCF
      ADDED_MOS 1 3
      EPS_SCF 1.e-10
      MAX_SCF 200
      SCF_GUESS MOPAC
      &PRINT
        &RESTART OFF
        &END RESTART
      &END PRINT
    &END SCF
  &END DFT
  &SUBSYS
    &CELL
      ABC 4.0 4.0 4.0
      PERIODIC XYZ
    &END CELL
    &COORD
      O     0.417000    0.283000    0.191000
      O     1.625000    0.311000    0.203000
    &END COORD
  &END SUBSYS
&END FORCE_EVAL
