&GLOBAL
  PRINT_LEVEL LOW
  PROJECT O2plus_gfn2_uks_cp2k_mixer
  RUN_TYPE ENERGY_FORCE
&END GLOBAL

&FORCE_EVAL
  &DFT
    CHARGE 1
    LSD
    MULTIPLICITY 2
    &QS
      EPS_DEFAULT 1.00E-12
      METHOD xTB
      &XTB
        GFN_TYPE TBLITE
        SCC_MIXER CP2K
        &TBLITE
          METHOD GFN2
        &END TBLITE
      &END XTB
    &END QS
    &SCF
      ADDED_MOS 1 2
      EPS_SCF 1.e-6
      MAX_SCF 80
      SCF_GUESS MOPAC
      &MIXING
        ALPHA 0.4
        METHOD BROYDEN_MIXING
        NBUFFER 8
      &END MIXING
      &PRINT
        &RESTART OFF
        &END RESTART
      &END PRINT
    &END SCF
  &END DFT
  &SUBSYS
    &CELL
      ABC 20.0 20.0 20.0
      PERIODIC NONE
    &END CELL
    &COORD
      O     0.000000    0.000000    0.000000
      O     1.208000    0.000000    0.000000
    &END COORD
  &END SUBSYS
&END FORCE_EVAL
