&GLOBAL
  PRINT_LEVEL MEDIUM
  PROJECT Si_gfn2_asym_fd_stress
  RUN_TYPE DEBUG
&END GLOBAL

&DEBUG
  DEBUG_FORCES F
  DEBUG_STRESS_TENSOR T
  DX 0.0001
  MAX_RELATIVE_ERROR 0.5
  STOP_ON_MISMATCH F
&END DEBUG

&FORCE_EVAL
  STRESS_TENSOR ANALYTICAL
  &DFT
    &KPOINTS
      SCHEME NONE
    &END KPOINTS
    &POISSON
      PERIODIC XYZ
      POISSON_SOLVER PERIODIC
    &END POISSON
    &QS
      EPS_DEFAULT 1.0E-14
      METHOD xTB
      &XTB
        GFN_TYPE TBLITE
        &TBLITE
          METHOD GFN2
        &END TBLITE
      &END XTB
    &END QS
    &SCF
      ADDED_MOS -1 -1
      EPS_SCF 1.0E-10
      MAX_SCF 1000
      SCF_GUESS MOPAC
      &MIXING
        ALPHA 0.2
        METHOD DIRECT_P_MIXING
      &END MIXING
      &SMEAR ON
        ELECTRONIC_TEMPERATURE 300
        METHOD FERMI_DIRAC
      &END SMEAR
    &END SCF
  &END DFT
  &SUBSYS
    &CELL
      ABC 5.4310000000 5.4310000000 5.4310000000
      PERIODIC XYZ
    &END CELL
    &COORD
      Si     0.01300000     0.00700000     0.01100000
      Si     2.69650000     2.72950000     0.01700000
      Si     2.73150000     0.01800000     2.70350000
      Si     0.02100000     2.70050000     2.73450000
      Si     1.36775000     1.34175000     1.37775000
      Si     1.33975000     4.11140500     4.08640500
      Si     4.11540500     1.37675000     4.11340500
      Si     4.08340500     4.09040500     1.33975000
    &END COORD
  &END SUBSYS
&END FORCE_EVAL
