@SET RESTART_WFN          TRUE
@SET WFN_FILE             He2H-noconstraint-1_0.wfn
@SET PROJECT_NAME         He2H-cdft-state-2b
@SET WRITE_WFN            1
@SET CHARGE               1
@SET WRITE_CUBE           FALSE
@SET XYZFILE              He2H.xyz

@SET BECKE_ACTIVE         TRUE
@SET BECKE_FRAGMENT       FALSE
@SET MAX_SCF              5
! He+ [H He]0
@SET BECKE_TARGET_1       1.2
@SET BECKE_STR_1          0.0

@SET BECKE_TARGET_1B      0.8
@SET BECKE_STR_1B         0.0
! He0 [H He]+
@SET BECKE_TARGET_2       2.4
@SET BECKE_STR_2          0.0

@SET BECKE_TARGET_2B      2.3
@SET BECKE_STR_2B         0.0

@SET BECKE_GLOBAL_CUTOFF  TRUE
@SET BECKE_CUTOFF_ELEMENT FALSE

@SET BECKE_ADJUST_SIZE    TRUE

@SET BECKE_ATOMIC_CHARGES TRUE

@SET BECKE_CAVITY_CONFINE TRUE
@SET BECKE_CAVITY_SHAPE   VDW
@SET BECKE_CAVITY_PRINT   FALSE

@SET BECKE_SHOULD_SKIP    FALSE

@SET BECKE_IN_MEMORY      FALSE

&GLOBAL
  PROJECT ${PROJECT_NAME}
  RUN_TYPE ENERGY
  PRINT_LEVEL MEDIUM
&END GLOBAL

&FORCE_EVAL
  METHOD QS
  @SET BECKE_STR ${BECKE_STR_2B}
  @SET BECKE_TARGET ${BECKE_TARGET_2B}
  @include dft-common-params.inc
  @include subsys.inc
&END FORCE_EVAL
