&FORCE_EVAL
  METHOD FIST
  &MM
    &FORCEFIELD
      parm_file_name ../sample_pot/deca_ala.pot
      parmtype CHM
    &END FORCEFIELD
    &POISSON
      &EWALD
        EWALD_TYPE ewald
        ALPHA .36
        GMAX 29
      &END EWALD
    &END POISSON
  &END MM
  &SUBSYS
    &CELL
      ABC 50.0 50.0 50.0
    &END CELL
    &TOPOLOGY
      CHARGE_BETA
      COORD_FILE_NAME ../sample_pdb/deca_ala.pdb
      COORDINATE PDB
    &END TOPOLOGY
  &END SUBSYS
&END FORCE_EVAL
&GLOBAL
  PROJECT deca_ala_avg2
  PRINT_LEVEL LOW
  RUN_TYPE md
&END GLOBAL
&MOTION
  &CONSTRAINT
     &HBONDS
       MOLECULE 1 2 3 4 5 6 7 8 9 10
     &END
  &END
  &MD
    ENSEMBLE NVE
    STEPS 20
    TIMESTEP 2.5
    TEMPERATURE 298
    &AVERAGES
      ACQUISITION_START_TIME [fs] 20.0
      AVERAGE_COLVAR T
      &PRINT_AVERAGES
        &EACH
           MD 5
        &END
      &END
    &END
  &END MD
&END MOTION
