&GLOBAL
  PROJECT water_1_fck3
  RUN_TYPE md
&END GLOBAL

&MOTION
  &MD
    ENSEMBLE NVE
    STEPS 100
    TEMPERATURE 298
    TIMESTEP 2.5
  &END MD
  &PRINT
    &RESTART
      &EACH
        MD 1
      &END EACH
    &END RESTART
  &END PRINT
&END MOTION

&FORCE_EVAL
  METHOD FIST
  STRESS_TENSOR ANALYTICAL
  &MM
    &FORCEFIELD
      PARMTYPE CHM
      PARM_FILE_NAME ../sample_pot/water.pot
      &CHARGE
        ATOM OT
        CHARGE -0.8476
      &END CHARGE
      &CHARGE
        ATOM HT
        CHARGE 0.4238
      &END CHARGE
    &END FORCEFIELD
    &POISSON
      &EWALD
        ALPHA .44
        EWALD_TYPE pme
        GMAX 48
        NS_MAX 11
      &END EWALD
    &END POISSON
  &END MM
  &PROPERTIES
    &ATOMIC
      ENERGY
      PRESSURE
    &END ATOMIC
  &END PROPERTIES
  &SUBSYS
    &CELL
      ABC 24.955 24.955 24.955
    &END CELL
    &TOPOLOGY
      COORDINATE pdb
      COORD_FILE_NAME ../sample_pdb/water_1.pdb
    &END TOPOLOGY
  &END SUBSYS
&END FORCE_EVAL
