&FORCE_EVAL
  METHOD FIST
  STRESS_TENSOR ANALYTICAL
  &PROPERTIES
     &ATOMIC
        ENERGY
        PRESSURE
     &END ATOMIC
  &END PROPERTIES
  &MM
    &FORCEFIELD
      parm_file_name ../sample_pot/water.pot
      parmtype CHM
      &CHARGE
        ATOM OT
        CHARGE -0.8476
      &END CHARGE
      &CHARGE
        ATOM HT
        CHARGE 0.4238
      &END CHARGE
    &END FORCEFIELD
    &POISSON
      &EWALD
        EWALD_TYPE pme
        ALPHA .44
        GMAX 48
        NS_MAX 11
      &END EWALD
    &END POISSON
  &END MM
  &SUBSYS
    &CELL
      ABC 24.955 24.955 24.955
    &END CELL
    &TOPOLOGY
      COORD_FILE_NAME ../sample_pdb/water_1.pdb
      COORDINATE pdb
    &END TOPOLOGY
  &END SUBSYS
&END FORCE_EVAL
&GLOBAL
  PROJECT water_1_fck3
  RUN_TYPE md
&END GLOBAL
&MOTION
  &MD
    ENSEMBLE NVE
    STEPS 100
    TIMESTEP 2.5
    TEMPERATURE 298
  &END MD
  &PRINT
    &RESTART
      &EACH
        MD 1
      &END
    &END
  &END
&END MOTION
