&GLOBAL
  PROJECT CH2O_tddfpt_stda-s-1
  RUN_TYPE ELECTRONIC_SPECTRA
  PRINT_LEVEL LOW
&END GLOBAL
&FORCE_EVAL
  METHOD Quickstep
  &DFT
    EXCITATIONS tddfpt
    BASIS_SET_FILE_NAME GTH_BASIS_SETS
    POTENTIAL_FILE_NAME POTENTIAL
    &MGRID
      CUTOFF 100
    &END MGRID
    &QS
    &END QS
    &POISSON
     POISSON_SOLVER WAVELET
     PERIODIC NONE
    &END POISSON
    &SCF
      MAX_SCF 20
      SCF_GUESS atomic
    &END SCF
    &TDDFPT
      CALCULATE_KERNEL T
      KERNEL sTDA
      &sTDA 
       FRACTION 0.0
      &END sTDA
      MAX_KV 10
      METHOD DAVIDSON
      NEV 1
      REORTHO 2
      RES_ETYPE S
      RESTARTS 2
    &END TDDFPT
    &XC
      &XC_FUNCTIONAL PBE
      &END XC_FUNCTIONAL
    &END XC
  &END DFT
  &SUBSYS
    &CELL
      ABC 8.0 8.0 8.0
      PERIODIC NONE
    &END CELL
    &TOPOLOGY
     &CENTER_COORDINATES
     &END
    &END TOPOLOGY
    &COORD
  O         0.094933   -0.000368    0.895642
  C        -0.031077   -0.000121   -0.307326
  H        -0.090437    0.947608   -0.895642
  H        -0.094933   -0.947608   -0.895562
    &END COORD
    &KIND O
      BASIS_SET aug-TZV2P-GTH
      POTENTIAL GTH-PBE-q6
    &END KIND
    &KIND C
      BASIS_SET aug-TZV2P-GTH
      POTENTIAL GTH-PBE-q4
    &END KIND
    &KIND H
      BASIS_SET aug-TZV2P-GTH
      POTENTIAL GTH-PBE-q1
    &END KIND
  &END SUBSYS
&END FORCE_EVAL
