&GLOBAL
  PRINT_LEVEL LOW
  PROJECT H2O_tddfpt_stda-pbe0-s
  RUN_TYPE ENERGY
&END GLOBAL

&FORCE_EVAL
  METHOD Quickstep
  &DFT
    BASIS_SET_FILE_NAME BASIS_SET
    POTENTIAL_FILE_NAME POTENTIAL
    &MGRID
      CUTOFF 100
    &END MGRID
    &POISSON
      PERIODIC NONE
      POISSON_SOLVER WAVELET
    &END POISSON
    &QS
    &END QS
    &SCF
      MAX_SCF 15
      SCF_GUESS atomic
    &END SCF
    &XC
      &HF
        FRACTION 0.25
      &END HF
      &XC_FUNCTIONAL PBE
        &PBE
          SCALE_C 1.0
          SCALE_X 0.75
        &END PBE
      &END XC_FUNCTIONAL
    &END XC
  &END DFT
  &PROPERTIES
    &TDDFPT
      CONVERGENCE [eV] 1.0e-5
      KERNEL sTDA
      MAX_ITER 50
      NSTATES 3
      &STDA
        FRACTION 0.25
      &END STDA
    &END TDDFPT
  &END PROPERTIES
  &SUBSYS
    &CELL
      ABC 8.0 8.0 8.0
      PERIODIC NONE
    &END CELL
    &COORD
      O   0.000000    0.000000   -0.065587 H2O
      H   0.000000   -0.757136    0.520545 H2O
      H   0.000000    0.757136    0.520545 H2O
    &END COORD
    &KIND H
      BASIS_SET DZVP-GTH-PADE
      POTENTIAL GTH-PADE-q1
    &END KIND
    &KIND O
      BASIS_SET DZVP-GTH-PADE
      POTENTIAL GTH-PADE-q6
    &END KIND
    &TOPOLOGY
      &CENTER_COORDINATES
      &END CENTER_COORDINATES
    &END TOPOLOGY
  &END SUBSYS
&END FORCE_EVAL
