&GLOBAL
  PROJECT NO_tddfpt-s-1
  RUN_TYPE ENERGY
  PRINT_LEVEL LOW
&END GLOBAL
&FORCE_EVAL
  METHOD Quickstep
  &PROPERTIES
    &TDDFPT
       KERNEL sTDA
       &sTDA
          FRACTION 0.0
       &END sTDA
       NSTATES      3
       MAX_ITER    50
       CONVERGENCE [eV] 1.0e-5
    &END TDDFPT
  &END PROPERTIES
  &DFT
    LSD T
    MULTIPLICITY 2
    BASIS_SET_FILE_NAME BASIS_SET
    POTENTIAL_FILE_NAME POTENTIAL
    &MGRID
      CUTOFF 260
    &END MGRID
    &QS
    &END QS
    &SCF
      MAX_SCF 35
      SCF_GUESS atomic
    &END SCF
    &XC
      &XC_FUNCTIONAL PBE
      &END XC_FUNCTIONAL
    &END XC
  &END DFT
  &SUBSYS
    &CELL
      ABC 4.0 4.0 4.0
    &END CELL
    &COORD
  O   0.100000    0.000000    0.542338
  N   0.000000    0.300000   -0.619815
    &END COORD
    &KIND N
      BASIS_SET DZVP-GTH-PADE
      POTENTIAL GTH-PADE-q5
    &END KIND
    &KIND O
      BASIS_SET DZVP-GTH-PADE
      POTENTIAL GTH-PADE-q6
    &END KIND
  &END SUBSYS
&END FORCE_EVAL
