&FORCE_EVAL
  METHOD Quickstep
  &PROPERTIES
    &TDDFPT
       KERNEL FULL
       &XC
         &XC_FUNCTIONAL NONE
         &END XC_FUNCTIONAL
       &END XC
       NSTATES      2
       MAX_ITER    50
       CONVERGENCE [eV] 1.0e-7
       RKS_TRIPLETS F
    &END TDDFPT
  &END PROPERTIES
  &DFT
    &QS
      METHOD GPW
    &END QS
    BASIS_SET_FILE_NAME BASIS_SET
    BASIS_SET_FILE_NAME BASIS_ADMM
    &AUXILIARY_DENSITY_MATRIX_METHOD
      ADMM_PURIFICATION_METHOD NONE
      EXCH_CORRECTION_FUNC DEFAULT
      EXCH_SCALING_MODEL NONE
      METHOD BASIS_PROJECTION
    &END
    &EXCITED_STATES T
       STATE 2
    &END EXCITED_STATES
    &SCF
      SCF_GUESS ATOMIC 
      &OT
         PRECONDITIONER FULL_SINGLE_INVERSE
         MINIMIZER DIIS
      &END
      &OUTER_SCF
         MAX_SCF  10
         EPS_SCF 1.0E-6
      &END
      MAX_SCF  50
      EPS_SCF 1.0E-6
    &END SCF
    &XC
      &XC_FUNCTIONAL PBE0
      &END XC_FUNCTIONAL
    &END XC
    &MGRID
       CUTOFF  200
       REL_CUTOFF  40
    &END
    &POISSON
       PERIODIC NONE
       POISSON_SOLVER MT
    &END
  &END DFT
  &SUBSYS
    &CELL
      ABC [angstrom] 4.0 4.0 4.0
      PERIODIC NONE
    &END
    &COORD
    O   0.000000    0.000000    0.000000
    H   0.000000   -0.757136    0.580545
    H   0.000000    0.757136    0.580545
    &END COORD
    &TOPOLOGY
     &CENTER_COORDINATES
     &END
    &END
    &KIND H
      BASIS_SET DZV-GTH-PADE
      BASIS_SET AUX_FIT FIT3
      POTENTIAL GTH-PADE-q1
    &END KIND
    &KIND O
      BASIS_SET DZVP-GTH-PADE
      BASIS_SET AUX_FIT FIT3
      POTENTIAL GTH-PADE-q6
    &END KIND
  &END SUBSYS
  &PRINT
     &FORCES
     &END
  &END
&END FORCE_EVAL
&GLOBAL
  PRINT_LEVEL LOW
  PROJECT ftest
  RUN_TYPE GEO_OPT
&END GLOBAL
&MOTION
  &GEO_OPT
     MAX_ITER 1
  &END
&END

