&GLOBAL
  PRINT_LEVEL LOW
  PROJECT As4S4
  RUN_TYPE ENERGY
&END GLOBAL

&FORCE_EVAL
  &DFT
    CHARGE 0
    MULTIPLICITY 1
    &QS
      METHOD xTB
      &XTB
        DO_EWALD F
        GFN_TYPE 0
        VDW_POTENTIAL DFTD4
      &END XTB
    &END QS
    &SCF
      ADDED_MOS -1 -1
      SCF_GUESS NONE
      &SMEAR ON
        ELECTRONIC_TEMPERATURE 300
        METHOD Fermi_Dirac
      &END SMEAR
    &END SCF
  &END DFT
  &SUBSYS
    &CELL
      ABC 15 15 15
      PERIODIC NONE
    &END CELL
    &COORD
      S       8.75341624       8.75341624      11.86056414
      S      10.24658376      10.24658376      11.86056414
      S       8.75341624      10.24658376       7.13943586
      S      10.24658376       8.75341624       7.13943586
      As       9.50000000      11.24762390       9.50000000
      As      11.24762390       9.50000000       9.50000000
      As       9.50000000       7.75237610       9.50000000
      As       7.75237610       9.50000000       9.50000000
    &END COORD
    &TOPOLOGY
      &CENTER_COORDINATES T
      &END CENTER_COORDINATES
    &END TOPOLOGY
  &END SUBSYS
&END FORCE_EVAL
