&GLOBAL
  PRINT_LEVEL LOW
  PROJECT As4S4
  RUN_TYPE ENERGY
&END GLOBAL

&FORCE_EVAL
  &DFT
    CHARGE 0
    MULTIPLICITY 1
    &QS
      METHOD xTB
      &XTB
        GFN_TYPE 0
        VDW_POTENTIAL DFTD4
        DO_EWALD F
      &END XTB
    &END QS
    &SCF
      SCF_GUESS NONE
      ADDED_MOS -1 -1
      &SMEAR ON
        METHOD Fermi_Dirac
        ELECTRONIC_TEMPERATURE 300
      &END
    &END SCF
  &END DFT
  &SUBSYS
    &CELL
      ABC 15 15 15
      PERIODIC NONE
    &END CELL
    &COORD
S       8.75341624       8.75341624      11.86056414       
S      10.24658376      10.24658376      11.86056414      
S       8.75341624      10.24658376       7.13943586     
S      10.24658376       8.75341624       7.13943586    
As       9.50000000      11.24762390       9.50000000  
As      11.24762390       9.50000000       9.50000000 
As       9.50000000       7.75237610       9.50000000
As       7.75237610       9.50000000       9.50000000
    &END COORD
    &TOPOLOGY
      &CENTER_COORDINATES T
      &END
    &END    
  &END SUBSYS
&END FORCE_EVAL
