&GLOBAL
  PRINT_LEVEL LOW
  PROJECT B2H6
  RUN_TYPE ENERGY
&END GLOBAL

&FORCE_EVAL
  &DFT
    CHARGE 0
    MULTIPLICITY 1
    &QS
      METHOD xTB
      &XTB
        GFN_TYPE 0
        VDW_POTENTIAL DFTD4
        DO_EWALD F
      &END XTB
    &END QS
    &SCF
      SCF_GUESS NONE
      ADDED_MOS -1 -1
      &SMEAR ON
        METHOD Fermi_Dirac
        ELECTRONIC_TEMPERATURE 300
      &END
    &END SCF
  &END DFT
  &SUBSYS
    &CELL
      ABC 15 15 15
      PERIODIC NONE
    &END CELL
    &COORD
B       8.00000000       8.00000000       8.88980767        
B       8.00000000       8.00000000       7.11019233       
H       8.00000000       7.00296365       8.00000000      
H       8.00000000       8.99703635       8.00000000     
H       9.05746760       8.00000000       9.47818063    
H       6.94253240       8.00000000       9.47818063   
H       6.94253240       8.00000000       6.52181937  
H       9.05746760       8.00000000       6.52181937 
    &END COORD
    &TOPOLOGY
      &CENTER_COORDINATES T
      &END
    &END    
  &END SUBSYS
&END FORCE_EVAL
