&GLOBAL
  PRINT_LEVEL LOW
  PROJECT BaH2
  RUN_TYPE ENERGY
&END GLOBAL

&FORCE_EVAL
  &DFT
    CHARGE 0
    MULTIPLICITY 1
    &QS
      METHOD xTB
      &XTB
        GFN_TYPE 0
        VDW_POTENTIAL DFTD4
        DO_EWALD F
      &END XTB
    &END QS
    &SCF
      SCF_GUESS NONE
      ADDED_MOS -1 -1
      &SMEAR ON
        METHOD Fermi_Dirac
        ELECTRONIC_TEMPERATURE 300
      &END
    &END SCF
  &END DFT
  &SUBSYS
    &CELL
      ABC 15 15 15
      PERIODIC NONE
    &END CELL
    &COORD
Ba       8.50000000       8.50000000       9.16889179       
H      10.34446359       8.50000000       7.83110821        
H       6.65553641       8.50000000       7.83110821        
    &END COORD
    &TOPOLOGY
      &CENTER_COORDINATES T
      &END
    &END    
  &END SUBSYS
&END FORCE_EVAL
