&GLOBAL
  PRINT_LEVEL LOW
  PROJECT BeC2H6
  RUN_TYPE ENERGY
&END GLOBAL

&FORCE_EVAL
  &DFT
    CHARGE 0
    MULTIPLICITY 1
    &QS
      METHOD xTB
      &XTB
        DO_EWALD F
        GFN_TYPE 0
        VDW_POTENTIAL DFTD4
      &END XTB
    &END QS
    &SCF
      ADDED_MOS -1 -1
      SCF_GUESS NONE
      &SMEAR ON
        ELECTRONIC_TEMPERATURE 300
        METHOD Fermi_Dirac
      &END SMEAR
    &END SCF
  &END DFT
  &SUBSYS
    &CELL
      ABC 15 15 15
      PERIODIC NONE
    &END CELL
    &COORD
      Be       8.50000000       8.50000000       8.50000000
      C       8.49989393      10.18643476       8.50000000
      C       8.50010607       6.81356524       8.50000000
      H       9.52807196      10.61397633       8.50000000
      H       9.01399781       6.38603873       7.60937781
      H       7.98600219      10.61396127       7.60937781
      H       7.47192804       6.38602367       8.50000000
      H       7.98600219      10.61396127       9.39062219
      H       9.01399781       6.38603873       9.39062219
    &END COORD
    &TOPOLOGY
      &CENTER_COORDINATES T
      &END CENTER_COORDINATES
    &END TOPOLOGY
  &END SUBSYS
&END FORCE_EVAL
