&GLOBAL
  PRINT_LEVEL LOW
  PROJECT BeF2O2H4
  RUN_TYPE ENERGY
&END GLOBAL

&FORCE_EVAL
  &DFT
    CHARGE 0
    MULTIPLICITY 1
    &QS
      METHOD xTB
      &XTB
        DO_EWALD F
        GFN_TYPE 0
        VDW_POTENTIAL DFTD4
      &END XTB
    &END QS
    &SCF
      ADDED_MOS -1 -1
      SCF_GUESS NONE
      &SMEAR ON
        ELECTRONIC_TEMPERATURE 300
        METHOD Fermi_Dirac
      &END SMEAR
    &END SCF
  &END DFT
  &SUBSYS
    &CELL
      ABC 15 15 15
      PERIODIC NONE
    &END CELL
    &COORD
      Be       8.49999982       8.49999951       8.25287033
      F       8.50000006       7.14570842       7.65301939
      F       8.49999779       9.85429158       7.65302025
      O       9.92889061       8.49999951       9.34697765
      O       7.07111005       8.50000333       9.34698061
      H      10.44308059       9.28255135       9.05873543
      H       6.55691941       7.71744586       9.05873396
      H      10.44308051       7.71744824       9.05873382
      H       6.55692105       9.28254816       9.05873933
    &END COORD
    &TOPOLOGY
      &CENTER_COORDINATES T
      &END CENTER_COORDINATES
    &END TOPOLOGY
  &END SUBSYS
&END FORCE_EVAL
