&GLOBAL
  PRINT_LEVEL LOW
  PROJECT BH3CO
  RUN_TYPE ENERGY
&END GLOBAL

&FORCE_EVAL
  &DFT
    CHARGE 0
    MULTIPLICITY 1
    &QS
      METHOD xTB
      &XTB
        GFN_TYPE 0
        VDW_POTENTIAL DFTD4
        DO_EWALD F
      &END XTB
    &END QS
    &SCF
      SCF_GUESS NONE
      ADDED_MOS -1 -1
      &SMEAR ON
        METHOD Fermi_Dirac
        ELECTRONIC_TEMPERATURE 300
      &END
    &END SCF
  &END DFT
  &SUBSYS
    &CELL
      ABC 15 15 15
      PERIODIC NONE
    &END CELL
    &COORD
B       8.20353154       9.67065911       8.50000000       
H       9.38925535       9.99399948       8.50000000      
H       7.61074465       9.99451866       9.52683804     
H       7.61074465       9.99451866       7.47316196    
C       8.20345253       8.15442872       8.50000000   
O       8.20356426       7.00548134       8.50000000  
    &END COORD
    &TOPOLOGY
      &CENTER_COORDINATES T
      &END
    &END    
  &END SUBSYS
&END FORCE_EVAL
