&GLOBAL
  PRINT_LEVEL LOW
  PROJECT BH3NH3
  RUN_TYPE ENERGY
&END GLOBAL

&FORCE_EVAL
  &DFT
    CHARGE 0
    MULTIPLICITY 1
    &QS
      METHOD xTB
      &XTB
        DO_EWALD F
        GFN_TYPE 0
        VDW_POTENTIAL DFTD4
      &END XTB
    &END QS
    &SCF
      ADDED_MOS -1 -1
      SCF_GUESS NONE
      &SMEAR ON
        ELECTRONIC_TEMPERATURE 300
        METHOD Fermi_Dirac
      &END SMEAR
    &END SCF
  &END DFT
  &SUBSYS
    &CELL
      ABC 15 15 15
      PERIODIC NONE
    &END CELL
    &COORD
      B       7.88533397       7.99999987       8.85229361
      N       7.88538196       7.99999988       7.20296392
      H       7.29163253       9.02843372       9.17649077
      H       6.92719895       7.99999987       6.82355658
      H       7.29162267       6.97156628       9.17651208
      H       8.36446445       7.17014726       6.82348793
      H       9.07280105       7.99999989       9.17644574
      H       8.36446444       8.82985249       6.82348792
    &END COORD
    &TOPOLOGY
      &CENTER_COORDINATES T
      &END CENTER_COORDINATES
    &END TOPOLOGY
  &END SUBSYS
&END FORCE_EVAL
