&GLOBAL
  PRINT_LEVEL LOW
  PROJECT BiCl6-
  RUN_TYPE ENERGY
&END GLOBAL

&FORCE_EVAL
  &DFT
    CHARGE -1
    MULTIPLICITY 1
    &QS
      METHOD xTB
      &XTB
        DO_EWALD F
        GFN_TYPE 0
        VDW_POTENTIAL DFTD4
      &END XTB
    &END QS
    &SCF
      ADDED_MOS -1 -1
      SCF_GUESS NONE
      &SMEAR ON
        ELECTRONIC_TEMPERATURE 300
        METHOD Fermi_Dirac
      &END SMEAR
    &END SCF
  &END DFT
  &SUBSYS
    &CELL
      ABC 15 15 15
      PERIODIC NONE
    &END CELL
    &COORD
      Bi       9.50000000       9.50000000       9.50000000
      Cl       9.50000000      12.05357076       9.50000000
      Cl       9.50000000       9.50000000      12.05357076
      Cl       9.50000000       6.94642924       9.50000000
      Cl       9.50000000       9.50000000       6.94642924
      Cl      12.05357076       9.50000000       9.50000000
      Cl       6.94642924       9.50000000       9.50000000
    &END COORD
    &TOPOLOGY
      &CENTER_COORDINATES T
      &END CENTER_COORDINATES
    &END TOPOLOGY
  &END SUBSYS
&END FORCE_EVAL
