&GLOBAL
  PRINT_LEVEL LOW
  PROJECT BiO2
  RUN_TYPE ENERGY
&END GLOBAL

&FORCE_EVAL
  &DFT
    CHARGE 0
    MULTIPLICITY 2
    LSD
    &QS
      METHOD xTB
      &XTB
        GFN_TYPE 0
        VDW_POTENTIAL DFTD4
        DO_EWALD F
      &END XTB
    &END QS
    &SCF
      SCF_GUESS NONE
      ADDED_MOS -1 -1
      &SMEAR ON
        METHOD Fermi_Dirac
        FIXED_MAGNETIC_MOMENT 1
        ELECTRONIC_TEMPERATURE 300
      &END
    &END SCF
  &END DFT
  &SUBSYS
    &CELL
      ABC 15 15 15
      PERIODIC NONE
    &END CELL
    &COORD
Bi       8.50000000       8.50000000       9.04487693    
O       6.83287449       8.50000000       7.95512307    
O      10.16712551       8.50000000       7.95512307   
    &END COORD
    &TOPOLOGY
      &CENTER_COORDINATES T
      &END
    &END    
  &END SUBSYS
&END FORCE_EVAL
