&GLOBAL
  PRINT_LEVEL LOW
  PROJECT C2H3N
  RUN_TYPE ENERGY
&END GLOBAL

&FORCE_EVAL
  &DFT
    CHARGE 0
    MULTIPLICITY 1
    &QS
      METHOD xTB
      &XTB
        GFN_TYPE 0
        VDW_POTENTIAL DFTD4
        DO_EWALD F
      &END XTB
    &END QS
    &SCF
      SCF_GUESS NONE
      ADDED_MOS -1 -1
      &SMEAR ON
        METHOD Fermi_Dirac
        ELECTRONIC_TEMPERATURE 300
      &END
    &END SCF
  &END DFT
  &SUBSYS
    &CELL
      ABC 15 15 15
      PERIODIC NONE
    &END CELL
    &COORD
N       8.71058642       7.51620784       8.00000000   
C       7.33175613       7.61726999       7.35427842  
C       7.33175613       7.61726999       8.64572158 
H       9.10307883       8.48379216       8.00000000
H       6.89692117       7.54364976       6.35460677   
H       6.89692117       7.54364976       9.64539323  
    &END COORD
    &TOPOLOGY
      &CENTER_COORDINATES T
      &END
    &END    
  &END SUBSYS
&END FORCE_EVAL
