&GLOBAL
  PRINT_LEVEL LOW
  PROJECT C2H6
  RUN_TYPE ENERGY
&END GLOBAL

&FORCE_EVAL
  &DFT
    CHARGE 0
    MULTIPLICITY 1
    &QS
      METHOD xTB
      &XTB
        GFN_TYPE 0
        VDW_POTENTIAL DFTD4
        DO_EWALD F
      &END XTB
    &END QS
    &SCF
      SCF_GUESS NONE
      ADDED_MOS -1 -1
      &SMEAR ON
        METHOD Fermi_Dirac
        ELECTRONIC_TEMPERATURE 300
      &END
    &END SCF
  &END DFT
  &SUBSYS
    &CELL
      ABC 15 15 15
      PERIODIC NONE
    &END CELL
    &COORD
C       7.49997145       7.50000248       8.26538546       
C       7.50000095       7.50000319       6.73460975      
H       7.49999938       8.53138339       8.67465675     
H       6.60668257       8.01564610       6.32552404    
H       6.60668075       6.98435424       8.67447607   
H       7.50000051       6.46861661       6.32534325  
H       8.39331925       6.98435281       8.67451473 
H       8.39331870       8.01564626       6.32552404
    &END COORD
    &TOPOLOGY
      &CENTER_COORDINATES T
      &END
    &END    
  &END SUBSYS
&END FORCE_EVAL
