&GLOBAL
  PRINT_LEVEL LOW
  PROJECT C6H6
  RUN_TYPE ENERGY
&END GLOBAL

&FORCE_EVAL
  &DFT
    CHARGE 0
    MULTIPLICITY 1
    &QS
      METHOD xTB
      &XTB
        DO_EWALD F
        GFN_TYPE 0
        VDW_POTENTIAL DFTD4
      &END XTB
    &END QS
    &SCF
      ADDED_MOS -1 -1
      SCF_GUESS NONE
      &SMEAR ON
        ELECTRONIC_TEMPERATURE 300
        METHOD Fermi_Dirac
      &END SMEAR
    &END SCF
  &END DFT
  &SUBSYS
    &CELL
      ABC 15 15 15
      PERIODIC NONE
    &END CELL
    &COORD
      C      10.40555427       8.99999315       9.00000000
      C       9.70276322      10.21730360       9.00000000
      C       8.29714360      10.21728177       9.00000000
      C       7.59438471       8.99998684       9.00000000
      C       8.29714162       7.78272726       9.00000000
      C       9.70273809       7.78273295       9.00000000
      H      11.50666632       8.99999713       9.00000000
      H      10.25336805      11.17082085       9.00000000
      H       7.74656483      11.17078216       9.00000000
      H       6.49333368       8.99999721       9.00000000
      H       7.74657754       6.82922721       9.00000000
      H      10.25336277       6.82917915       9.00000000
    &END COORD
    &TOPOLOGY
      &CENTER_COORDINATES T
      &END CENTER_COORDINATES
    &END TOPOLOGY
  &END SUBSYS
&END FORCE_EVAL
