&GLOBAL
  PRINT_LEVEL LOW
  PROJECT CH3N
  RUN_TYPE ENERGY
&END GLOBAL

&FORCE_EVAL
  &DFT
    CHARGE 0
    MULTIPLICITY 1
    &QS
      METHOD xTB
      &XTB
        DO_EWALD F
        GFN_TYPE 0
        VDW_POTENTIAL DFTD4
      &END XTB
    &END QS
    &SCF
      ADDED_MOS -1 -1
      SCF_GUESS NONE
      &SMEAR ON
        ELECTRONIC_TEMPERATURE 300
        METHOD Fermi_Dirac
      &END SMEAR
    &END SCF
  &END DFT
  &SUBSYS
    &CELL
      ABC 15 15 15
      PERIODIC NONE
    &END CELL
    &COORD
      N       7.35460612       6.76981218       7.50000000
      C       7.47578901       8.04136678       7.50000000
      H       8.29468013       6.32895845       7.50000000
      H       8.44002242       8.60510200       7.50000000
      H       6.55997758       8.67104155       7.50000000
    &END COORD
    &TOPOLOGY
      &CENTER_COORDINATES T
      &END CENTER_COORDINATES
    &END TOPOLOGY
  &END SUBSYS
&END FORCE_EVAL
