&GLOBAL
  PRINT_LEVEL LOW
  PROJECT CH3OH
  RUN_TYPE ENERGY
&END GLOBAL

&FORCE_EVAL
  &DFT
    CHARGE 0
    MULTIPLICITY 1
    &QS
      METHOD xTB
      &XTB
        GFN_TYPE 0
        VDW_POTENTIAL DFTD4
        DO_EWALD F
      &END XTB
    &END QS
    &SCF
      SCF_GUESS NONE
      ADDED_MOS -1 -1
      &SMEAR ON
        METHOD Fermi_Dirac
        ELECTRONIC_TEMPERATURE 300
      &END
    &END SCF
  &END DFT
  &SUBSYS
    &CELL
      ABC 15 15 15
      PERIODIC NONE
    &END CELL
    &COORD
C       6.83325157       7.39808554       7.50000000       
H       6.41305282       6.88884715       6.59797951      
H       6.41305282       6.88884715       8.40202049     
H       6.44381858       8.43610046       7.50000000    
O       8.24437537       7.47585031       7.50000000   
H       8.58694718       6.56389954       7.50000000  
    &END COORD
    &TOPOLOGY
      &CENTER_COORDINATES T
      &END
    &END    
  &END SUBSYS
&END FORCE_EVAL
