&GLOBAL
  PRINT_LEVEL LOW
  PROJECT ClF3
  RUN_TYPE ENERGY
&END GLOBAL

&FORCE_EVAL
  &DFT
    CHARGE 0
    MULTIPLICITY 1
    &QS
      METHOD xTB
      &XTB
        DO_EWALD F
        GFN_TYPE 0
        VDW_POTENTIAL DFTD4
      &END XTB
    &END QS
    &SCF
      ADDED_MOS -1 -1
      SCF_GUESS NONE
      &SMEAR ON
        ELECTRONIC_TEMPERATURE 300
        METHOD Fermi_Dirac
      &END SMEAR
    &END SCF
  &END DFT
  &SUBSYS
    &CELL
      ABC 15 15 15
      PERIODIC NONE
    &END CELL
    &COORD
      Cl       8.49998669       7.65616901       8.50000000
      F       6.73800883       7.69854759       8.50000000
      F      10.26199117       7.69859235       8.50000000
      F       8.50002499       9.34383099       8.50000000
    &END COORD
    &TOPOLOGY
      &CENTER_COORDINATES T
      &END CENTER_COORDINATES
    &END TOPOLOGY
  &END SUBSYS
&END FORCE_EVAL
