&GLOBAL
  PRINT_LEVEL LOW
  PROJECT CrCO6
  RUN_TYPE ENERGY
&END GLOBAL

&FORCE_EVAL
  &DFT
    CHARGE 0
    MULTIPLICITY 1
    &QS
      METHOD xTB
      &XTB
        DO_EWALD F
        GFN_TYPE 0
        VDW_POTENTIAL DFTD4
      &END XTB
    &END QS
    &SCF
      ADDED_MOS -1 -1
      SCF_GUESS NONE
      &SMEAR ON
        ELECTRONIC_TEMPERATURE 300
        METHOD Fermi_Dirac
      &END SMEAR
    &END SCF
  &END DFT
  &SUBSYS
    &CELL
      ABC 15 15 15
      PERIODIC NONE
    &END CELL
    &COORD
      Cr      10.00000000      10.00000000      10.00000000
      C      10.00000000      11.90065469      10.00000000
      C      10.00000000      10.00000000      11.90065469
      C      11.90065469      10.00000000      10.00000000
      C      10.00000000      10.00000000       8.09934531
      C       8.09934531      10.00000000      10.00000000
      C      10.00000000       8.09934531      10.00000000
      O      10.00000000      13.05850636      10.00000000
      O      10.00000000      10.00000000      13.05850636
      O      13.05850636      10.00000000      10.00000000
      O      10.00000000      10.00000000       6.94149364
      O       6.94149364      10.00000000      10.00000000
      O      10.00000000       6.94149364      10.00000000
    &END COORD
    &TOPOLOGY
      &CENTER_COORDINATES T
      &END CENTER_COORDINATES
    &END TOPOLOGY
  &END SUBSYS
&END FORCE_EVAL
