&GLOBAL
  PRINT_LEVEL LOW
  PROJECT H2O
  RUN_TYPE ENERGY
&END GLOBAL

&FORCE_EVAL
  &DFT
    CHARGE 0
    MULTIPLICITY 1
    &QS
      METHOD xTB
      &XTB
        GFN_TYPE 0
        VDW_POTENTIAL DFTD4
        DO_EWALD F
      &END XTB
    &END QS
    &SCF
      SCF_GUESS NONE
      ADDED_MOS -1 -1
      &SMEAR ON
        METHOD Fermi_Dirac
        ELECTRONIC_TEMPERATURE 300
      &END
    &END SCF
  &END DFT
  &SUBSYS
    &CELL
      ABC 15 15 15
      PERIODIC NONE
    &END CELL
    &COORD
O       6.99999927       7.30615195       7.00000000       
H       7.75888482       6.69384876       7.00000000      
H       6.24111518       6.69384805       7.00000000     
    &END COORD
    &TOPOLOGY
      &CENTER_COORDINATES T
      &END
    &END    
  &END SUBSYS
&END FORCE_EVAL
