&GLOBAL
  PRINT_LEVEL LOW
  PROJECT Li4Cl4
  RUN_TYPE ENERGY
&END GLOBAL

&FORCE_EVAL
  &DFT
    CHARGE 0
    MULTIPLICITY 1
    &QS
      METHOD xTB
      &XTB
        DO_EWALD F
        GFN_TYPE 0
        VDW_POTENTIAL DFTD4
      &END XTB
    &END QS
    &SCF
      ADDED_MOS -1 -1
      SCF_GUESS NONE
      &SMEAR ON
        ELECTRONIC_TEMPERATURE 300
        METHOD Fermi_Dirac
      &END SMEAR
    &END SCF
  &END DFT
  &SUBSYS
    &CELL
      ABC 15 15 15
      PERIODIC NONE
    &END CELL
    &COORD
      Li      10.45223172       7.97312278       9.00000000
      Li       8.99999462      10.02687563      10.45224242
      Li       7.54774851       7.97312890       9.00000000
      Li       8.99999462      10.02687563       7.54775758
      Cl      10.82861655      10.29303791       9.00000000
      Cl       8.99999226       7.70695592      10.82861890
      Cl       7.17138345      10.29304408       9.00000000
      Cl       8.99999226       7.70695592       7.17138110
    &END COORD
    &TOPOLOGY
      &CENTER_COORDINATES T
      &END CENTER_COORDINATES
    &END TOPOLOGY
  &END SUBSYS
&END FORCE_EVAL
