&GLOBAL
  PRINT_LEVEL LOW
  PROJECT LiBH4
  RUN_TYPE ENERGY
&END GLOBAL

&FORCE_EVAL
  &DFT
    CHARGE 0
    MULTIPLICITY 1
    &QS
      METHOD xTB
      &XTB
        GFN_TYPE 0
        VDW_POTENTIAL DFTD4
        DO_EWALD F
      &END XTB
    &END QS
    &SCF
      SCF_GUESS NONE
      ADDED_MOS -1 -1
      &SMEAR ON
        METHOD Fermi_Dirac
        ELECTRONIC_TEMPERATURE 300
      &END
    &END SCF
  &END DFT
  &SUBSYS
    &CELL
      ABC 15 15 15
      PERIODIC NONE
    &END CELL
    &COORD
B       8.79162498       8.12744829       8.50000000        
H       8.79221568       6.91093922       8.50000000       
H       9.37492974       8.61437473       7.48958617      
H       9.37492974       8.61437473       9.51041383     
H       7.62507026       8.61380617       8.50000000    
Li       8.79176907      10.08906078       8.50000000  
    &END COORD
    &TOPOLOGY
      &CENTER_COORDINATES T
      &END
    &END    
  &END SUBSYS
&END FORCE_EVAL
