
&FORCE_EVAL
  METHOD Kim-Gordon
  &DFT
    BASIS_SET_FILE_NAME GTH_BASIS_SETS
    POTENTIAL_FILE_NAME QS_POTENTIAL
    &SCF
      EPS_DIIS 0.4
      MAX_SCF 2
      MIXING 0.4
      SCF_GUESS ATOMIC
      EPS_SCF 1.0E-3
    &END SCF
    &MGRID
      CUTOFF 150
      NGRIDS 4
      REL_CUTOFF 30
    &END MGRID
    &QS
      METHOD KG_GPW
     EXTRAPOLATION PS
      EXTRAPOLATION_ORDER 2
##      EXTRAPOLATION USE_PREV_P
    &END

    &KG
    &END
    &XC
      &XC_FUNCTIONAL
        &BECKE88
        &END
        &P86C
        &END
        &KE_GGA
          FUNCTIONAL LLP
        &END
      &END XC_FUNCTIONAL
      &XC_GRID
        XC_DERIV NN6_SMOOTH
        XC_SMOOTH_RHO NN10
      &END XC_GRID
    &END XC
  &END DFT
  &SUBSYS
    &CELL
      ABC  8.0  8.0  8.0
      UNIT ANGSTROM
    &END CELL
    &COORD
    O        -1.7337966306        5.3885627144        1.7224082741  H2O
     H        -1.0348039486        5.2693826598        1.0344579918  H2O
     H        -2.5047943630        4.9619148224        1.2901395183  H2O
     O         0.0562938540        4.0497886321       -0.0583389488  H2O
     H         0.0641138350        3.2566608292        0.5181946353  H2O
     H         0.5003075125        3.7477489178       -0.8791401554  H2O
    &END COORD
    &KIND H
      BASIS_SET DZVP-GTH
      POTENTIAL GTH-BP-q1
    &END KIND
    &KIND O
      BASIS_SET DZVP-GTH
      POTENTIAL GTH-BP-q6
    &END KIND
  &END SUBSYS
&END FORCE_EVAL
&GLOBAL

  PROJECT 2h2o_md
  RUN_TYPE MD
  PRINT_LEVEL MEDIUM
&END GLOBAL
&MOTION
  &MD
    ENSEMBLE NVE
    STEPS 1 
    TIMESTEP 0.5
    TEMPERATURE 300.0
  &END MD
&END MOTION
