
&FORCE_EVAL
  &DFT
    KE-FUNCTIONAL TF
    &SCF
      EPS_DIIS 0.4
      EPS_SCF 5.0E-4
      MAX_SCF 5
      MIXING 0.4
      SCF_GUESS ATOMIC
    &END SCF
    &XC
      &XC_FUNCTIONAL Pade
      &END XC_FUNCTIONAL
    &END XC
  &END DFT
  &SUBSYS
    &CELL
      ABC 9.865 9.865 9.865
      UNIT ANGSTROM
    &END CELL
    &COORD
    O                  -1.583   5.333   1.560   H2O
    H                  -0.777   5.331   0.943   H2O
    H                  -2.081   4.589   1.176   H2O
    &END COORD
    &KIND H
      BASIS_SET DZVP-GTH-PADE
      POTENTIAL GTH-PADE-q1
    &END KIND
    &KIND O
      BASIS_SET DZVP-GTH-PADE
      POTENTIAL GTH-PADE-q6
    &END KIND
  &END SUBSYS
&END FORCE_EVAL
&GLOBAL
  FFTLIB FFTSG
  PROGRAM Kim-Gordon
  PROJECT H2O
  RUN_TYPE WAVEFUNCTION_OPTIMIZATION
  PRINT_LEVEL MEDIUM
&END GLOBAL
