
&FORCE_EVAL
  &DFT
    C-FUNCTIONAL pade
    KE-FUNCTIONAL tf
    X-FUNCTIONAL none
    &SCF
      EPS_SCF 1.0E-5
      MAX_DIIS 5
      MAX_SCF 300
      SCF_GUESS atomic
      WRITE_RESTART_EACH 100
    &END SCF
    &XC
      DENSITY_CUTOFF 1.0E-10
      GRADIENT_CUTOFF 1.0E-10
    &END XC
  &END DFT
  &SUBSYS
    &CELL
      ABC 7.940 7.940 7.940
      SUBCELLS 0.
      UNIT ANGSTROM
    &END CELL
    &CONSTRAINT
      SHAKE 1.E-10
    &END CONSTRAINT
    &COORD
       I      0.05444808     -0.15740044      0.24414683
      Na      3.31665718     -0.15142475     -0.25449516
    &END COORD
    &KIND Na
      BASIS_SET KG-PDM-CPMD
      POTENTIAL ELP
    &END KIND
    &KIND I
      AUX_BASIS_SET I_DRHO
      BASIS_SET KG-PDM-CPMD
      POTENTIAL ELP
    &END KIND
    &TOPOLOGY
      NHCOPT GLOBAL
    &END TOPOLOGY
  &END SUBSYS
&END FORCE_EVAL
&GLOBAL
  FFTLIB FFTSG
  PROGRAM kg
  PROJECT nai
  RUN_TYPE WFN_OPT
  PRINT_LEVEL LOW
&END GLOBAL
&MOTION
  &MD
    ENSEMBLE NVT
    STEPS 10
    TIMESTEP 0.5
    TEMPERATURE 300.0000
    RESTART INIT
    &BAROSTAT
      PRESSURE 0.
      TIMECON 1000.
    &END BAROSTAT
    &NOSE
      LENGTH 1
      YOSHIDA 3
      TIMECON 1000.
      MTS 2
    &END NOSE
  &END MD
&END MOTION
