&GLOBAL
  PROJECT    nai
  PROGRAM    kg
  IOLEVEL    LOW
  RUN_TYPE   MD     
  FFTLIB     FFTSG
  OUTPUT atomic
&END

&TOPOLOGY
nhcopt   GLOBAL
&END 

&KG
 cutoff 20.0
 eps_core_charge 1.0E-96 
 eps_ppl 1.0E-96
 eps_pgf_orb 1.0E-16
 eps_gvg_rspace 1.0E-16
 eps_rho 1.0E-16
 method  KG_POL
 ngrid_level 1
&END


&PRINT  low
BASIS_SET
CORE_CHARGE_RADII
RADII
POTENTIALS
PW_GRID_INFORMATION
CUBE
&END

&KIND Na
BASIS_SET KG-PDM-CPMD
POTENTIAL ELP
&END

&KIND I
BASIS_SET KG-PDM-CPMD
AUX_BASIS_SET I_DRHO
POTENTIAL ELP
&END

&SCF
 GUESS        atomic
 EPS_SCF      1.0E-5
 MAX_SCF      300    
 MAX_DIIS     5
 WRITE_RESTART_EACH 100
&END

        
&FORCE_EVAL
  &DFT
    BASIS_SET_FILE_NAME BASIS_SET
    POTENTIAL_FILE_NAME POTENTIAL
    &XC
      &XC_FUNCTIONAL
        &PADE
        &END
        &TF
        &END
      &END
    &END
  &END SECTION DFT
  &SUBSYS
    &CELL
       UNIT   ANGSTROM
       ABC    7.940  7.940   7.940 
    &END CELL
  &END SUBSYS
&END FORCE_EVAL

&MOTION
  &MD_NEW
    timestep 0.5
    ensemble  nvt
    temperature  300.0000
    restart      init
    steps 5
    &KG_COEFF
      ENSEMBLE NVT
      NHCOPT GLOBAL
      storage global
      temperature 2.0
      mass 250.0
      RESTART pos
      &NOSE
        length 1
        Yoshida 3
        timecon [fs] 100.
        mts 2
      &END NOSE
    &END KG_COEFF
    &NOSE
      length 1
      Yoshida 3
      timecon [fs] 1000.
      mts 2
    &END NOSE
  &END MD_NEW
&END MOTION


&COORD
    I      0.05444808     -0.15740044      0.24414683
   Na      3.31665718     -0.15142475     -0.25449516
&END
bondparm COVALENT 0.01
