
&FORCE_EVAL
  METHOD kg
  &DFT
    BASIS_SET_FILE_NAME BASIS_SET
    POTENTIAL_FILE_NAME POTENTIAL
    &MGRID
      CUTOFF 20.0
    &END MGRID
    &QS
      EPS_CORE_CHARGE 1.0E-96
      EPS_GVG_RSPACE 1.0E-16
      EPS_PGF_ORB 1.0E-16
      EPS_PPL 1.0E-96
      EPS_RHO 1.0E-16
      METHOD KG_POL
    &END QS
    &SCF
      EPS_SCF 1.0E-5
      MAX_DIIS 5
      MAX_SCF 300
      SCF_GUESS atomic
      &PRINT
        &RESTART
           FILENAME =RESTART
           &EACH
             MD  1 
             QS_SCF 100
           &END
        &END
      &END
    &END SCF
    &XC
      &XC_FUNCTIONAL
        &PADE
        &END PADE
        &TF
        &END TF
      &END XC_FUNCTIONAL
    &END XC
  &END DFT
  &SUBSYS
    &CELL
      ABC 7.940 7.940 7.940
      UNIT ANGSTROM
    &END CELL
    &COORD
       I      0.05444808     -0.15740044      0.24414683
      Na      3.31665718     -0.15142475     -0.25449516
    &END COORD
    &KIND Na
      BASIS_SET KG-PDM-CPMD
      POTENTIAL ELP
    &END KIND
    &KIND I
      AUX_BASIS_SET I_DRHO
      BASIS_SET KG-PDM-CPMD
      POTENTIAL ELP
    &END KIND
  &END SUBSYS
&END FORCE_EVAL
&GLOBAL

  PROJECT nai
  RUN_TYPE MD
  PRINT_LEVEL LOW
&END GLOBAL
&MOTION
  &MD
    ENSEMBLE nvt
    STEPS 5
    TEMPERATURE 300.0000
    TIMESTEP 0.5
    &KG_COEFF
      ENSEMBLE NVT
      MASS 250.0
      &STORAGE 
        TYPE global
      &END
      TEMPERATURE 2.0
      &THERMOSTAT
        REGION GLOBAL
        TYPE CSVR
        &CSVR
          TIMECON [fs] 100.
        &END
      &END
    &END KG_COEFF
    &THERMOSTAT
      REGION GLOBAL
      &NOSE
        LENGTH 1
        MTS 2
        TIMECON [fs] 1000.
        YOSHIDA 3
      &END NOSE
    &END
  &END MD
&END MOTION
