################################################################################
#
# Pseudopotentials of Goedecker, Teter and Hutter (GTH)
# optimized for the exchange-correlation functional of
# Perdew-Burke-Ernzerhof (PBE).
#
################################################################################
#
# Effective potentials for Kim-Gordon and Polarizable-Force-Field codes
#
################################################################################
#
# effective charge potential 
# ------------------------------------
#
# Element symbol  Name of the potential  Alias names
#               FORMAT:
# qeff (real):  Effective charge of the nucleus
# alpha (real): Gaussian function exponent alpha
#
################################################################################
#
H EPC
     0.75200000
     10.50000000
################################################################################
O EPC
     6.28200000
     8.50000000
################################################################################
AR EPC
     9.07600000
     0.44000000
################################################################################
I EPC
     6.813036290120
     0.45000000
################################################################################
LI EPC
     1.00000000
     0.77200000
################################################################################
H ELP 
    0.711
    4.0  
    1
     4.0  1  0.                                                                       
#
O ELP 
    4.000
    4.0  
    1
     4.0  1  0.                                                                       
#
LI GTH-PADE GTH-LDA GTH
    3
    3
     0.40000000    4   -14.03486849     9.55347627    -1.76648817     0.08436998
    0
#
I GTH-PADE GTH-LDA GTH
   10   23   20
    2    5
         0.63883328     2    5.276795596472  1.143023343025 
    0
#
LI ELP-PADE ELP-LDA ELP
    3.0
    3.125
    1
     3.12500000    4   -14.03486849     9.55347627    -1.76648817     0.08436998
#
I ELP-PADE ELP-LDA ELP
   7.0
    2.0
    3
      2.0              1       .6998772837E+02
      2.08246563931695139 1    -.8282044713E+02
      1.90547643631399355 1      .2496682940E+02
#
Na ELP-PADE ELP-LDA ELP
   1.0
    0.78125
    4
      0.78125          2     1.875959205     1.159116531
      0.6760411032    2    -.689165636    -1.058572192
      0.9645061728    2  .608872527      .923752155
      1.14784205693  2   .643883462     -.761703342
