&GLOBAL
  PRINT_LEVEL LOW
  PROJECT HCl
  RUN_TYPE DEBUG
&END GLOBAL

&DEBUG
  CHECK_ATOM_FORCE 1 z
  DE 0.005
  DEBUG_DIPOLE .FALSE.
  DEBUG_FORCES .TRUE.
  DEBUG_POLARIZABILITY .FALSE.
  DEBUG_STRESS_TENSOR .FALSE.
  MAX_RELATIVE_ERROR 0.03
&END DEBUG

&FORCE_EVAL
  &DFT
    POTENTIAL_FILE_NAME ./ECP_BASIS_POT
    &MGRID
      CUTOFF 300
      NGRIDS 5
      REL_CUTOFF 40
    &END MGRID
    &POISSON
      PERIODIC NONE
      PSOLVER MT
    &END POISSON
    &QS
      EPS_DEFAULT 1.0E-14
      METHOD GPW
    &END QS
    &SCF
      EPS_SCF 1.E-7
      MAX_SCF 50
      SCF_GUESS ATOMIC
    &END SCF
    &XC
      &XC_FUNCTIONAL LDA
      &END XC_FUNCTIONAL
    &END XC
  &END DFT
  &SUBSYS
    &CELL
      ABC 6.0 6.0 6.0
      PERIODIC NONE
    &END CELL
    &COORD
      Cl  0.00000    0.00000     0.00000
      H   0.00000    0.00000     1.30000
    &END COORD
    &KIND H
      BASIS_SET DZV-GTH-PADE
      POTENTIAL ECP ccECP
    &END KIND
    &KIND Cl
      BASIS_SET DZVP-GTH-PADE
      POTENTIAL ECP ccECP
    &END KIND
    &TOPOLOGY
      &CENTER_COORDINATES
      &END CENTER_COORDINATES
    &END TOPOLOGY
  &END SUBSYS
&END FORCE_EVAL
