&GLOBAL
  PRINT_LEVEL LOW
  PROJECT ICl_lanl2dz_gapw_xc_stress
  RUN_TYPE ENERGY_FORCE
&END GLOBAL

&FORCE_EVAL
  METHOD Quickstep
  STRESS_TENSOR ANALYTICAL
  &DFT
    BASIS_SET_FILE_NAME ./ECP_BASIS_POT
    POTENTIAL_FILE_NAME ./ECP_BASIS_POT
    &MGRID
      CUTOFF 160
      NGRIDS 4
      REL_CUTOFF 30
    &END MGRID
    &QS
      ALPHA_WEIGHTS 6.5
      EPS_DEFAULT 1.0E-9
      FORCE_PAW
      GAPW_1C_BASIS EXT_SMALL
      GAPW_ACCURATE_XCINT T
      METHOD GAPW_XC
    &END QS
    &SCF
      EPS_SCF 1.0E-7
      MAX_SCF 80
      SCF_GUESS ATOMIC
    &END SCF
    &XC
      DENSITY_CUTOFF 1.0E-11
      &XC_FUNCTIONAL PBE
      &END XC_FUNCTIONAL
    &END XC
  &END DFT
  &PRINT
    &STRESS_TENSOR
      COMPONENTS
    &END STRESS_TENSOR
  &END PRINT
  &SUBSYS
    &CELL
      A 6.0 0.0 0.0
      B 0.25 6.1 0.0
      C 0.15 0.35 6.2
    &END CELL
    &COORD
      Cl   0.000000   0.000000   0.000000
      I    0.250000   0.100000   2.490000
    &END COORD
    &KIND Cl
      BASIS_SET LANL2DZ
      POTENTIAL ECP LANL2DZ_ECP
    &END KIND
    &KIND I
      BASIS_SET LANL2DZ
      POTENTIAL ECP LANL2DZ_ECP
    &END KIND
  &END SUBSYS
&END FORCE_EVAL
