&GLOBAL
  PROJECT ICl_lanl2dz_gpw
  RUN_TYPE ENERGY
&END GLOBAL

&FORCE_EVAL
  &DFT
    BASIS_SET_FILE_NAME ./ECP_BASIS_POT
    POTENTIAL_FILE_NAME ./ECP_BASIS_POT
    &MGRID
      CUTOFF 400
      NGRIDS 5
      REL_CUTOFF 40
    &END MGRID
    &POISSON
      PERIODIC NONE
      PSOLVER WAVELET
    &END POISSON
    &QS
      EPS_DEFAULT 1.0E-12
      METHOD GPW
    &END QS
    &SCF
      IGNORE_CONVERGENCE_FAILURE
      MAX_SCF 5
      SCF_GUESS ATOMIC
    &END SCF
    &XC
      &XC_FUNCTIONAL LDA
      &END XC_FUNCTIONAL
    &END XC
  &END DFT
  &SUBSYS
    &CELL
      ABC 10.0 10.0 10.0
      PERIODIC NONE
    &END CELL
    &COORD
      Cl  0.00000    0.00000     0.00000
      I   0.00000    0.00000     2.49000
    &END COORD
    &KIND I
      BASIS_SET LANL2DZ
      POTENTIAL ECP LANL2DZ_ECP
    &END KIND
    &KIND Cl
      BASIS_SET LANL2DZ
      POTENTIAL ECP LANL2DZ_ECP
    &END KIND
    &TOPOLOGY
      &CENTER_COORDINATES
      &END CENTER_COORDINATES
    &END TOPOLOGY
  &END SUBSYS
&END FORCE_EVAL
