&GLOBAL
  PROJECT ICl_lanl2dz_gpw
  RUN_TYPE ENERGY
&END GLOBAL
&FORCE_EVAL
  &DFT
    BASIS_SET_FILE_NAME ./ECP_BASIS_POT
    POTENTIAL_FILE_NAME ./ECP_BASIS_POT

    &QS
      METHOD GPW
      EPS_DEFAULT 1.0E-12
    &END QS

    &SCF
      SCF_GUESS ATOMIC
      MAX_SCF 5
    &END

    &MGRID
      CUTOFF 400
      REL_CUTOFF 40
      NGRIDS 5
    &END

    &POISSON
      PERIODIC NONE
      PSOLVER WAVELET
    &END

    &XC
      &XC_FUNCTIONAL LDA
      &END XC_FUNCTIONAL
    &END XC
  &END DFT
  &SUBSYS
    &CELL
      ABC  10.0  10.0  10.0
      PERIODIC NONE
    &END CELL
    &COORD
      Cl  0.00000    0.00000     0.00000
      I   0.00000    0.00000     2.49000
    &END COORD
    &TOPOLOGY
      &CENTER_COORDINATES
      &END
    &END
    &KIND I
      BASIS_SET LANL2DZ
      POTENTIAL ECP LANL2DZ_ECP
    &END KIND
    &KIND Cl
      BASIS_SET LANL2DZ
      POTENTIAL ECP LANL2DZ_ECP
    &END KIND
  &END SUBSYS
&END FORCE_EVAL
