&GLOBAL
  PRINT_LEVEL LOW
  PROJECT SbH3_def2_gapw_stress_debug
  RUN_TYPE DEBUG
&END GLOBAL

&DEBUG
  DEBUG_FORCES F
  DEBUG_STRESS_TENSOR T
  DX 0.0005
  EPS_NO_ERROR_CHECK 1.0E-5
  MAX_RELATIVE_ERROR 5.00
  STOP_ON_MISMATCH T
&END DEBUG

&FORCE_EVAL
  METHOD Quickstep
  STRESS_TENSOR ANALYTICAL
  &DFT
    BASIS_SET_FILE_NAME ./ECP_BASIS_POT
    POTENTIAL_FILE_NAME ./ECP_BASIS_POT
    &MGRID
      CUTOFF 240
      NGRIDS 5
      REL_CUTOFF 40
    &END MGRID
    &QS
      ALPHA_WEIGHTS 6.5
      EPS_DEFAULT 1.0E-10
      GAPW_ACCURATE_XCINT T
      METHOD GAPW
    &END QS
    &SCF
      EPS_SCF 1.0E-7
      MAX_SCF 80
      SCF_GUESS ATOMIC
    &END SCF
    &XC
      DENSITY_CUTOFF 1.0E-11
      &XC_FUNCTIONAL PBE
      &END XC_FUNCTIONAL
    &END XC
  &END DFT
  &PRINT
    &STRESS_TENSOR
      COMPONENTS
    &END STRESS_TENSOR
  &END PRINT
  &SUBSYS
    &CELL
      A 5.0 0.0 0.0
      B 0.25 5.1 0.0
      C 0.15 0.35 5.2
    &END CELL
    &COORD
      Sb   0.050000  -0.235777  -0.627020
      H    0.000000   1.151846   0.339128
      H   -1.201717  -0.929589   0.339128
      H    0.201717  -0.929589   0.339128
    &END COORD
    &KIND Sb
      BASIS_SET def2-SVP
      POTENTIAL ECP def2-SVP_ECP
    &END KIND
    &KIND H
      BASIS_SET def2-SVP
      POTENTIAL ALL
    &END KIND
  &END SUBSYS
&END FORCE_EVAL
