
&FORCE_EVAL
  &DFT
    &MGRID
      CUTOFF 120
    &END MGRID
    &QS
      EPS_DEFAULT 1.0E-12
      EXTRAPOLATION USE_PREV_P
      &HARRIS
        ACTIVATE
      &END HARRIS
    &END QS
    &SCF
      EPS_SCF 1.0E-6
      MAX_SCF 1
      SCF_GUESS RESTART
      &OT ON
      &END OT
    &END SCF
    &XC
      &XC_FUNCTIONAL Pade
      &END XC_FUNCTIONAL
    &END XC
  &END DFT
  &SUBSYS
    &CELL
      ABC 4.0 4.0 4.0
      UNIT ANGSTROM
    &END CELL
    &COORD
    O   0.000000    0.000000   -0.065587
    H   0.000000   -0.757136    0.520545
    H   0.000000    0.757136    0.520545
    &END COORD
    &KIND H
      BASIS_SET DZVP-GTH-PADE
      POTENTIAL GTH-PADE-q1
    &END KIND
    &KIND O
      BASIS_SET DZVP-GTH-PADE
      POTENTIAL GTH-PADE-q6
    &END KIND
  &END SUBSYS
&END FORCE_EVAL
&GLOBAL
  FFTLIB FFTSG
  PROGRAM Quickstep
  PROJECT H2O
  RUN_TYPE HMC
  PRINT_LEVEL LOW
&END GLOBAL
&MOTION
  &MD
    ENSEMBLE LANGEVIN
    GAMMA 0.001
    STEPS 5
    TIMESTEP 0.1
    TEMPERATURE 300.0
    &HMC
      LD_STEPS 2
      QS_ACCEPT FALSE
      QS_START FALSE
      RESTORE_HISTORY TRUE
    &END HMC
  &END MD
&END MOTION
&EXT_RESTART
 EXTERNAL_FILE H2O-1.restart
 RESTART_BAROSTAT .FALSE.
 RESTART_BAROSTAT_NOSE .FALSE.
 RESTART_CELL .FALSE.
 RESTART_KG_COEFF_POS .FALSE.
 RESTART_KG_COEFF_VEL .FALSE.
 RESTART_KG_NOSE .FALSE.
 RESTART_NOSE .FALSE.
 RESTART_POS
 RESTART_RANDOMG .FALSE.
 RESTART_VEL 
&END
