&GLOBAL
  PRINT_LEVEL MEDIUM
  PROJECT H2O-geo-ot-mols
  RUN_TYPE GEO_OPT
&END GLOBAL

&MOTION
  &GEO_OPT
    MAX_ITER 2
    OPTIMIZER BFGS
  &END GEO_OPT
&END MOTION

&FORCE_EVAL
  METHOD Quickstep
  &DFT
    BASIS_SET_FILE_NAME GTH_BASIS_SETS
    POTENTIAL_FILE_NAME POTENTIAL
    &LOCALIZE
      &PRINT
        &MOLECULAR_STATES
        &END MOLECULAR_STATES
      &END PRINT
    &END LOCALIZE
    &MGRID
      CUTOFF 200
    &END MGRID
    &PRINT
      &MO_CUBES
        NHOMO 1
        WRITE_CUBE FALSE
      &END MO_CUBES
    &END PRINT
    &QS
      EPS_DEFAULT 1.0E-12
      EXTRAPOLATION PS
      EXTRAPOLATION_ORDER 2
    &END QS
    &SCF
      EPS_SCF 1.0E-6
      IGNORE_CONVERGENCE_FAILURE
      MAX_SCF 3
      SCF_GUESS ATOMIC
      &OT
      &END OT
    &END SCF
    &XC
      &XC_FUNCTIONAL PADE
      &END XC_FUNCTIONAL
    &END XC
  &END DFT
  &SUBSYS
    &CELL
      ABC 12.0 6.0 6.0
    &END CELL
    &COORD
      O   0.000000    0.000000   -0.065587 H2O
      H   0.000000   -0.757136    0.520545 H2O
      H   0.000000    0.757136    0.520545 H2O
      O   4.000000    0.000000   -0.065587 H2O
      H   4.000000   -0.757136    0.520545 H2O
      H   4.000000    0.757136    0.520545 H2O
    &END COORD
    &KIND H
      BASIS_SET DZVP-GTH
      POTENTIAL GTH-BLYP-q1
    &END KIND
    &KIND O
      BASIS_SET DZVP-GTH
      POTENTIAL GTH-BLYP-q6
    &END KIND
    &TOPOLOGY
      CONNECTIVITY GENERATE
    &END TOPOLOGY
  &END SUBSYS
&END FORCE_EVAL
