&GLOBAL
  PRINT_LEVEL HIGH
  PROJECT CH2O
  RUN_TYPE ENERGY
&END GLOBAL

&FORCE_EVAL
  &DFT
    &KPOINTS
      SCHEME NONE
    &END KPOINTS
    &QS
      METHOD xTB
      &XTB
        &TBLITE
          METHOD GFN1
        &END TBLITE
      &END XTB
    &END QS
    &SCF
      EPS_SCF 1.e-8
      MAX_SCF 100
      SCF_GUESS MOPAC
      &MIXING
        ALPHA 0.2
        METHOD DIRECT_P_MIXING
      &END MIXING
    &END SCF
  &END DFT
  &SUBSYS
    &CELL
      ABC 5.0 5.0 5.0
      PERIODIC XYZ
    &END CELL
    &COORD
      O     0.051368    0.000000    0.000000
      C     1.278612    0.000000    0.000000
      H     1.870460   -0.939607    0.000000
      H     1.870460    0.939607    0.000000
    &END COORD
  &END SUBSYS
&END FORCE_EVAL
