&GLOBAL
  PRINT_LEVEL DEBUG
  PROJECT dat_COBe
  RUN_TYPE ENERGY
&END GLOBAL

&FORCE_EVAL
  &DFT
    &KPOINTS
      SCHEME NONE
    &END KPOINTS
    &POISSON
      PERIODIC XYZ
      POISSON_SOLVER PERIODIC
    &END POISSON
    &QS
      EPS_DEFAULT 1.00E-12
      METHOD xTB
      &XTB
        &TBLITE
          METHOD GFN1
        &END TBLITE
      &END XTB
    &END QS
    &SCF
      ADDED_MOS -1 -1
      EPS_SCF 1.e-8
      MAX_SCF 100
      &MIXING
        ALPHA 0.2
        METHOD DIRECT_P_MIXING
      &END MIXING
      &SMEAR ON
        ELECTRONIC_TEMPERATURE 300
        METHOD Fermi_Dirac
      &END SMEAR
    &END SCF
  &END DFT
  &SUBSYS
    &CELL
      ABC 5.0 5.0 5.0
      PERIODIC XYZ
    &END CELL
    &COORD
      O    -0.564000    0.000000    0.000000
      C     0.564000    0.000000    0.000000
      Be    0.000000    3.000000    0.000000
    &END COORD
  &END SUBSYS
&END FORCE_EVAL
