&GLOBAL
  PRINT_LEVEL HIGH
  PROJECT hf_periodic_tblite
  RUN_TYPE ENERGY
&END GLOBAL

&FORCE_EVAL
  METHOD QS
  &DFT
    &KPOINTS
      SCHEME  NONE
      #SCHEME GAMMA
      #SCHEME  MONKHORST-PACK  1 1 1
    &END KPOINTS
    &QS
      METHOD xTB
      &XTB
        &TBLITE
          METHOD GFN1
        &END TBLITE
        #HYDROGEN_STO_NG 4
        #STO_NG 6
        &PARAMETER
          DISPERSION_PARAMETER_FILE dftd3.dat
        &END PARAMETER
      &END XTB
    &END QS
    &SCF
      EPS_SCF 1.e-7
      MAX_SCF 100
      SCF_GUESS MOPAC
      &MIXING
        ALPHA 0.30
        METHOD DIRECT_P_MIXING
      &END MIXING
    &END SCF
  &END DFT
  &SUBSYS
    &CELL
      ABC 4.0 4.0 4.0
      PERIODIC XYZ
      MULTIPLE_UNIT_CELL 1 1 1
    &END CELL
    &COORD
      H     0.000000    0.000000    0.000000
      F     0.980000    0.000000    0.000000
    &END COORD
    &TOPOLOGY
      MULTIPLE_UNIT_CELL 1 1 1
      &CENTER_COORDINATES
      &END CENTER_COORDINATES
    &END TOPOLOGY
  &END SUBSYS
&END FORCE_EVAL

