&GLOBAL
  PRINT_LEVEL HIGH
  PROJECT Si
  RUN_TYPE ENERGY
&END GLOBAL

&FORCE_EVAL
  METHOD QS
  &DFT
    &KPOINTS
      SCHEME NONE
    &END KPOINTS
    &POISSON
      PERIODIC XYZ
      POISSON_SOLVER PERIODIC
    &END POISSON
    &QS
      EPS_DEFAULT 1.00E-12
      METHOD xTB
      &XTB
        &TBLITE
          METHOD GFN1
        &END TBLITE
      &END XTB
    &END QS
    &SCF
      ADDED_MOS -1 -1
      EPS_SCF 1.e-8
      MAX_SCF 100
      &MIXING
        ALPHA 0.2
        METHOD DIRECT_P_MIXING
      &END MIXING
      &SMEAR ON
        ELECTRONIC_TEMPERATURE 300
        METHOD Fermi_Dirac
      &END SMEAR
    &END SCF
  &END DFT
  &SUBSYS
    &CELL
      ABC 5.4310000000 5.4310000000000 5.431000000000
      PERIODIC XYZ
    &END CELL
    &COORD
      Si     0.00000000    0.00000000    0.00000000
      Si     2.71550000    2.71550000    0.00000000
      Si     2.71550000    0.00000000    2.71550000
      Si     0.00000000    2.71550000    2.71550000
      Si     1.35775000    1.35775000    1.35775000
      Si     1.35775000    4.10040500    4.10040500
      Si     4.10040500    1.35775000    4.10040500
      Si     4.10040500    4.10040500    1.35775000
    &END COORD
  &END SUBSYS
&END FORCE_EVAL
