&GLOBAL
  PRINT_LEVEL LOW
  PROJECT CH2O
  RUN_TYPE DEBUG
&END GLOBAL

&DEBUG
  DE 0.0002
  DEBUG_DIPOLE F
  DEBUG_FORCES T
  DEBUG_POLARIZABILITY F
  DEBUG_STRESS_TENSOR F
  STOP_ON_MISMATCH T
&END DEBUG

&FORCE_EVAL
  &DFT
    &PERIODIC_EFIELD
      INTENSITY 0.05
      POLARISATION -1 0 0
    &END PERIODIC_EFIELD
    &PRINT
      &MOMENTS ON
        PERIODIC T
        REFERENCE COM
      &END MOMENTS
    &END PRINT
    &QS
      METHOD xTB
      &XTB
        GFN_TYPE 0
      &END XTB
    &END QS
    &SCF
      SCF_GUESS NONE
    &END SCF
  &END DFT
  &SUBSYS
    &CELL
      ABC 8.0 8.0 8.0
    &END CELL
    &COORD
      O     0.051368    0.000000    0.000000
      C     1.278612    0.000000    0.000000
      H     1.870460    0.939607    0.000000
      H     1.870460   -0.939607    0.000000
    &END COORD
  &END SUBSYS
&END FORCE_EVAL
