&GLOBAL
  PRINT_LEVEL LOW
  PROJECT H2O
  RUN_TYPE DEBUG
&END GLOBAL

&DEBUG
  CHECK_ATOM_FORCE 1 z
  DEBUG_FORCES T
  DEBUG_STRESS_TENSOR F
  DX 0.001
  STOP_ON_MISMATCH T
&END DEBUG

&FORCE_EVAL
  METHOD Quickstep
  &DFT
    BASIS_SET_FILE_NAME ALL_BASIS_SETS
    POTENTIAL_FILE_NAME POTENTIAL_UZH
    &ENERGY_CORRECTION
      DEBUG_EXTERNAL_METHOD
      DEBUG_FORCES
      ENERGY_FUNCTIONAL EXTERNAL
      &RESPONSE_SOLVER
        METHOD MO_SOLVER
        PRECONDITIONER FULL_SINGLE_INVERSE
      &END RESPONSE_SOLVER
    &END ENERGY_CORRECTION
    &MGRID
      CUTOFF 300
    &END MGRID
    &PRINT
      &DERIVATIVES
      &END DERIVATIVES
    &END PRINT
    &QS
      EPS_DEFAULT 1.E-14
      METHOD GAPW
    &END QS
    &SCF
      EPS_SCF 1.0E-7
      SCF_GUESS ATOMIC
    &END SCF
    &XC
      &HF
      &END HF
      &XC_FUNCTIONAL NONE
      &END XC_FUNCTIONAL
    &END XC
  &END DFT
  &SUBSYS
    &CELL
      ABC 6.0 6.0 6.0
    &END CELL
    &COORD
      O   0.000000    0.000000    0.000000
      H   0.000000   -0.757136    0.504545
      H   0.000000    0.757136    0.504545
    &END COORD
    &KIND H
      BASIS_SET ORB 6-31G*
      POTENTIAL ALL
    &END KIND
    &KIND O
      BASIS_SET ORB 6-31G*
      POTENTIAL ALL
    &END KIND
  &END SUBSYS
&END FORCE_EVAL
