&GLOBAL
  PRINT_LEVEL LOW
  PROJECT H2O
  RUN_TYPE DEBUG
&END GLOBAL

&DEBUG
  CHECK_ATOM_FORCE 1 z
  DEBUG_FORCES T
  DEBUG_STRESS_TENSOR F
  DX 0.001
  STOP_ON_MISMATCH T
&END DEBUG

&FORCE_EVAL
  METHOD Quickstep
  &DFT
    BASIS_SET_FILE_NAME ALL_BASIS_SETS
    BASIS_SET_FILE_NAME BASIS_ADMM_ae
    POTENTIAL_FILE_NAME POTENTIAL_UZH
    &AUXILIARY_DENSITY_MATRIX_METHOD
      ADMM_PURIFICATION_METHOD NONE
      EXCH_CORRECTION_FUNC PBEX
      EXCH_SCALING_MODEL NONE
      METHOD BASIS_PROJECTION
    &END AUXILIARY_DENSITY_MATRIX_METHOD
    &ENERGY_CORRECTION
      DEBUG_EXTERNAL_METHOD
      DEBUG_FORCES
      ENERGY_FUNCTIONAL EXTERNAL
      &RESPONSE_SOLVER
        METHOD MO_SOLVER
        PRECONDITIONER FULL_SINGLE_INVERSE
      &END RESPONSE_SOLVER
    &END ENERGY_CORRECTION
    &MGRID
      CUTOFF 100
    &END MGRID
    &POISSON
      PERIODIC NONE
      POISSON_SOLVER MT
    &END POISSON
    &PRINT
      &DERIVATIVES
      &END DERIVATIVES
    &END PRINT
    &QS
      EPS_DEFAULT 1.E-10
      METHOD GAPW
    &END QS
    &SCF
      EPS_SCF 1.0E-7
      SCF_GUESS ATOMIC
    &END SCF
    &XC
      &HF
        &HF_INFO
        &END HF_INFO
        &SCREENING
          EPS_SCHWARZ 1.E-8
        &END SCREENING
      &END HF
      &XC_FUNCTIONAL NONE
      &END XC_FUNCTIONAL
    &END XC
  &END DFT
  &SUBSYS
    &CELL
      ABC 6.0 6.0 6.0
      PERIODIC NONE
    &END CELL
    &COORD
      O   0.000000    0.000000    0.000000
      H   0.000000   -0.757136    0.504545
      H   0.000000    0.757136    0.504545
    &END COORD
    &KIND H
      BASIS_SET ORB 6-31G*
      BASIS_SET AUX_FIT admm-1
      POTENTIAL ALL
    &END KIND
    &KIND O
      BASIS_SET ORB 6-31G*
      BASIS_SET AUX_FIT admm-1
      POTENTIAL ALL
    &END KIND
  &END SUBSYS
&END FORCE_EVAL
