&GLOBAL
  PRINT_LEVEL LOW
  PROJECT H2O_ec_otdiag_atomic
  RUN_TYPE ENERGY
&END GLOBAL

&FORCE_EVAL
  METHOD Quickstep
  &DFT
    BASIS_SET_FILE_NAME BASIS_SET
    POTENTIAL_FILE_NAME GTH_POTENTIALS
    &ENERGY_CORRECTION
      ALGORITHM OT_DIAG
      ENERGY_FUNCTIONAL HARRIS
      HARRIS_BASIS HARRIS
      OT_INITIAL_GUESS ATOMIC
      &XC
        &XC_FUNCTIONAL
          &PBE
          &END PBE
        &END XC_FUNCTIONAL
      &END XC
    &END ENERGY_CORRECTION
    &MGRID
      CUTOFF 200
    &END MGRID
    &QS
      EPS_DEFAULT 1.E-10
      EPS_KG_ORB 1.0E-5
    &END QS
    &SCF
      EPS_SCF 1.0E-5
      SCF_GUESS ATOMIC
    &END SCF
    &XC
      &XC_FUNCTIONAL
        &PADE
        &END PADE
      &END XC_FUNCTIONAL
    &END XC
  &END DFT
  &SUBSYS
    &CELL
      ABC 6.0 6.0 6.0
    &END CELL
    &COORD
      O     0.000000     0.000000     0.000000    H2O1
      H     0.000000     0.000000     1.000000    H2O1
      H     0.942809     0.000000    -0.333333    H2O1
    &END COORD
    &KIND H
      BASIS_SET ORB DZVP-GTH-BLYP
      BASIS_SET HARRIS DZVP-GTH-BLYP
      MAO 1
      POTENTIAL GTH-PADE-q1
    &END KIND
    &KIND O
      BASIS_SET ORB DZVP-GTH-BLYP
      BASIS_SET HARRIS DZVP-GTH-BLYP
      MAO 4
      POTENTIAL GTH-PADE-q6
    &END KIND
  &END SUBSYS
&END FORCE_EVAL
