&GLOBAL
  PRINT_LEVEL LOW
  PROJECT harris
  RUN_TYPE DEBUG
&END GLOBAL

&DEBUG
  CHECK_DIPOLE_DIRS Z
  DEBUG_DIPOLE .TRUE.
  DEBUG_FORCES .FALSE.
  DEBUG_POLARIZABILITY .FALSE.
  DEBUG_STRESS_TENSOR .FALSE.
&END DEBUG

&FORCE_EVAL
  METHOD Quickstep
  &DFT
    BASIS_SET_FILE_NAME BASIS_SET
    POTENTIAL_FILE_NAME GTH_POTENTIALS
    &EFIELD
    &END EFIELD
    &ENERGY_CORRECTION
      ENERGY_FUNCTIONAL HARRIS
      HARRIS_BASIS ORBITAL
      &PRINT
        &MOMENTS ON
          PERIODIC .FALSE.
          REFERENCE COM
        &END MOMENTS
      &END PRINT
      &RESPONSE_SOLVER
        METHOD MO_SOLVER
        PRECONDITIONER FULL_SINGLE_INVERSE
      &END RESPONSE_SOLVER
      &XC
        &XC_FUNCTIONAL PBE
        &END XC_FUNCTIONAL
      &END XC
    &END ENERGY_CORRECTION
    &MGRID
      CUTOFF 300
    &END MGRID
    &POISSON
      PERIODIC NONE
      POISSON_SOLVER MT
    &END POISSON
    &QS
      EPS_DEFAULT 1.E-12
      METHOD GPW
    &END QS
    &SCF
      EPS_SCF 1.0E-7
      SCF_GUESS ATOMIC
    &END SCF
    &XC
      &XC_FUNCTIONAL PADE
      &END XC_FUNCTIONAL
    &END XC
  &END DFT
  &SUBSYS
    &CELL
      ABC 5.0 5.0 5.0
      PERIODIC NONE
    &END CELL
    &COORD
      O   0.000000    0.000000   -0.065587
      H   0.000000   -0.757136    0.520545
      H   0.000000    0.757136    0.520545
    &END COORD
    &KIND H
      BASIS_SET DZVP-GTH-PADE
      POTENTIAL GTH-PADE-q1
    &END KIND
    &KIND O
      BASIS_SET DZVP-GTH-PADE
      POTENTIAL GTH-PADE-q6
    &END KIND
    &TOPOLOGY
      &CENTER_COORDINATES
      &END CENTER_COORDINATES
    &END TOPOLOGY
  &END SUBSYS
&END FORCE_EVAL
