&FORCE_EVAL
  METHOD Quickstep
  &DFT
    BASIS_SET_FILE_NAME BASIS_SET
    POTENTIAL_FILE_NAME GTH_POTENTIALS
    &MGRID
      CUTOFF 400
    &END MGRID
    &QS
      EPS_DEFAULT 1.E-14
    &END QS
    &ENERGY_CORRECTION
      ENERGY_FUNCTIONAL HARRIS
      HARRIS_BASIS ORBITAL
      &XC
        &XC_FUNCTIONAL
           &PBE
           &END
        &END
      &END XC
      &PRINT
        &MOMENTS ON
           PERIODIC .FALSE.
           REFERENCE COM
        &END
        &VORONOI
          SANITY_CHECK T
          VERBOSE T
          REFINEMENT_FACTOR 1
        &END
      &END
    &END ENERGY_CORRECTION
    &SCF
      EPS_SCF 1.0E-7
      SCF_GUESS ATOMIC
    &END
    &XC
      &XC_FUNCTIONAL
         &PADE
         &END
      &END
    &END XC
  &END DFT
  &SUBSYS
    &CELL
      ABC 6.0 6.0 6.0
    &END CELL
    &COORD
    H     0.000000     0.000000     0.000000
    F     0.000000     0.000000     1.050000
    &END COORD
    &KIND H
      BASIS_SET ORB DZVP-GTH-BLYP
      POTENTIAL GTH-PADE-q1
    &END KIND
    &KIND F
      BASIS_SET ORB DZVP-GTH-BLYP
      POTENTIAL GTH-PADE-q7
    &END KIND
  &END SUBSYS
&END FORCE_EVAL
&GLOBAL
  PROJECT HF
  RUN_TYPE ENERGY_FORCE
  PRINT_LEVEL LOW
&END GLOBAL
