&FORCE_EVAL
  METHOD Quickstep
  &DFT
    &PRINT
       &DERIVATIVES
       &END
    &END
    BASIS_SET_FILE_NAME BASIS_SET
    BASIS_SET_FILE_NAME BASIS_ADMM
    POTENTIAL_FILE_NAME GTH_POTENTIALS
    &MGRID
      CUTOFF 200
    &END MGRID
    &QS
      EPS_DEFAULT 1.E-10
    &END QS
    &AUXILIARY_DENSITY_MATRIX_METHOD
      ADMM_PURIFICATION_METHOD NONE
      EXCH_CORRECTION_FUNC NONE
      EXCH_SCALING_MODEL NONE
      METHOD BASIS_PROJECTION
    &END
    &ENERGY_CORRECTION
      ENERGY_FUNCTIONAL HARRIS
      HARRIS_BASIS ORBITAL
      &XC
        &XC_FUNCTIONAL
           &PADE
           &END
        &END
      &END XC
    &END ENERGY_CORRECTION
    &SCF
      EPS_SCF 1.0E-6
      SCF_GUESS ATOMIC
    &END
    &XC
       &XC_FUNCTIONAL NONE
       &END
       &HF
         FRACTION 1.0
         &SCREENING
           EPS_SCHWARZ 1.0E-10
         &END
       &END
    &END XC
    &POISSON
       PERIODIC NONE
       POISSON_SOLVER MT
    &END
  &END DFT
  &SUBSYS
    &CELL
      ABC 5.0 5.0 5.0
      PERIODIC NONE
    &END CELL
    &COORD
    N     0.000000     0.000000     0.650000
    N     0.000000     0.000000    -0.650000
    &END COORD
    &KIND N
      BASIS_SET ORB DZVP-GTH-BLYP
      BASIS_SET AUX_FIT FIT3
      POTENTIAL GTH-PADE-q5
    &END KIND
  &END SUBSYS
&END FORCE_EVAL
&GLOBAL
  PROJECT N2
  RUN_TYPE DEBUG
##  RUN_TYPE ENERGY_FORCE
  PRINT_LEVEL LOW
&END GLOBAL
&MOTION
  &GEO_OPT
     MAX_ITER 3
  &END
&END

