&GLOBAL
  PRINT_LEVEL LOW
  PROJECT N2
  ##  RUN_TYPE DEBUG
  RUN_TYPE ENERGY_FORCE
&END GLOBAL

&DEBUG
  DEBUG_FORCES T
  DEBUG_STRESS_TENSOR F
  DX 0.001
  STOP_ON_MISMATCH T
&END DEBUG

&FORCE_EVAL
  METHOD Quickstep
  &DFT
    BASIS_SET_FILE_NAME BASIS_SET
    POTENTIAL_FILE_NAME GTH_POTENTIALS
    &ENERGY_CORRECTION
      ENERGY_FUNCTIONAL HARRIS
      HARRIS_BASIS ORBITAL
      &RESPONSE_SOLVER
        METHOD MO_SOLVER
        PRECONDITIONER FULL_SINGLE_INVERSE
      &END RESPONSE_SOLVER
      &XC
        &XC_FUNCTIONAL
          &PBE
          &END PBE
        &END XC_FUNCTIONAL
      &END XC
    &END ENERGY_CORRECTION
    &MGRID
      CUTOFF 250
    &END MGRID
    &PRINT
      &DERIVATIVES
      &END DERIVATIVES
    &END PRINT
    &QS
      EPS_DEFAULT 1.E-10
    &END QS
    &SCF
      EPS_SCF 1.0E-7
      SCF_GUESS ATOMIC
    &END SCF
    &XC
      &XC_FUNCTIONAL
        &PADE
        &END PADE
      &END XC_FUNCTIONAL
    &END XC
  &END DFT
  &SUBSYS
    &CELL
      ABC 6.0 6.0 6.0
    &END CELL
    &COORD
      N     0.000000     0.000000     0.650000
      N     0.000000     0.000000    -0.650000
    &END COORD
    &KIND N
      BASIS_SET ORB DZVP-GTH-BLYP
      BASIS_SET HARRIS DZVP-GTH-BLYP
      POTENTIAL GTH-PADE-q5
    &END KIND
  &END SUBSYS
&END FORCE_EVAL
