&GLOBAL
  PRINT_LEVEL MEDIUM
  PROJECT H2O
&END GLOBAL

&FORCE_EVAL
  METHOD Quickstep
  &DFT
    BASIS_SET_FILE_NAME BASIS_SET
    POTENTIAL_FILE_NAME POTENTIAL
    &MGRID
      CUTOFF 150
      NGRIDS 1
    &END MGRID
    &QS
      GAPW_1C_BASIS EXT_LARGE
      METHOD GAPW
    &END QS
    &SCF
      EPS_SCF 1.0E-4
      SCF_GUESS ATOMIC
    &END SCF
    &XC
      &XC_FUNCTIONAL Pade
      &END XC_FUNCTIONAL
    &END XC
  &END DFT
  &SUBSYS
    &CELL
      ABC 6.0 6.0 6.0
    &END CELL
    &COORD
      O   0.000000    0.000000   -0.065587
      H   0.000000   -0.757136    0.520545
      H   0.000000    0.757136    0.520545
    &END COORD
    &KIND H
      BASIS_SET DZVP-GTH-PADE
      HARD_EXP_RADIUS 1.5117809071370015011
      LEBEDEV_GRID 50
      POTENTIAL GTH-PADE-q1
      RADIAL_GRID 50
    &END KIND
    &KIND O
      BASIS_SET DZVP-GTH-PADE
      LEBEDEV_GRID 50
      POTENTIAL GTH-PADE-q6
      RADIAL_GRID 50
    &END KIND
  &END SUBSYS
&END FORCE_EVAL
