&GLOBAL
  PRINT_LEVEL MEDIUM
  PROJECT H2S
&END GLOBAL

&FORCE_EVAL
  METHOD Quickstep
  &DFT
    BASIS_SET_FILE_NAME GTH_BASIS_SETS
    POTENTIAL_FILE_NAME POTENTIAL
    &MGRID
      CUTOFF 240
    &END MGRID
    &QS
      EPS_DEFAULT 1.0E-8
      GAPW_1C_BASIS EXT_VERY_LARGE
      METHOD GAPW
    &END QS
    &SCF
      EPS_SCF 1.0E-5
      IGNORE_CONVERGENCE_FAILURE
      MAX_SCF 3
      SCF_GUESS ATOMIC
    &END SCF
    &XC
      &XC_FUNCTIONAL TPSS
      &END XC_FUNCTIONAL
    &END XC
  &END DFT
  &SUBSYS
    &CELL
      ABC 4.0 4.0 4.0
    &END CELL
    &COORD
      S 0.0 0.0 0.104467
      H 0.0 0.975586 -0.835734
      H 0.0 -0.975586 -0.835734
    &END COORD
    &KIND H
      BASIS_SET TZV2P-GTH
      POTENTIAL GTH-BLYP-q1
    &END KIND
    &KIND S
      BASIS_SET TZV2P-GTH
      POTENTIAL GTH-BLYP-q6
    &END KIND
  &END SUBSYS
&END FORCE_EVAL
