&GLOBAL
  PRINT_LEVEL LOW
  PROJECT CIC
  RUN_TYPE MD
&END GLOBAL

&MOTION
  &MD
    ENSEMBLE NVE
    STEPS 5
    TEMPERATURE 300
    TIMESTEP 1
  &END MD
&END MOTION

&FORCE_EVAL
  METHOD QMMM
  &DFT
    BASIS_SET_FILE_NAME BASIS_MOLOPT
    CHARGE 1
    MULTIPLICITY 1
    POTENTIAL_FILE_NAME POTENTIAL
    &MGRID
      COMMENSURATE
      CUTOFF 400
    &END MGRID
    &QS
      EPS_DEFAULT 1.0E-12
      METHOD GPW
    &END QS
    &SCF  ! Parameters controlling the convergence of the scf. This section should not be changed.
      EPS_SCF 1.0E-6
      MAX_SCF 300
      SCF_GUESS RESTART
      &OT T
        MINIMIZER DIIS
        PRECONDITIONER FULL_ALL
        STEPSIZE 1.4999999999999999E-01
      &END OT
    &END SCF
    &XC  ! Parameters needed to compute the electronic exchange potential
      &XC_FUNCTIONAL BLYP
      &END XC_FUNCTIONAL
    &END XC
  &END DFT
  &MM
    &FORCEFIELD
      DO_NONBONDED .TRUE.
      EI_SCALE14 1.0
      PARMTYPE AMBER
      PARM_FILE_NAME ClC.prmtop
      VDW_SCALE14 1.0
      &SPLINE
        EMAX_SPLINE 1.0E14
        RCUT_NB [angstrom] 12
      &END SPLINE
    &END FORCEFIELD
    &POISSON
      &EWALD
        ALPHA .40
        EWALD_TYPE SPME
        GMAX 80
      &END EWALD
    &END POISSON
  &END MM
  &QMMM  ! This defines the QS cell in the QMMM calc
    CENTER EVERY_STEP
    ECOUPL GAUSS
    USE_GEEP_LIB 15
    &CELL
      ABC 17.7 17.7 17.7
      PERIODIC XYZ
    &END CELL
    &LINK
      LINK_TYPE IMOMM
      MM_INDEX 2878
      QM_INDEX 2880
    &END LINK
    &LINK
      LINK_TYPE IMOMM
      MM_INDEX 2070
      QM_INDEX 2072
    &END LINK
    &PERIODIC  # apply periodic potential
      #turn on/off coupling/recoupling of the QM multipole
      &MULTIPOLE ON
      &END MULTIPOLE
    &END PERIODIC
    &QM_KIND O
      MM_INDEX 2887 2888 2080 2079
    &END QM_KIND
    &QM_KIND C
      MM_INDEX 2880 2883 2886 2072 2075 2078
    &END QM_KIND
    &QM_KIND H
      MM_INDEX 2884 2885 2881 2882 2074 2073 2077 2076 2081
    &END QM_KIND
  &END QMMM
  &SUBSYS
    &CELL
      ABC 126.9338000 126.9338000 90.6262000
      ALPHA_BETA_GAMMA 90 90 90
      PERIODIC XYZ
    &END CELL
    &KIND H
      BASIS_SET DZVP-MOLOPT-GTH
      ELEMENT H
      POTENTIAL GTH-BLYP-q1
    &END KIND
    &KIND C
      BASIS_SET DZVP-MOLOPT-GTH
      ELEMENT C
      POTENTIAL GTH-BLYP-q4
    &END KIND
    &KIND O
      BASIS_SET DZVP-MOLOPT-GTH
      ELEMENT O
      POTENTIAL GTH-BLYP-q6
    &END KIND
    &KIND CL-
      ELEMENT CL
    &END KIND
    &KIND NA+
      ELEMENT NA
    &END KIND
    &KIND HX1
      ELEMENT H
    &END KIND
    &KIND HX2
      ELEMENT H
    &END KIND
    &TOPOLOGY  ! Section used to center the atomic coordinates in the given box. Useful for big molecules
      CONN_FILE_FORMAT AMBER
      CONN_FILE_NAME ClC.prmtop
      COORD_FILE_FORMAT PDB
      COORD_FILE_NAME ClC.pdb
      &CENTER_COORDINATES
      &END CENTER_COORDINATES
    &END TOPOLOGY
  &END SUBSYS
&END FORCE_EVAL
