&FORCE_EVAL
  METHOD Quickstep
  &PROPERTIES
    &TDDFPT
       KERNEL sTDA
       NSTATES      1
       MAX_ITER    50
       EV_SHIFT    6.0
       CONVERGENCE [eV] 1.0e-7
    &END TDDFPT
  &END PROPERTIES
  &DFT
    BASIS_SET_FILE_NAME BASIS_SET
    POTENTIAL_FILE_NAME GTH_POTENTIALS
    &MGRID
      CUTOFF 200
    &END MGRID
    &QS
      METHOD GAPW_XC
      EPS_DEFAULT 1.E-14
    &END QS
    &EFIELD
    &END
    &EXCITED_STATES T
       STATE 1
    &END EXCITED_STATES
    &SCF
      SCF_GUESS ATOMIC
      &OT
         PRECONDITIONER FULL_ALL
         MINIMIZER DIIS
         STEPSIZE 0.1
      &END
      &OUTER_SCF
         MAX_SCF  20
         EPS_SCF 1.0E-7
      &END
      MAX_SCF  20
      EPS_SCF 1.0E-7
    &END SCF
    &XC
      &XC_FUNCTIONAL PADE
      &END XC_FUNCTIONAL
    &END XC
    &PRINT
      &MOMENTS ON
         PERIODIC .FALSE.
         REFERENCE COM
      &END
    &END
    &POISSON
       PERIODIC NONE
       POISSON_SOLVER MT
    &END
  &END DFT
  &SUBSYS
    &CELL
      ABC [angstrom] 5.0 5.0 5.0
      PERIODIC NONE
    &END
    &COORD
  O         0.094933   -0.000368    0.895642
  C        -0.031077   -0.000121   -0.307326
  H        -0.090437    0.947608   -0.895642
  H        -0.094933   -0.947608   -0.895562
    &END COORD
    &TOPOLOGY
     &CENTER_COORDINATES
     &END
    &END
    &KIND H
      BASIS_SET DZVP-GTH-PADE
      POTENTIAL GTH-PADE-q1
    &END KIND
    &KIND C
      BASIS_SET DZVP-GTH-PADE
      POTENTIAL GTH-PADE-q4
    &END KIND
    &KIND O
      BASIS_SET DZVP-GTH-PADE
      POTENTIAL GTH-PADE-q6
    &END KIND
  &END SUBSYS
&END FORCE_EVAL
&GLOBAL
  PRINT_LEVEL LOW
  PROJECT td_dipole
  RUN_TYPE DEBUG
&END GLOBAL

&DEBUG
   DEBUG_FORCES .FALSE.
   DEBUG_STRESS_TENSOR .FALSE.
   DEBUG_DIPOLE .TRUE.
   CHECK_DIPOLE_DIRS Z
   DEBUG_POLARIZABILITY .FALSE.
   DE 0.001
&END
 

