&FORCE_EVAL
  METHOD Quickstep
  &DFT
    &QS
      METHOD GPW
    &END QS
    &SCF
      SCF_GUESS ATOMIC
      &OT
         PRECONDITIONER FULL_SINGLE_INVERSE
         MINIMIZER DIIS
      &END
      &OUTER_SCF
         MAX_SCF  10
         EPS_SCF 1.0E-8
      &END
      MAX_SCF  10
      EPS_SCF 1.0E-8
    &END SCF
    &XC
      &XC_FUNCTIONAL Pade
      &END XC_FUNCTIONAL
    &END XC
  &END DFT
  &SUBSYS
    &CELL
      ABC [angstrom] 6.0 6.0 6.0
      PERIODIC NONE
    &END
    &COORD
    O   0.000000    0.000000   -0.065587
    H   0.000000   -0.757136    0.520545
    H   0.000000    0.757136    0.520545
    &END COORD
    &TOPOLOGY
     &CENTER_COORDINATES
     &END
    &END
    &KIND H
      BASIS_SET DZV-GTH-PADE
      POTENTIAL GTH-PADE-q1
    &END KIND
    &KIND O
      BASIS_SET DZVP-GTH-PADE
      POTENTIAL GTH-PADE-q6
    &END KIND
  &END SUBSYS
&END FORCE_EVAL
&GLOBAL
  PRINT_LEVEL LOW
  PROJECT dipole
  RUN_TYPE DEBUG
&END GLOBAL

&DEBUG
   DEBUG_FORCES .TRUE.
   CHECK_ATOM_FORCE   1 z
   CHECK_ATOM_FORCE   3 z
   DEBUG_STRESS_TENSOR .FALSE.
   DEBUG_DIPOLE .FALSE.
   DEBUG_POLARIZABILITY .FALSE.
   DE 0.0002
&END


