&GLOBAL
  PRINT_LEVEL LOW
  PROJECT DIPOLE_HF_gpw
  RUN_TYPE ENERGY_FORCE
&END GLOBAL

&FORCE_EVAL
  METHOD Quickstep
  &DFT
    POTENTIAL_FILE_NAME POTENTIAL
    &MGRID
      CUTOFF 150
      REL_CUTOFF 30
    &END MGRID
    &PRINT
      &MOMENTS ON
        PERIODIC .FALSE.
        REFERENCE COM
      &END MOMENTS
      &VORONOI
        MOLECULAR_PROPERTIES
        REFINEMENT_FACTOR 1
        SANITY_CHECK T
        VERBOSE T
      &END VORONOI
    &END PRINT
    &QS
      EPS_DEFAULT 1.0E-12
      METHOD GPW
    &END QS
    &SCF
      EPS_SCF 1.0E-6
      MAX_SCF 100
      SCF_GUESS ATOMIC
    &END SCF
    &XC
      &HF
        FRACTION 1.0000000
        &INTERACTION_POTENTIAL
          CUTOFF_RADIUS 1.5
          POTENTIAL_TYPE TRUNCATED
          T_C_G_DATA t_c_g.dat
        &END INTERACTION_POTENTIAL
        &SCREENING
          EPS_SCHWARZ 1.0E-6
          EPS_SCHWARZ_FORCES 1.0E-6
          SCREEN_ON_INITIAL_P .FALSE.
        &END SCREENING
      &END HF
      &WF_CORRELATION
        MEMORY 1.00
        NUMBER_PROC 1
        &CANONICAL_GRADIENTS
          EPS_CANONICAL 0.0001
          FREE_HFX_BUFFER .TRUE.
          &CPHF
            EPS_CONV 1.0E-4
            MAX_ITER 10
          &END CPHF
        &END CANONICAL_GRADIENTS
        &INTEGRALS
          &WFC_GPW
            CUTOFF 50
            EPS_FILTER 1.0E-12
            EPS_GRID 1.0E-8
            REL_CUTOFF 20
          &END WFC_GPW
        &END INTEGRALS
        &RI_MP2
        &END RI_MP2
      &END WF_CORRELATION
      &XC_FUNCTIONAL NONE
      &END XC_FUNCTIONAL
    &END XC
  &END DFT
  &PRINT
    &FORCES
    &END FORCES
  &END PRINT
  &SUBSYS
    &CELL
      ABC [angstrom] 5.0 5.0 5.0
    &END CELL
    &COORD
      F       0.000000    0.000000     0.000000 HF
      H       0.000000    0.000000     1.050000 HF
    &END COORD
    &KIND H
      BASIS_SET DZVP-GTH-PADE
      POTENTIAL GTH-PADE-q1
    &END KIND
    &KIND F
      BASIS_SET DZVP-GTH-PADE
      POTENTIAL GTH-PADE-q7
    &END KIND
    &TOPOLOGY
      &CENTER_COORDINATES
      &END CENTER_COORDINATES
    &END TOPOLOGY
  &END SUBSYS
&END FORCE_EVAL
