&GLOBAL
  PROJECT argon
  RUN_TYPE CELL_OPT
  PRINT_LEVEL LOW
&END GLOBAL
&FORCE_EVAL
  METHOD QS
  STRESS_TENSOR ANALYTICAL
  &DFT
    BASIS_SET_FILE_NAME ../../../data/BASIS_MOLOPT
    POTENTIAL_FILE_NAME ../../../data/POTENTIAL
    &MGRID
      CUTOFF 180
    &END MGRID
    &QS
      METHOD GPW
    &END QS
    &SCF
      SCF_GUESS ATOMIC
      MAX_SCF 2
      EPS_SCF 1.0e-4
    &END SCF
    &XC
      &XC_FUNCTIONAL
        &LIBXC
          FUNCTIONAL XC_GGA_X_RPW86 XC_GGA_C_PBE
        &END LIBXC
      &END XC_FUNCTIONAL
      &vdW_POTENTIAL
         DISPERSION_FUNCTIONAL NON_LOCAL
         &NON_LOCAL
           TYPE RVV10
           PARAMETERS 6.3 0.0093
           VERBOSE_OUTPUT
           KERNEL_FILE_NAME ../../../data/rVV10_kernel_table.dat
           CUTOFF  80
         &END NON_LOCAL
      &END vdW_POTENTIAL
    &END XC
  &END DFT
  &SUBSYS
    &CELL
      ABC 5.31 5.31 5.31
      ALPHA_BETA_GAMMA 90 90 90
    &END CELL
    &COORD
      SCALED .TRUE.
      Ar 0.1 0.0 0.0
      Ar 0.5 0.5 0.0
      Ar 0.5 0.0 0.5
      Ar 0.0 0.5 0.5
    &END COORD
    &KIND Ar
      BASIS_SET DZVP-MOLOPT-SR-GTH-q8
      POTENTIAL GTH-PADE-q8
    &END
  &END SUBSYS
&END FORCE_EVAL
&MOTION
  &CELL_OPT
    EXTERNAL_PRESSURE 0.0
    TYPE DIRECT_CELL_OPT
    OPTIMIZER CG
    MAX_ITER 2
    MAX_DR 0.003
    RMS_DR 0.0015
    MAX_FORCE 0.00045
    RMS_FORCE 0.0003
    &CG
      &LINE_SEARCH
        TYPE 2PNT
        &2PNT
        &END 2PNT
      &END LINE_SEARCH
    &END CG
  &END CELL_OPT
&END MOTION
