&GLOBAL
  PROJECT dftd3_t4
  PRINT_LEVEL MEDIUM
  RUN_TYPE ENERGY
&END GLOBAL
&FORCE_EVAL
  METHOD QS
  &DFT
    BASIS_SET_FILE_NAME GTH_BASIS_SETS
    POTENTIAL_FILE_NAME POTENTIAL
    &MGRID
      NGRIDS 1
      CUTOFF 100
    &END MGRID
    &QS
      METHOD GPW
    &END QS
    &SCF
      SCF_GUESS ATOMIC
      MAX_SCF 1
      EPS_SCF 1.0e-0
    &END SCF
    &XC
      &XC_FUNCTIONAL BLYP
      &END XC_FUNCTIONAL
      &vdW_POTENTIAL
         DISPERSION_FUNCTIONAL PAIR_POTENTIAL
         &PAIR_POTENTIAL
            TYPE DFTD3(BJ)
            PARAMETER_FILE_NAME dftd3.dat
            D3BJ_SCALING   1.0e0 0.4298e0 2.6996e0 4.2359e0
            CALCULATE_C9_TERM T
            R_CUTOFF 20.e0
            &PRINT_DFTD
            &END
         &END PAIR_POTENTIAL
      &END vdW_POTENTIAL
    &END XC
  &END DFT
  &SUBSYS
    &CELL
      ABC 15.0 15.0 15.0
      PERIODIC NONE
    &END
    &COORD
 UNIT bohr
C   -1.98010325431824     -2.68657445907593      0.00000000000000
C   -2.74861383438110     -1.61655890941620      2.27939748764038
C   -2.74861383438110     -1.61655890941620     -2.27939748764038
C   -4.28362655639648      0.52375853061676      2.28081297874451
C   -5.04836320877075      1.59685885906219      0.00000000000000
C   -4.28362655639648      0.52375853061676     -2.28081297874451
C    1.98010325431824      2.68657445907593      0.00000000000000
C    2.74861383438110      1.61655890941620     -2.27939748764038
C    2.74861383438110      1.61655890941620      2.27939748764038
C    4.28362655639648     -0.52375853061676     -2.28081297874451
C    5.04836320877075     -1.59685885906219      0.00000000000000
C    4.28362655639648     -0.52375853061676      2.28081297874451
H   -2.14267301559448     -2.44163894653320     -4.04838991165161
H   -4.88020849227905      1.35362362861633     -4.05119180679321
H   -6.24184703826904      3.25650930404663      0.00000000000000
H   -4.88020849227905      1.35362362861633      4.05119180679321
H   -2.14267301559448     -2.44163894653320      4.04838991165161
H   -0.76727682352066     -4.33107376098633      0.00000000000000
H    0.76727682352066      4.33107376098633      0.00000000000000
H    2.14267301559448      2.44163894653320      4.04838991165161
H    4.88020849227905     -1.35362362861633      4.05119180679321
H    6.24184703826904     -3.25650930404663      0.00000000000000
H    4.88020849227905     -1.35362362861633     -4.05119180679321
H    2.14267301559448      2.44163894653320     -4.04838991165161
    &END COORD
    &KIND H
      BASIS_SET DZV-GTH
      POTENTIAL GTH-PBE-q1
    &END
    &KIND C
      BASIS_SET DZVP-GTH
      POTENTIAL GTH-PBE-q4
    &END
  &END SUBSYS
&END
