&GLOBAL
  PROJECT dftd3_t1
  PRINT_LEVEL MEDIUM
  RUN_TYPE ENERGY
&END GLOBAL
&FORCE_EVAL
  METHOD QS
  &DFT
    BASIS_SET_FILE_NAME ../../../data/GTH_BASIS_SETS
    POTENTIAL_FILE_NAME ../../../data/POTENTIAL
    &MGRID
      NGRIDS 1
      CUTOFF 100
    &END MGRID
    &QS
      METHOD GPW
    &END QS
    &SCF
      SCF_GUESS ATOMIC
      MAX_SCF 1
      EPS_SCF 1.0e-0
    &END SCF
    &XC
      &XC_FUNCTIONAL PBE 
      &END XC_FUNCTIONAL
      &vdW_POTENTIAL
         DISPERSION_FUNCTIONAL PAIR_POTENTIAL
         &PAIR_POTENTIAL
            TYPE DFTD3(BJ)
            PARAMETER_FILE_NAME ../../../data/dftd3.dat
            REFERENCE_FUNCTIONAL PBE
            &PRINT_DFTD
            &END
         &END PAIR_POTENTIAL
      &END vdW_POTENTIAL
    &END XC
  &END DFT
  &SUBSYS
    &CELL
      ABC 6.0 6.0 6.0
      PERIODIC NONE
    &END
    &COORD
 C         7.499969        9.250001        7.500000
 C         7.499969        5.750001        7.500000
 H         8.205969        8.887002        6.753000
 H         6.499969        8.887002        7.262000
 H         7.793968        8.887002        8.485001
 H         7.499969       10.340001        7.500000
 H         7.199968        6.113001        6.517000
 H         8.501968        6.113001        7.731000
 H         6.798969        6.113001        8.252001
 H         7.499969        4.660001        7.500000
    &END COORD
    &KIND H
      BASIS_SET DZV-GTH
      POTENTIAL GTH-PBE-q1
    &END
    &KIND C
      BASIS_SET DZVP-GTH
      POTENTIAL GTH-PBE-q4
    &END
  &END SUBSYS
&END
