<?xml version="1.0" encoding="UTF-8"?>
<UPF version="2.0.1">
  <PP_INFO><![CDATA[
Generated using "atomic" code by A. Dal Corso  v.6.3MaX
Author: Lorenzo Paulatto
Generation date: 23May2022
Pseudopotential type: USPP
Element:  H
Functional: PBE
    Suggested minimum cutoff for wavefunctions:  46. Ry
    Suggested minimum cutoff for charge density: 221. Ry
    The Pseudo was generated with a Scalar-Relativistic Calculation
    L component and cutoff radius for Local Potential:  1   0.7500
    Pseudopotential contains additional information for GIPAW reconstruction.
    Valence configuration:
    nl pn  l   occ       Rcut    Rcut US       E pseu
    1S  1  0  1.00      0.800      1.000    -0.477211
    Generation configuration:
    1S  1  0  1.00      0.800      1.000    -0.477207
    1S  1  0  0.00      0.800      1.000     0.050000
    2P  2  1 -1.00      0.750      0.750     0.050000
    Pseudization used: troullier-martins
]]>
    <PP_INPUTFILE><![CDATA[
 &input
   title='H',
   zed=1.,
   rel=1,
   config='1s1 2p-2',
   iswitch=3,
   dft='PBE'
 /
 &inputp
   lpaw=.false.,
   pseudotype=3,
   file_pseudopw='H.pbe-rrkjus_psl.1.0.0.UPF',
   author='Lorenzo Paulatto',
   lloc=1,
   which_augfun='PSQ',
   rmatch_augfun_nc=.true.,
   tm=.true.
 /
3
1S  1  0  1.00  0.00  0.80  1.00  0.0
1S  1  0  0.00  0.05  0.80  1.00  0.0
2P  2  1 -1.00  0.05  0.75  0.75  0.0
]]></PP_INPUTFILE>
  </PP_INFO>
  <!--
 END OF HUMAN READABLE SECTION 
-->
  <PP_HEADER generated="Generated using &quot;atomic&quot; code by A. Dal Corso  v.6.3MaX" author="Lorenzo Paulatto" date="23May2022" comment="" element=" H" pseudo_type="USPP" relativistic="scalar" is_ultrasoft="true" is_paw="false" is_coulomb="false" has_so="false" has_wfc="true" has_gipaw="true" paw_as_gipaw="false" core_correction="false" functional="PBE" z_valence="1.000000000000e0" total_psenergy="-9.177998700904e-1" wfc_cutoff="4.565576003474e1" rho_cutoff="2.209107022183e2" l_max="1" l_max_rho="2" l_local="1" mesh_size="929" number_of_wfc="1" number_of_proj="2"/>
  <PP_MESH dx="1.250000000000e-2" mesh="929" xmin="-7.000000000000e0" rmax="1.000000000000e2" zmesh="1.000000000000e0">
    <PP_R>
      9.118819655545161e-4 9.233520286690222e-4 9.349663674165821e-4 9.467267965612539e-4
      9.586351536940199e-4 9.706932995199089e-4 9.829031181487386e-4 9.952665173895113e-4
      1.007785429048511e-3 1.020461809231155e-3 1.033297638647637e-3 1.046294922922419e-3
      1.059455692907610e-3 1.072782005000297e-3 1.086275941463858e-3 1.099939610753318e-3
      1.113775147844803e-3 1.127784714569132e-3 1.141970499949607e-3 1.156334720544058e-3
      1.170879620791174e-3 1.185607473361213e-3 1.200520579511101e-3 1.215621269444015e-3
      1.230911902673481e-3 1.246394868392049e-3 1.262072585844614e-3 1.277947504706424e-3
      1.294022105465848e-3 1.310298899811960e-3 1.326780431026992e-3 1.343469274383727e-3
      1.360368037547894e-3 1.377479360985617e-3 1.394805918375999e-3 1.412350417028882e-3
      1.430115598307875e-3 1.448104238058696e-3 1.466319147042903e-3 1.484763171377087e-3
      1.503439192977572e-3 1.522350130010732e-3 1.541498937348950e-3 1.560888607032332e-3
      1.580522168736217e-3 1.600402690244564e-3 1.620533277929307e-3 1.640917077235726e-3
      1.661557273173934e-3 1.682457090816541e-3 1.703619795802574e-3 1.725048694847742e-3
      1.746747136261120e-3 1.768718510468321e-3 1.790966250541270e-3 1.813493832734615e-3
      1.836304777028907e-3 1.859402647680601e-3 1.882791053778977e-3 1.906473649810076e-3
      1.930454136227709e-3 1.954736260031667e-3 1.979323815353197e-3 2.004220644047839e-3
      2.029430636295734e-3 2.054957731209459e-3 2.080805917449529e-3 2.106979233847634e-3
      2.133481770037708e-3 2.160317667094954e-3 2.187491118182885e-3 2.215006369208517e-3
      2.242867719485803e-3 2.271079522407407e-3 2.299646186124936e-3 2.328572174237714e-3
      2.357862006490233e-3 2.387520259478373e-3 2.417551567364503e-3 2.447960622601583e-3
      2.478752176666358e-3 2.509931040801799e-3 2.541502086768859e-3 2.573470247607700e-3
      2.605840518408498e-3 2.638617957091922e-3 2.671807685199450e-3 2.705414888693627e-3
      2.739444818768368e-3 2.773902792669489e-3 2.808794194525513e-3 2.844124476188967e-3
      2.879899158088243e-3 2.916123830090168e-3 2.952804152373447e-3 2.989945856313060e-3
      3.027554745375815e-3 3.065636696027143e-3 3.104197658649309e-3 3.143243658471180e-3
      3.182780796509666e-3 3.222815250523026e-3 3.263353275976149e-3 3.304401207017982e-3
      3.345965457471272e-3 3.388052521834712e-3 3.430668976297734e-3 3.473821479768053e-3
      3.517516774912128e-3 3.561761689208730e-3 3.606563136015731e-3 3.651928115650343e-3
      3.697863716482932e-3 3.744377116044580e-3 3.791475582148608e-3 3.839166474026163e-3
      3.887457243476131e-3 3.936355436029483e-3 3.985868692128291e-3 4.036004748319558e-3
      4.086771438464067e-3 4.138176694960437e-3 4.190228549984579e-3 4.242935136744740e-3
      4.296304690752340e-3 4.350345551108769e-3 4.405066161808406e-3 4.460475073058002e-3
      4.516580942612666e-3 4.573392537128673e-3 4.630918733533246e-3 4.689168520411611e-3
      4.748150999411477e-3 4.807875386665186e-3 4.868351014229763e-3 4.929587331545052e-3
      4.991593906910216e-3 5.054380428978814e-3 5.117956708272652e-3 5.182332678714725e-3
      5.247518399181384e-3 5.313524055074076e-3 5.380359959910820e-3 5.448036556937725e-3
      5.516564420760771e-3 5.585954258998099e-3 5.656216913953108e-3 5.727363364308586e-3
      5.799404726842141e-3 5.872352258163252e-3 5.946217356472094e-3 6.021011563340560e-3
      6.096746565515638e-3 6.173434196745501e-3 6.251086439628562e-3 6.329715427485747e-3
      6.409333446256383e-3 6.489952936417886e-3 6.571586494929614e-3 6.654246877201174e-3
      6.737946999085467e-3 6.822699938896827e-3 6.908518939454532e-3 6.995417410152011e-3
      7.083408929052125e-3 7.172507245008699e-3 7.262726279814892e-3 7.354080130378437e-3
      7.446583070924339e-3 7.540249555225276e-3 7.635094218859962e-3 7.731131881500071e-3
      7.828377549225774e-3 7.926846416870495e-3 8.026553870395162e-3 8.127515489292211e-3
      8.229747049020030e-3 8.333264523467809e-3 8.438084087451530e-3 8.544222119241345e-3
      8.651695203120633e-3 8.760520131977428e-3 8.870713909928259e-3 8.982293754975114e-3
      9.095277101695824e-3 9.209681603968139e-3 9.325525137728327e-3 9.442825803764212e-3
      9.561601930543505e-3 9.681872077077692e-3 9.803655035821828e-3 9.926969835611011e-3
      1.005183574463359e-2 1.017827227344187e-2 1.030629917800075e-2 1.043593646277450e-2
      1.056720438385266e-2 1.070012345211493e-2 1.083471443643615e-2 1.097099836693149e-2
      1.110899653824231e-2 1.124873051286366e-2 1.139022212451338e-2 1.153349348154362e-2
      1.167856697039545e-2 1.182546525909662e-2 1.197421130080362e-2 1.212482833738810e-2
      1.227733990306844e-2 1.243176982808709e-2 1.258814224243400e-2 1.274648157961707e-2
      1.290681258047987e-2 1.306916029706748e-2 1.323355009654094e-2 1.340000766514083e-2
      1.356855901220093e-2 1.373923047421215e-2 1.391204871893762e-2 1.408704074957974e-2
      1.426423390899926e-2 1.444365588398788e-2 1.462533470959422e-2 1.480929877350440e-2
      1.499557682047772e-2 1.518419795683795e-2 1.537519165502143e-2 1.556858775818209e-2
      1.576441648485449e-2 1.596270843367562e-2 1.616349458816587e-2 1.636680632157043e-2
      1.657267540176126e-2 1.678113399620096e-2 1.699221467696908e-2 1.720595042585138e-2
      1.742237463949352e-2 1.764152113461916e-2 1.786342415331403e-2 1.808811836837631e-2
      1.831563888873418e-2 1.854602126493188e-2 1.877930149468441e-2 1.901551602850225e-2
      1.925470177538693e-2 1.949689610859799e-2 1.974213687149278e-2 1.999046238343943e-2
      2.024191144580439e-2 2.049652334801526e-2 2.075433787369974e-2 2.101539530690203e-2
      2.127973643837718e-2 2.154740257196477e-2 2.181843553104277e-2 2.209287766506244e-2
      2.237077185616560e-2 2.265216152588497e-2 2.293709064192893e-2 2.322560372505158e-2
      2.351774585600911e-2 2.381356268260388e-2 2.411310042681687e-2 2.441640589203003e-2
      2.472352647033940e-2 2.503451014996015e-2 2.534940552272494e-2 2.566826179167643e-2
      2.599112877875535e-2 2.631805693258531e-2 2.664909733635549e-2 2.698430171580248e-2
      2.732372244729257e-2 2.766741256600558e-2 2.801542577422182e-2 2.836781644971310e-2
      2.872463965423943e-2 2.908595114215248e-2 2.945180736910729e-2 2.982226550088371e-2
      3.019738342231850e-2 3.057721974635009e-2 3.096183382317689e-2 3.135128574953089e-2
      3.174563637806795e-2 3.214494732687607e-2 3.254928098910343e-2 3.295870054270736e-2
      3.337326996032608e-2 3.379305401927456e-2 3.421811831166603e-2 3.464852925466102e-2
      3.508435410084504e-2 3.552566094873697e-2 3.597251875342967e-2 3.642499733736424e-2
      3.688316740124002e-2 3.734710053506162e-2 3.781686922932508e-2 3.829254688634466e-2
      3.877420783172201e-2 3.926192732595982e-2 3.975578157622132e-2 4.025584774823785e-2
      4.076220397836622e-2 4.127492938579755e-2 4.179410408491991e-2 4.231980919783632e-2
      4.285212686704019e-2 4.339114026825037e-2 4.393693362340742e-2 4.448959221383352e-2
      4.504920239355782e-2 4.561585160280941e-2 4.618962838168012e-2 4.677062238395898e-2
      4.735892439114092e-2 4.795462632661147e-2 4.855782127000997e-2 4.916860347177359e-2
      4.978706836786395e-2 5.041331259467938e-2 5.104743400415441e-2 5.168953167904942e-2
      5.233970594843238e-2 5.299805840335580e-2 5.366469191273014e-2 5.433971063939749e-2
      5.502322005640726e-2 5.571532696349639e-2 5.641613950377735e-2 5.712576718063529e-2
      5.784432087483848e-2 5.857191286186357e-2 5.930865682943872e-2 6.005466789530795e-2
      6.081006262521798e-2 6.157495905113224e-2 6.234947668967346e-2 6.313373656079837e-2
      6.392786120670757e-2 6.473197471099255e-2 6.554620271802436e-2 6.637067245258565e-2
      6.720551273974975e-2 6.805085402501020e-2 6.890682839466258e-2 6.977356959644366e-2
      7.065121306042963e-2 7.153989592019721e-2 7.243975703425145e-2 7.335093700772212e-2
      7.427357821433390e-2 7.520782481865242e-2 7.615382279861032e-2 7.711171996831672e-2
      7.808166600115317e-2 7.906381245316068e-2 8.005831278672058e-2 8.106532239453323e-2
      8.208499862389880e-2 8.311750080130256e-2 8.416299025731039e-2 8.522163035177687e-2
      8.629358649937050e-2 8.737902619542039e-2 8.847811904208731e-2 8.959103677486471e-2
      9.071795328941256e-2 9.185904466872890e-2 9.301448921066349e-2 9.418446745577668e-2
      9.536916221554964e-2 9.656875860094887e-2 9.778344405135005e-2 9.901340836382630e-2
      1.002588437228038e-1 1.015199447300911e-1 1.027969084352864e-1 1.040899343665666e-1
      1.053992245618643e-1 1.067249836004362e-1 1.080674186348293e-1 1.094267394232490e-1
      1.108031583623340e-1 1.121968905203437e-1 1.136081536707638e-1 1.150371683263324e-1
      1.164841577734970e-1 1.179493481073026e-1 1.194329682667196e-1 1.209352500704167e-1
      1.224564282529820e-1 1.239967405016013e-1 1.255564274931973e-1 1.271357329320356e-1
      1.287349035878042e-1 1.303541893341717e-1 1.319938431878303e-1 1.336541213480305e-1
      1.353352832366127e-1 1.370375915385425e-1 1.387613122429553e-1 1.405067146847182e-1
      1.422740715865137e-1 1.440636591014533e-1 1.458757568562274e-1 1.477106479947969e-1
      1.495686192226351e-1 1.514499608515267e-1 1.533549668449285e-1 1.552839348639030e-1
      1.572371663136277e-1 1.592149663904904e-1 1.612176441297769e-1 1.632455124539584e-1
      1.652988882215866e-1 1.673780922768026e-1 1.694834494994702e-1 1.716152888559388e-1
      1.737739434504451e-1 1.759597505771615e-1 1.781730517728985e-1 1.804141928704709e-1
      1.826835240527348e-1 1.849813999073043e-1 1.873081794819571e-1 1.896642263407353e-1
      1.920499086207542e-1 1.944655990897237e-1 1.969116752041941e-1 1.993885191685352e-1
      2.018965179946555e-1 2.044360635624741e-1 2.070075526811528e-1 2.096113871510978e-1
      2.122479738267431e-1 2.149177246801206e-1 2.176210568652330e-1 2.203583927832340e-1
      2.231301601484298e-1 2.259367920551109e-1 2.287787270452225e-1 2.316564091768889e-1
      2.345702880937978e-1 2.375208190954581e-1 2.405084632083422e-1 2.435336872579208e-1
      2.465969639416066e-1 2.496987719026137e-1 2.528395958047465e-1 2.560199264081301e-1
      2.592402606458916e-1 2.625011017018074e-1 2.658029590889268e-1 2.691463487291839e-1
      2.725317930340126e-1 2.759598209859732e-1 2.794309682214075e-1 2.829457771141330e-1
      2.865047968601901e-1 2.901085835636554e-1 2.937577003235329e-1 2.974527173217407e-1
      3.011942119122023e-1 3.049827687110593e-1 3.088189796880199e-1 3.127034442588539e-1
      3.166367693790534e-1 3.206195696386709e-1 3.246524673583497e-1 3.287360926865642e-1
      3.328710836980797e-1 3.370580864936545e-1 3.412977553009939e-1 3.455907525769745e-1
      3.499377491111554e-1 3.543394241305888e-1 3.587964654059518e-1 3.633095693590115e-1
      3.678794411714423e-1 3.725067948950130e-1 3.771923535631570e-1 3.819368493039491e-1
      3.867410234545015e-1 3.916056266767990e-1 3.965314190749929e-1 4.015191703141668e-1
      4.065696597405993e-1 4.116836765035387e-1 4.168620196785084e-1 4.221054983921656e-1
      4.274149319487268e-1 4.327911499579875e-1 4.382349924649496e-1 4.437473100810799e-1
      4.493289641172217e-1 4.549808267181737e-1 4.607037809989661e-1 4.664987211828487e-1
      4.723665527410147e-1 4.783081925340841e-1 4.843245689553626e-1 4.904166220759063e-1
      4.965853037914099e-1 5.028315779709409e-1 5.091564206075493e-1 5.155608199707643e-1
      5.220457767610164e-1 5.286123042659977e-1 5.352614285189903e-1 5.419941884591872e-1
      5.488116360940266e-1 5.557148366635717e-1 5.627048688069562e-1 5.697828247309230e-1
      5.769498103804867e-1 5.842069456117360e-1 5.915553643668154e-1 5.989962148511058e-1
      6.065306597126334e-1 6.141598762237379e-1 6.218850564650204e-1 6.297074075116104e-1
      6.376281516217738e-1 6.456485264278920e-1 6.537697851298474e-1 6.619931966908342e-1
      6.703200460356396e-1 6.787516342514149e-1 6.872892787909723e-1 6.959343136786421e-1
      7.046880897187137e-1 7.135519747065029e-1 7.225273536420726e-1 7.316156289466418e-1
      7.408182206817180e-1 7.501365667709821e-1 7.595721232249689e-1 7.691263643685710e-1
      7.788007830714049e-1 7.885968909810767e-1 7.985162187593772e-1 8.085603163214529e-1
      8.187307530779824e-1 8.290291181804005e-1 8.394570207692075e-1 8.500160902253985e-1
      8.607079764250582e-1 8.715343499971585e-1 8.824969025845954e-1 8.935973471085157e-1
      9.048374180359598e-1 9.162188716508782e-1 9.277434863285535e-1 9.394130628134757e-1
      9.512294245007141e-1 9.631944177208222e-1 9.753099120283332e-1 9.875778004938821e-1
      1.000000000000000e0 1.012578451540635e0 1.025315120524429e0 1.038211997081826e0
      1.051271096376025e0 1.064494458917859e0 1.077884150884632e0 1.091442264442952e0
      1.105170918075648e0 1.119072256912781e0 1.133148453066826e0 1.147401705972072e0
      1.161834242728284e0 1.176448318448691e0 1.191246216612359e0 1.206230249420981e0
      1.221402758160170e0 1.236766113565285e0 1.252322716191865e0 1.268074996790720e0
      1.284025416687741e0 1.300176468168491e0 1.316530674867622e0 1.333090592163203e0
      1.349858807576004e0 1.366837941173796e0 1.384030645980752e0 1.401439608391974e0
      1.419067548593258e0 1.436917220986125e0 1.454991414618201e0 1.473292953619016e0
      1.491824697641271e0 1.510589542307673e0 1.529590419663380e0 1.548830298634133e0
      1.568312185490169e0 1.588039124315944e0 1.608014197485784e0 1.628240526145511e0
      1.648721270700128e0 1.669459631307643e0 1.690458848379092e0 1.711722203084865e0
      1.733253017867396e0 1.755054656960298e0 1.777130526914039e0 1.799484077128209e0
      1.822118800390510e0 1.845038233422501e0 1.868245957432222e0 1.891745598673770e0
      1.915540829013897e0 1.939635366505755e0 1.964032975969848e0 1.988737469582292e0
      2.013752707470477e0 2.039082598316216e0 2.064731099966488e0 2.090702220051857e0
      2.117000016612675e0 2.143628598733160e0 2.170592127183443e0 2.197894815069703e0
      2.225540928492469e0 2.253534787213209e0 2.281880765329304e0 2.310583291957505e0
      2.339646851925992e0 2.369075986475142e0 2.398875293967098e0 2.429049430604289e0
      2.459603111156951e0 2.490541109699832e0 2.521868260358150e0 2.553589458062927e0
      2.585709659315847e0 2.618233882963702e0 2.651167210982608e0 2.684514789272072e0
      2.718281828459045e0 2.752473604712107e0 2.787095460565852e0 2.822152805755699e0
      2.857651118063166e0 2.893595944171761e0 2.929992900533705e0 2.966847674247468e0
      3.004166023946432e0 3.041953780698666e0 3.080216848918031e0 3.118961207286795e0
      3.158192909689769e0 3.197918086160275e0 3.238142943837963e0 3.278873767938673e0
      3.320116922736551e0 3.361878852558430e0 3.404166082790818e0 3.446985220899477e0
      3.490342957461841e0 3.534246067212473e0 3.578701410101580e0 3.623715932366941e0
      3.669296667619247e0 3.715450737941104e0 3.762185354999914e0 3.809507821174662e0
      3.857425530696973e0 3.905945970806455e0 3.955076722920577e0 4.004825463819329e0
      4.055199966844676e0 4.106208103115211e0 4.157857842756011e0 4.210157256143960e0
      4.263114515168822e0 4.316737894510045e0 4.371035772929757e0 4.426016634581938e0
      4.481689070338065e0 4.538061779129507e0 4.595143569306690e0 4.652943360015469e0
      4.711470182590745e0 4.770733181967603e0 4.830741618110284e0 4.891504867459006e0
      4.953032424395113e0 5.015333902724563e0 5.078419037180081e0 5.142297684942291e0
      5.206979827179850e0 5.272475570609090e0 5.338795149073180e0 5.405948925141167e0
      5.473947391727205e0 5.542801173730024e0 5.612521029693155e0 5.683117853485948e0
      5.754602676005731e0 5.826986666901480e0 5.900281136319018e0 5.974497536668322e0
      6.049647464412950e0 6.125742661881986e0 6.202795019104872e0 6.280816575669166e0
      6.359819522601829e0 6.439816204274064e0 6.520819120330112e0 6.602840927640434e0
      6.685894442279272e0 6.769992641527273e0 6.855148665899183e0 6.941375821197036e0
      7.028687580589301e0 7.117097586715997e0 7.206619653820465e0 7.297267769907837e0
      7.389056098930650e0 7.481998983002086e0 7.576110944636849e0 7.671406689020428e0
      7.767901106306778e0 7.865609273944892e0 7.964546459034780e0 8.064728120712875e0
      8.166169912567646e0 8.268887685085474e0 8.372897488127265e0 8.478215573436382e0
      8.584858397177896e0 8.692842622510002e0 8.802185122187613e0 8.912902981198737e0
      9.025013499434131e0 9.138534194390328e0 9.253482803906889e0 9.369877288937936e0
      9.487735836358526e0 9.607076861806512e0 9.727919012559887e0 9.850281170450581e0
      9.974182454814727e0 1.009964222548005e1 1.022668008579101e1 1.035531588567170e1
      1.048556972472757e1 1.061746195538601e1 1.075101318607635e1 1.088624428445015e1
      1.102317638064161e1 1.116183087056936e1 1.130222941927959e1 1.144439396433112e1
      1.158834671922340e1 1.173411017686721e1 1.188170711309940e1 1.203116059024154e1
      1.218249396070347e1 1.233573087063227e1 1.249089526360681e1 1.264801138437922e1
      1.280710378266304e1 1.296819731696913e1 1.313131715849003e1 1.329648879503279e1
      1.346373803500171e1 1.363309101143076e1 1.380457418606710e1 1.397821435350565e1
      1.415403864537581e1 1.433207453458095e1 1.451234983959093e1 1.469489272878894e1
      1.487973172487285e1 1.506689570931179e1 1.525641392685918e1 1.544831599012203e1
      1.564263188418817e1 1.583939197131143e1 1.603862699565568e1 1.624036808809886e1
      1.644464677109706e1 1.665149496361015e1 1.686094498608905e1 1.707302956552586e1
      1.728778184056766e1 1.750523536669429e1 1.772542412146164e1 1.794838250981066e1
      1.817414536944307e1 1.840274797626507e1 1.863422604989902e1 1.886861575926488e1
      1.910595372823167e1 1.934627704133982e1 1.958962324959602e1 1.983603037634033e1
      2.008553692318767e1 2.033818187604363e1 2.059400471119603e1 2.085304540148344e1
      2.111534442254063e1 2.138094275912334e1 2.164988191151207e1 2.192220390199647e1
      2.219795128144166e1 2.247716713593662e1 2.275989509352673e1 2.304617933103060e1
      2.333606458094272e1 2.362959613842325e1 2.392681986837515e1 2.422778221261098e1
      2.453253019710937e1 2.484111143936285e1 2.515357415581840e1 2.546996716941110e1
      2.579033991719307e1 2.611474245805800e1 2.644322548056280e1 2.677584031084816e1
      2.711263892065791e1 2.745367393546010e1 2.779899864266969e1 2.814866699997466e1
      2.850273364376732e1 2.886125389768104e1 2.922428378123494e1 2.959188001858698e1
      2.996410004739703e1 3.034100202780196e1 3.072264485150294e1 3.110908815096766e1
      3.150039230874797e1 3.189661846691450e1 3.229782853661073e1 3.270408520772618e1
      3.311545195869231e1 3.353199306640096e1 3.395377361624755e1 3.438085951230123e1
      3.481331748760205e1 3.525121511458854e1 3.569462081565591e1 3.614360387384694e1
      3.659823444367804e1 3.705858356210060e1 3.752472315960100e1 3.799672607143981e1
      3.847466604903214e1 3.895861777147202e1 3.944865685720055e1 3.994485987582193e1
      4.044730436006744e1 4.095606881790981e1 4.147123274483081e1 4.199287663624201e1
      4.252108200006279e1 4.305593136945596e1 4.359750831572351e1 4.414589746136529e1
      4.470118449330086e1 4.526345617625877e1 4.583280036633352e1 4.640930602471298e1
      4.699306323157935e1 4.758416320018370e1 4.818269829109882e1 4.878876202665047e1
      4.940244910553020e1 5.002385541759281e1 5.065307805883867e1 5.129021534658571e1
      5.193536683483149e1 5.258863332980845e1 5.325011690573570e1 5.391992092076757e1
      5.459815003314424e1 5.528491021754449e1 5.598030878164415e1 5.668445438288387e1
      5.739745704544625e1 5.811942817744799e1 5.885048058834746e1 5.959072850657099e1
      6.034028759736206e1 6.109927498085337e1 6.186780925036789e1 6.264601049094892e1
      6.343400029812335e1 6.423190179690195e1 6.503983966101702e1 6.585794013240371e1
      6.668633104092521e1 6.752514182434616e1 6.837450354855823e1 6.923454892805864e1
      7.010541234668786e1 7.098722987862693e1 7.188013930965908e1 7.278428015869975e1
      7.369979369959585e1 7.462682298320091e1 7.556551285972668e1 7.651601000137589e1
      7.747846292526098e1 7.845302201660916e1 7.943983955226134e1 8.043906972446532e1
      8.145086866496815e1 8.247539446941312e1 8.351280722204129e1 8.456326902070600e1
      8.562694400220066e1 8.670399836790491e1 8.779460040975492e1 8.889892053653833e1
      9.001713130052181e1 9.114940742441245e1 9.229592582865790e1 9.345686565909174e1
      9.463240831492415e1 9.582273747708689e1 9.702803913693344e1 9.824850162530007e1
      9.948431564193395e1
      </PP_R>
    <PP_RAB>
      1.139852456943145e-5 1.154190035836278e-5 1.168707959270728e-5 1.183408495701567e-5
      1.198293942117525e-5 1.213366624399886e-5 1.228628897685923e-5 1.244083146736889e-5
      1.259731786310638e-5 1.275577261538943e-5 1.291622048309546e-5 1.307868653653023e-5
      1.324319616134513e-5 1.340977506250371e-5 1.357844926829822e-5 1.374924513441648e-5
      1.392218934806004e-5 1.409730893211416e-5 1.427463124937009e-5 1.445418400680072e-5
      1.463599525988968e-5 1.482009341701516e-5 1.500650724388876e-5 1.519526586805018e-5
      1.538639878341851e-5 1.557993585490062e-5 1.577590732305768e-5 1.597434380883031e-5
      1.617527631832310e-5 1.637873624764950e-5 1.658475538783739e-5 1.679336592979658e-5
      1.700460046934867e-5 1.721849201232022e-5 1.743507397969999e-5 1.765438021286102e-5
      1.787644497884843e-5 1.810130297573370e-5 1.832898933803629e-5 1.855953964221359e-5
      1.879298991221965e-5 1.902937662513415e-5 1.926873671686188e-5 1.951110758790415e-5
      1.975652710920271e-5 2.000503362805706e-5 2.025666597411634e-5 2.051146346544658e-5
      2.076946591467418e-5 2.103071363520677e-5 2.129524744753217e-5 2.156310868559678e-5
      2.183433920326400e-5 2.210898138085401e-5 2.238707813176588e-5 2.266867290918269e-5
      2.295380971286134e-5 2.324253309600751e-5 2.353488817223722e-5 2.383092062262596e-5
      2.413067670284637e-5 2.443420325039583e-5 2.474154769191496e-5 2.505275805059799e-5
      2.536788295369668e-5 2.568697164011823e-5 2.601007396811912e-5 2.633724042309542e-5
      2.666852212547135e-5 2.700397083868693e-5 2.734363897728607e-5 2.768757961510646e-5
      2.803584649357254e-5 2.838849403009259e-5 2.874557732656171e-5 2.910715217797142e-5
      2.947327508112791e-5 2.984400324347967e-5 3.021939459205629e-5 3.059950778251979e-5
      3.098440220832948e-5 3.137413801002249e-5 3.176877608461073e-5 3.216837809509625e-5
      3.257300648010623e-5 3.298272446364902e-5 3.339759606499313e-5 3.381768610867034e-5
      3.424306023460461e-5 3.467378490836861e-5 3.510992743156891e-5 3.555155595236209e-5
      3.599873947610305e-5 3.645154787612710e-5 3.691005190466809e-5 3.737432320391325e-5
      3.784443431719770e-5 3.832045870033929e-5 3.880247073311636e-5 3.929054573088976e-5
      3.978475995637085e-5 4.028519063153783e-5 4.079191594970187e-5 4.130501508772477e-5
      4.182456821839090e-5 4.235065652293390e-5 4.288336220372168e-5 4.342276849710067e-5
      4.396895968640161e-5 4.452202111510912e-5 4.508203920019663e-5 4.564910144562929e-5
      4.622329645603665e-5 4.680471395055727e-5 4.739344477685759e-5 4.798958092532704e-5
      4.859321554345163e-5 4.920444295036853e-5 4.982335865160364e-5 5.045005935399448e-5
      5.108464298080083e-5 5.172720868700546e-5 5.237785687480724e-5 5.303668920930925e-5
      5.370380863440425e-5 5.437931938885962e-5 5.506332702260508e-5 5.575593841322503e-5
      5.645726178265833e-5 5.716740671410841e-5 5.788648416916558e-5 5.861460650514515e-5
      5.935188749264347e-5 6.009844233331483e-5 6.085438767787203e-5 6.161984164431317e-5
      6.239492383637772e-5 6.317975536223518e-5 6.397445885340814e-5 6.477915848393407e-5
      6.559397998976730e-5 6.641905068842596e-5 6.725449949888526e-5 6.810045696172157e-5
      6.895705525950966e-5 6.982442823747625e-5 7.070271142441385e-5 7.159204205385733e-5
      7.249255908552676e-5 7.340440322704065e-5 7.432771695590118e-5 7.526264454175699e-5
      7.620933206894548e-5 7.716792745931876e-5 7.813858049535702e-5 7.912144284357185e-5
      8.011666807820479e-5 8.112441170522358e-5 8.214483118662017e-5 8.317808596501468e-5
      8.422433748856834e-5 8.528374923621035e-5 8.635648674318166e-5 8.744271762690015e-5
      8.854261161315156e-5 8.965634056260875e-5 9.078407849768615e-5 9.192600162973047e-5
      9.308228838655424e-5 9.425311944031595e-5 9.543867773574952e-5 9.663914851875088e-5
      9.785471936532218e-5 9.908558021088119e-5 1.003319233799395e-4 1.015939436161526e-4
      1.028718381127504e-4 1.041658065433476e-4 1.054760510931441e-4 1.068027764905168e-4
      1.081461900390079e-4 1.095065016497178e-4 1.108839238741033e-4 1.122786719371889e-4
      1.136909637711978e-4 1.151210200496017e-4 1.165690642216041e-4 1.180353225470526e-4
      1.195200241317938e-4 1.210234009634712e-4 1.225456879477729e-4 1.240871229451376e-4
      1.256479468079198e-4 1.272284034180234e-4 1.288287397250094e-4 1.304492057846813e-4
      1.320900547981582e-4 1.337515431514366e-4 1.354339304554519e-4 1.371374795866436e-4
      1.388624567280289e-4 1.406091314107958e-4 1.423777765564172e-4 1.441686685192953e-4
      1.459820871299431e-4 1.478183157387077e-4 1.496776412600453e-4 1.515603542173513e-4
      1.534667487883554e-4 1.553971228510887e-4 1.573517780304250e-4 1.593310197452134e-4
      1.613351572559984e-4 1.633645037133435e-4 1.654193762067618e-4 1.675000958142603e-4
      1.696069876525117e-4 1.717403809276518e-4 1.739006089867202e-4 1.760880093697467e-4
      1.783029238624907e-4 1.805456985498485e-4 1.828166838699278e-4 1.851162346688050e-4
      1.874447102559715e-4 1.898024744604743e-4 1.921898956877679e-4 1.946073469772762e-4
      1.970552060606811e-4 1.995338554209453e-4 2.020436823520735e-4 2.045850790196303e-4
      2.071584425220157e-4 2.097641749525120e-4 2.124026834621136e-4 2.150743803231423e-4
      2.177796829936689e-4 2.205190141827396e-4 2.232928019164255e-4 2.261014796047039e-4
      2.289454861091772e-4 2.318252658116485e-4 2.347412686835551e-4 2.376939503562782e-4
      2.406837721923367e-4 2.437112013574749e-4 2.467767108936598e-4 2.498807797929929e-4
      2.530238930725549e-4 2.562065418501907e-4 2.594292234212467e-4 2.626924413362754e-4
      2.659967054797147e-4 2.693425321495597e-4 2.727304441380347e-4 2.761609708132806e-4
      2.796346482020700e-4 2.831520190735622e-4 2.867136330241117e-4 2.903200465631448e-4
      2.939718232001138e-4 2.976695335325485e-4 3.014137553352110e-4 3.052050736503755e-4
      3.090440808792425e-4 3.129313768745019e-4 3.168675690340618e-4 3.208532723959555e-4
      3.248891097344419e-4 3.289757116573164e-4 3.331137167044436e-4 3.373037714475311e-4
      3.415465305911572e-4 3.458426570750698e-4 3.501928221777728e-4 3.545977056214138e-4
      3.590579956779929e-4 3.635743892769060e-4 3.681475921138411e-4 3.727783187610465e-4
      3.774672927789813e-4 3.822152468293761e-4 3.870229227897113e-4 3.918910718691361e-4
      3.968204547258494e-4 4.018118415859508e-4 4.068660123637929e-4 4.119837567838420e-4
      4.171658745040760e-4 4.224131752409320e-4 4.277264788958254e-4 4.331066156832629e-4
      4.385544262605629e-4 4.440707618592120e-4 4.496564844178708e-4 4.553124667170529e-4
      4.610395925155002e-4 4.668387566882703e-4 4.727108653665636e-4 4.786568360793082e-4
      4.846775978965251e-4 4.907740915744977e-4 4.969472697027665e-4 5.031980968529732e-4
      5.095275497295778e-4 5.159366173224694e-4 5.224263010614989e-4 5.289976149729539e-4
      5.356515858380025e-4 5.423892533531296e-4 5.492116702925927e-4 5.561199026729190e-4
      5.631150299194728e-4 5.701981450351176e-4 5.773703547710015e-4 5.846327797994873e-4
      5.919865548892616e-4 5.994328290826434e-4 6.069727658751246e-4 6.146075433971698e-4
      6.223383545982994e-4 6.301664074334923e-4 6.380929250519303e-4 6.461191459881177e-4
      6.542463243554048e-4 6.624757300419475e-4 6.708086489091267e-4 6.792463829924687e-4
      6.877902507050909e-4 6.964415870437051e-4 7.052017437972169e-4 7.140720897579412e-4
      7.230540109354812e-4 7.321489107732946e-4 7.413582103679840e-4 7.506833486913495e-4
      7.601257828152247e-4 7.696869881391530e-4 7.793684586209181e-4 7.891717070099796e-4
      7.990982650838446e-4 8.091496838874070e-4 8.193275339753045e-4 8.296334056573206e-4
      8.400689092468719e-4 8.506356753126274e-4 8.613353549332823e-4 8.721696199555458e-4
      8.831401632553703e-4 8.942486990024651e-4 9.054969629281430e-4 9.168867125965265e-4
      9.284197276791739e-4 9.400978102331553e-4 9.519227849826290e-4 9.638964996039590e-4
      9.760208250144146e-4 9.882976556645085e-4 1.000728909834008e-3 1.013316529931665e-3
      1.026062482798735e-3 1.038968760016282e-3 1.052037378216380e-3 1.065270379397211e-3
      1.078669831242131e-3 1.092237827442755e-3 1.105976488026091e-3 1.119887959685809e-3
      1.133974416117657e-3 1.148238058359111e-3 1.162681115133294e-3 1.177305843197209e-3
      1.192114527694371e-3 1.207109482511861e-3 1.222293050641876e-3 1.237667604547829e-3
      1.253235546535047e-3 1.268999309126139e-3 1.284961355441081e-3 1.301124179582083e-3
      1.317490307023304e-3 1.334062295005453e-3 1.350842732935367e-3 1.367834242790612e-3
      1.385039479529174e-3 1.402461131504297e-3 1.420101920884547e-3 1.437964604079156e-3
      1.456051972168713e-3 1.474366851341282e-3 1.492912103333995e-3 1.511690625880209e-3
      1.530705353162274e-3 1.549959256270016e-3 1.569455343664966e-3 1.589196661650445e-3
      1.609186294847553e-3 1.629427366677146e-3 1.649923039847879e-3 1.670676516850381e-3
      1.691691040457659e-3 1.712969894231781e-3 1.734516403036941e-3 1.756333933558977e-3
      1.778425894831421e-3 1.800795738768166e-3 1.823446960702843e-3 1.846383099934961e-3
      1.869607740282939e-3 1.893124510644084e-3 1.916937085561606e-3 1.941049185798788e-3
      1.965464578920346e-3 1.990187079881130e-3 2.015220551622211e-3 2.040568905674480e-3
      2.066236102769832e-3 2.092226153460032e-3 2.118543118743377e-3 2.145191110699236e-3
      2.172174293130564e-3 2.199496882214519e-3 2.227163147161232e-3 2.255177410880886e-3
      2.283544050659185e-3 2.312267498841303e-3 2.341352243524463e-3 2.370802829259191e-3
      2.400623857759428e-3 2.430819988621546e-3 2.461395940052426e-3 2.492356489606689e-3
      2.523706474933194e-3 2.555450794530926e-3 2.587594408514410e-3 2.620142339388722e-3
      2.653099672834289e-3 2.686471558501508e-3 2.720263210815412e-3 2.754479909790425e-3
      2.789127001855372e-3 2.824209900688886e-3 2.859734088065282e-3 2.895705114711111e-3
      2.932128601172473e-3 2.969010238693226e-3 3.006355790104278e-3 3.044171090724010e-3
      3.082462049270083e-3 3.121234648782672e-3 3.160494947559331e-3 3.200249080101626e-3
      3.240503258073645e-3 3.281263771272592e-3 3.322536988611585e-3 3.364329359114798e-3
      3.406647412925158e-3 3.449497762324665e-3 3.492887102767593e-3 3.536822213926663e-3
      3.581309960752377e-3 3.626357294545692e-3 3.671971254044162e-3 3.718158966521759e-3
      3.764927648902528e-3 3.812284608888241e-3 3.860237246100249e-3 3.908793053235673e-3
      3.957959617238167e-3 4.007744620483386e-3 4.058155841979372e-3 4.109201158582053e-3
      4.160888546225996e-3 4.213226081170681e-3 4.266221941262424e-3 4.319884407212182e-3
      4.374221863889443e-3 4.429242801632361e-3 4.484955817574398e-3 4.541369616987645e-3
      4.598493014643029e-3 4.656334936187663e-3 4.714904419539464e-3 4.774210616299364e-3
      4.834262793181270e-3 4.895070333459987e-3 4.956642738437412e-3 5.018989628927085e-3
      5.082120746757491e-3 5.146045956294234e-3 5.210775245981355e-3 5.276318729902069e-3
      5.342686649359086e-3 5.409889374474845e-3 5.477937405811870e-3 5.546841376013498e-3
      5.616612051465271e-3 5.687260333977172e-3 5.758797262487077e-3 5.831234014785609e-3
      5.904581909262684e-3 5.978852406676052e-3 6.054057111942034e-3 6.130207775948831e-3
      6.207316297392623e-3 6.285394724636761e-3 6.364455257594366e-3 6.444510249634554e-3
      6.525572209512704e-3 6.607653803324971e-3 6.690767856487378e-3 6.774927355739840e-3
      6.860145451175333e-3 6.946435458294646e-3 7.033810860086952e-3 7.122285309136539e-3
      7.211872629756087e-3 7.302586820146701e-3 7.394442054585193e-3 7.487452685638822e-3
      7.581633246407917e-3 7.676998452796724e-3 7.773563205812755e-3 7.871342593895130e-3
      7.970351895272174e-3 8.070606580348651e-3 8.172122314123092e-3 8.274914958635428e-3
      8.379000575445495e-3 8.484395428142687e-3 8.591115984887153e-3 8.699178920983027e-3
      8.808601121483921e-3 8.919399683831287e-3 9.031591920525910e-3 9.145195361833023e-3
      9.260227758521477e-3 9.376707084637276e-3 9.494651540312113e-3 9.614079554607137e-3
      9.735009788392562e-3 9.857461137263462e-3 9.981452734492217e-3 1.010700395401816e-2
      1.023413441347478e-2 1.036286397725501e-2 1.049321275961510e-2 1.062520112781748e-2
      1.075884970531323e-2 1.089417937496448e-2 1.103121128230744e-2 1.116996683885645e-2
      1.131046772544950e-2 1.145273589563598e-2 1.159679357910692e-2 1.174266328516845e-2
      1.189036780625893e-2 1.203993022151028e-2 1.219137390035417e-2 1.234472250617353e-2
      1.250000000000000e-2 1.265723064425793e-2 1.281643900655537e-2 1.297764996352282e-2
      1.314088870470031e-2 1.330618073647324e-2 1.347355188605790e-2 1.364302830553690e-2
      1.381463647594560e-2 1.398840321140977e-2 1.416435566333533e-2 1.434252132465091e-2
      1.452292803410354e-2 1.470560398060864e-2 1.489057770765449e-2 1.507787811776226e-2
      1.526753447700213e-2 1.545957641956607e-2 1.565403395239831e-2 1.585093745988400e-2
      1.605031770859677e-2 1.625220585210614e-2 1.645663343584527e-2 1.666363240204005e-2
      1.687323509470005e-2 1.708547426467245e-2 1.730038307475940e-2 1.751799510489968e-2
      1.773834435741573e-2 1.796146526232657e-2 1.818739268272751e-2 1.841616192023770e-2
      1.864780872051588e-2 1.888236927884592e-2 1.911988024579225e-2 1.936037873292666e-2
      1.960390231862712e-2 1.985048905394930e-2 2.010017746857230e-2 2.035300657681889e-2
      2.060901588375160e-2 2.086824539134554e-2 2.113073560473865e-2 2.139652753856082e-2
      2.166566272334246e-2 2.193818321200373e-2 2.221413158642549e-2 2.249355096410262e-2
      2.277648500488137e-2 2.306297791778126e-2 2.335307446790278e-2 2.364681998342213e-2
      2.394426036267371e-2 2.424544208132194e-2 2.455041219962311e-2 2.485921836977865e-2
      2.517190884338096e-2 2.548853247895270e-2 2.580913874958109e-2 2.613377775064821e-2
      2.646250020765843e-2 2.679535748416449e-2 2.713240158979304e-2 2.747368518837129e-2
      2.781926160615587e-2 2.816918484016511e-2 2.852350956661630e-2 2.888229114946881e-2
      2.924558564907490e-2 2.961344983093927e-2 2.998594117458873e-2 3.036311788255361e-2
      3.074503888946189e-2 3.113176387124790e-2 3.152335325447687e-2 3.191986822578659e-2
      3.232137074144808e-2 3.272792353704628e-2 3.313959013728260e-2 3.355643486590090e-2
      3.397852285573807e-2 3.440592005890134e-2 3.483869325707314e-2 3.527691007194624e-2
      3.572063897578958e-2 3.616994930214701e-2 3.662491125667131e-2 3.708559592809336e-2
      3.755207529933041e-2 3.802442225873332e-2 3.850271061147539e-2 3.898701509108494e-2
      3.947741137112212e-2 3.997397607700343e-2 4.047678679797454e-2 4.098592209923342e-2
      4.150146153420689e-2 4.202348565698038e-2 4.255207603488523e-2 4.308731526124347e-2
      4.362928696827302e-2 4.417807584015592e-2 4.473376762626976e-2 4.529644915458676e-2
      4.586620834524059e-2 4.644313422426380e-2 4.702731693749893e-2 4.761884776468328e-2
      4.821781913371217e-2 4.882432463508069e-2 4.943845903650722e-2 5.006031829774162e-2
      5.068999958555845e-2 5.132760128894014e-2 5.197322303445013e-2 5.262696570179950e-2
      5.328893143961028e-2 5.395922368137556e-2 5.463794716162196e-2 5.532520793227422e-2
      5.602111337922580e-2 5.672577223911884e-2 5.743929461633362e-2 5.816179200019336e-2
      5.889337728238431e-2 5.963416477459504e-2 6.038427022637855e-2 6.114381084323758e-2
      6.191290530493891e-2 6.269167378405704e-2 6.348023796475102e-2 6.427872106177865e-2
      6.508724783974813e-2 6.590594463261362e-2 6.673493936341474e-2 6.757436156426460e-2
      6.842434239659006e-2 6.928501467162530e-2 7.015651287116444e-2 7.103897316857434e-2
      7.193253345007165e-2 7.283733333626850e-2 7.375351420398772e-2 7.468121920835403e-2
      7.562059330516188e-2 7.657178327352483e-2 7.753493773881091e-2 7.851020719586459e-2
      7.949774403252286e-2 8.049770255342581e-2 8.151023900412641e-2 8.253551159550543e-2
      8.357368052849090e-2 8.462490801909093e-2 8.568935832373979e-2 8.676719776496295e-2
      8.785859475736626e-2 8.896371983394996e-2 9.008274567275581e-2 9.121584712384795e-2
      9.236320123663313e-2 9.352498728752607e-2 9.470138680796062e-2 9.589258361275535e-2
      9.709876382883474e-2 9.832011592431115e-2 9.955683073793475e-2 1.008091015089109e-1
      1.020771239070956e-1 1.033610960635684e-1 1.046612186015908e-1 1.059776946679548e-1
      1.073107299647237e-1 1.086605327813750e-1 1.100273140273452e-1 1.114112872649842e-1
      1.128126687429266e-1 1.142316774298791e-1 1.156685350488361e-1 1.171234661117242e-1
      1.185966979544816e-1 1.200884607725814e-1 1.215989876569986e-1 1.231285146306323e-1
      1.246772806851841e-1 1.262455278185007e-1 1.278335010723876e-1 1.294414485708962e-1
      1.310696215590946e-1 1.327182744423252e-1 1.343876648259544e-1 1.360780535556269e-1
      1.377897047580201e-1 1.395228858821171e-1 1.412778677409949e-1 1.430549245541390e-1
      1.448543339902925e-1 1.466763772108402e-1 1.485213389137424e-1 1.503895073780193e-1
      1.522811745087934e-1 1.541966358829033e-1 1.561361907950852e-1 1.581001423047403e-1
      1.600887972832880e-1 1.621024664621142e-1 1.641414644811254e-1 1.662061099379098e-1
      1.682967254375214e-1 1.704136376428846e-1 1.725571773258387e-1 1.747276794188206e-1
      1.769254830671976e-1 1.791509316822619e-1 1.814043729948866e-1 1.836861591098618e-1
      1.859966465609106e-1 1.883361963663974e-1 1.907051740857398e-1 1.931039498765253e-1
      1.955328985523521e-1 1.979923996413929e-1 2.004828374456959e-1 2.030046011012358e-1
      2.055580846387133e-1 2.081436870451268e-1 2.107618123261132e-1 2.134128695690733e-1
      2.160972730070958e-1 2.188154420836787e-1 2.215678015182705e-1 2.243547813726332e-1
      2.271768171180383e-1 2.300343497033134e-1 2.329278256237377e-1 2.358576969908110e-1
      2.388244216028959e-1 2.418284630167477e-1 2.448702906199502e-1 2.479503797042542e-1
      2.510692115398458e-1 2.542272734505453e-1 2.574250588899504e-1 2.606630675185429e-1
      2.639418052817579e-1 2.672617844890418e-1 2.706235238939009e-1 2.740275487749559e-1
      2.774743910180208e-1 2.809645891992078e-1 2.844986886690841e-1 2.880772416378825e-1
      2.917008072617841e-1 2.953699517302906e-1 2.990852483546894e-1 3.028472776576372e-1
      3.066566274638672e-1 3.105138929920356e-1 3.144196769477300e-1 3.183745896176387e-1
      3.223792489649133e-1 3.264342807257250e-1 3.305403185070350e-1 3.346980038856020e-1
      3.389079865082238e-1 3.431709241932512e-1 3.474874830333712e-1 3.518583374996832e-1
      3.562841705470915e-1 3.607656737210130e-1 3.653035472654368e-1 3.698985002323373e-1
      3.745512505924629e-1 3.792625253475245e-1 3.840330606437867e-1 3.888636018870958e-1
      3.937549038593496e-1 3.987077308364313e-1 4.037228567076340e-1 4.088010650965773e-1
      4.139431494836539e-1 4.191499133300121e-1 4.244221702030944e-1 4.297607439037654e-1
      4.351664685950256e-1 4.406401889323568e-1 4.461827601956989e-1 4.517950484230867e-1
      4.574779305459755e-1 4.632322945262574e-1 4.690590394950125e-1 4.749590758929976e-1
      4.809333256129017e-1 4.869827221434003e-1 4.931082107150069e-1 4.993107484477742e-1
      5.055913045008430e-1 5.119508602238726e-1 5.183904093103852e-1 5.249109579530251e-1
      5.315135250007849e-1 5.381991421181995e-1 5.449688539465440e-1 5.518237182670661e-1
      5.587648061662608e-1 5.657932022032346e-1 5.729100045791689e-1 5.801163253089122e-1
      5.874132903947419e-1 5.948020400022963e-1 6.022837286387352e-1 6.098595253331308e-1
      6.175306138191274e-1 6.252981927199102e-1 6.331634757354834e-1 6.411276918323213e-1
      6.491920854353936e-1 6.573579166226057e-1 6.656264613216962e-1 6.739990115095946e-1
      6.824768754143030e-1 6.910613777193061e-1 6.997538597705519e-1 7.085556797860484e-1
      7.174682130680781e-1 7.264928522180999e-1 7.356310073543433e-1 7.448841063321375e-1
      7.542535949670257e-1 7.637409372606672e-1 7.733476156295986e-1 7.830751311368616e-1
      7.929250037265419e-1 8.028987724612744e-1 8.129979957627127e-1 8.232242516550464e-1
      8.335791380115651e-1 8.440642728043269e-1 8.546812943569778e-1 8.654318616007330e-1
      8.763176543335982e-1 8.873403734828367e-1 8.985017413707384e-1 9.098035019837468e-1
      9.212474212449481e-1 9.328352872900114e-1 9.445689107465835e-1 9.564501250171986e-1
      9.684807865657621e-1 9.806627752076144e-1 9.929979944032667e-1 1.005488371555816e0
      1.018135858312102e0 1.030942430867664e0 1.043910090275516e0 1.057040862758825e0
      1.070336800027508e0 1.083799979598811e0 1.097432505121936e0 1.111236506706729e0
      1.125214141256523e0 1.139367592805156e0 1.153699072858224e0 1.168210820738647e0
      1.182905103936552e0 1.197784218463586e0 1.212850489211668e0 1.228106270316251e0
      1.243553945524174e0
      </PP_RAB>
  </PP_MESH>
  <PP_LOCAL columns="4">
    -7.398216086154145e0 -7.398215882028349e0 -7.398215672767091e0 -7.398215458219075e0
    -7.398215238252847e0 -7.398215012717637e0 -7.398214781460989e0 -7.398214544347143e0
    -7.398214301229567e0 -7.398214051963573e0 -7.398213796392090e0 -7.398213534341405e0
    -7.398213265655325e0 -7.398212990174981e0 -7.398212707719926e0 -7.398212418117271e0
    -7.398212121187178e0 -7.398211816730775e0 -7.398211504564804e0 -7.398211184501461e0
    -7.398210856332263e0 -7.398210519860124e0 -7.398210174876939e0 -7.398209821152854e0
    -7.398209458466592e0 -7.398209086603413e0 -7.398208705331942e0 -7.398208314407293e0
    -7.398207913585589e0 -7.398207502619042e0 -7.398207081248473e0 -7.398206649211160e0
    -7.398206206241875e0 -7.398205752057355e0 -7.398205286370215e0 -7.398204808898674e0
    -7.398204319341388e0 -7.398203817387633e0 -7.398203302731955e0 -7.398202775049914e0
    -7.398202234002326e0 -7.398201679257069e0 -7.398201110476100e0 -7.398200527299411e0
    -7.398199929352328e0 -7.398199316266350e0 -7.398198687672066e0 -7.398198043162278e0
    -7.398197382328692e0 -7.398196704771574e0 -7.398196010065999e0 -7.398195297773936e0
    -7.398194567451068e0 -7.398193818645566e0 -7.398193050887194e0 -7.398192263689701e0
    -7.398191456559429e0 -7.398190628998579e0 -7.398189780493395e0 -7.398188910507285e0
    -7.398188018500594e0 -7.398187103918849e0 -7.398186166179545e0 -7.398185204699540e0
    -7.398184218886424e0 -7.398183208121358e0 -7.398182171768846e0 -7.398181109182827e0
    -7.398180019700859e0 -7.398178902640450e0 -7.398177757303258e0 -7.398176582973153e0
    -7.398175378919669e0 -7.398174144390155e0 -7.398172878608442e0 -7.398171580790004e0
    -7.398170250127016e0 -7.398168885771445e0 -7.398167486877293e0 -7.398166052580715e0
    -7.398164581976106e0 -7.398163074150844e0 -7.398161528162877e0 -7.398159943040088e0
    -7.398158317794110e0 -7.398156651409602e0 -7.398154942842849e0 -7.398153191027826e0
    -7.398151394874033e0 -7.398149553260531e0 -7.398147665033964e0 -7.398145729012571e0
    -7.398143743990620e0 -7.398141708725299e0 -7.398139621939158e0 -7.398137482331139e0
    -7.398135288575832e0 -7.398133039306039e0 -7.398130733097918e0 -7.398128368513081e0
    -7.398125944084875e0 -7.398123458288127e0 -7.398120909574377e0 -7.398118296362326e0
    -7.398115617016519e0 -7.398112869851355e0 -7.398110053152338e0 -7.398107165166573e0
    -7.398104204088228e0 -7.398101168071678e0 -7.398098055221708e0 -7.398094863585587e0
    -7.398091591166925e0 -7.398088235929915e0 -7.398084795779162e0 -7.398081268559809e0
    -7.398077652072686e0 -7.398073944069405e0 -7.398070142234650e0 -7.398066244186285e0
    -7.398062247479644e0 -7.398058149623082e0 -7.398053948070474e0 -7.398049640193382e0
    -7.398045223296919e0 -7.398040694624899e0 -7.398036051354216e0 -7.398031290582533e0
    -7.398026409339334e0 -7.398021404583711e0 -7.398016273178055e0 -7.398011011918802e0
    -7.398005617529606e0 -7.398000086639725e0 -7.397994415799467e0 -7.397988601473505e0
    -7.397982640028186e0 -7.397976527732493e0 -7.397970260778062e0 -7.397963835264513e0
    -7.397957247178967e0 -7.397950492399335e0 -7.397943566714867e0 -7.397936465810328e0
    -7.397929185243965e0 -7.397921720474676e0 -7.397914066847751e0 -7.397906219594804e0
    -7.397898173821869e0 -7.397889924498002e0 -7.397881466476948e0 -7.397872794493472e0
    -7.397863903138534e0 -7.397854786855762e0 -7.397845439959267e0 -7.397835856629650e0
    -7.397826030892955e0 -7.397815956616016e0 -7.397805627512245e0 -7.397795037141731e0
    -7.397784178913802e0 -7.397773046052208e0 -7.397761631606521e0 -7.397749928479225e0
    -7.397737929379803e0 -7.397725626813093e0 -7.397713013110569e0 -7.397700080423544e0
    -7.397686820689761e0 -7.397673225639563e0 -7.397659286812320e0 -7.397644995530728e0
    -7.397630342880947e0 -7.397615319735947e0 -7.397599916754023e0 -7.397584124334674e0
    -7.397567932632120e0 -7.397551331575784e0 -7.397534310833352e0 -7.397516859808196e0
    -7.397498967635919e0 -7.397480623174562e0 -7.397461815018007e0 -7.397442531461999e0
    -7.397422760502955e0 -7.397402489848163e0 -7.397381706885433e0 -7.397360398690312e0
    -7.397338552009408e0 -7.397316153255741e0 -7.397293188514141e0 -7.397269643504420e0
    -7.397245503584446e0 -7.397220753755971e0 -7.397195378642426e0 -7.397169362477872e0
    -7.397142689104498e0 -7.397115341954399e0 -7.397087304039156e0 -7.397058557958081e0
    -7.397029085868754e0 -7.396998869468852e0 -7.396967890010725e0 -7.396936128278822e0
    -7.396903564562592e0 -7.396870178658848e0 -7.396835949873260e0 -7.396800856986823e0
    -7.396764878238348e0 -7.396727991332652e0 -7.396690173422913e0 -7.396651401078358e0
    -7.396611650272967e0 -7.396570896405285e0 -7.396529114255534e0 -7.396486277952151e0
    -7.396442360990433e0 -7.396397336197075e0 -7.396351175724559e0 -7.396303851050142e0
    -7.396255332925074e0 -7.396205591356384e0 -7.396154595610617e0 -7.396102314195532e0
    -7.396048714836794e0 -7.395993764456741e0 -7.395937429144035e0 -7.395879674146719e0
    -7.395820463853013e0 -7.395759761762639e0 -7.395697530475029e0 -7.395633731652362e0
    -7.395568326004294e0 -7.395501273277398e0 -7.395432532211736e0 -7.395362060519996e0
    -7.395289814875683e0 -7.395215750877247e0 -7.395139823025119e0 -7.395061984691704e0
    -7.394982188085097e0 -7.394900384249007e0 -7.394816523028730e0 -7.394730553014366e0
    -7.394642421527034e0 -7.394552074595206e0 -7.394459456903821e0 -7.394364511794048e0
    -7.394267181220923e0 -7.394167405686744e0 -7.394065124243026e0 -7.393960274451286e0
    -7.393852792337119e0 -7.393742612358754e0 -7.393629667361814e0 -7.393513888550357e0
    -7.393395205454737e0 -7.393273545878405e0 -7.393148835856808e0 -7.393020999623134e0
    -7.392889959568905e0 -7.392755636194127e0 -7.392617948046772e0 -7.392476811712054e0
    -7.392332141759423e0 -7.392183850660659e0 -7.392031848772882e0 -7.391876044281418e0
    -7.391716343144284e0 -7.391552649064185e0 -7.391384863406354e0 -7.391212885146043e0
    -7.391036610834171e0 -7.390855934535240e0 -7.390670747762766e0 -7.390480939413504e0
    -7.390286395718239e0 -7.390087000191206e0 -7.389882633558213e0 -7.389673173676201e0
    -7.389458495488255e0 -7.389238470969350e0 -7.389012969032904e0 -7.388781855462542e0
    -7.388544992856826e0 -7.388302240550365e0 -7.388053454541926e0 -7.387798487422014e0
    -7.387537188297420e0 -7.387269402693224e0 -7.386994972489970e0 -7.386713735861233e0
    -7.386425527148417e0 -7.386130176807128e0 -7.385827511323162e0 -7.385517353090048e0
    -7.385199520354857e0 -7.384873827117260e0 -7.384540083022102e0 -7.384198093282610e0
    -7.383847658567846e0 -7.383488574900051e0 -7.383120633574687e0 -7.382743621042285e0
    -7.382357318783552e0 -7.381961503225064e0 -7.381555945634647e0 -7.381140411987694e0
    -7.380714662845654e0 -7.380278453250122e0 -7.379831532612277e0 -7.379373644570935e0
    -7.378904526857011e0 -7.378423911182938e0 -7.377931523103221e0 -7.377427081872671e0
    -7.376910300313416e0 -7.376380884658190e0 -7.375838534395045e0 -7.375282942148375e0
    -7.374713793510458e0 -7.374130766852515e0 -7.373533533185341e0 -7.372921755991905e0
    -7.372295091041484e0 -7.371653186210654e0 -7.370995681305983e0 -7.370322207859476e0
    -7.369632388931083e0 -7.368925838916807e0 -7.368202163332930e0 -7.367460958590550e0
    -7.366701811760667e0 -7.365924300355879e0 -7.365127992082914e0 -7.364312444576638e0
    -7.363477205146151e0 -7.362621810500916e0 -7.361745786464940e0 -7.360848647668765e0
    -7.359929897241604e0 -7.358989026501904e0 -7.358025514609544e0 -7.357038828207747e0
    -7.356028421047732e0 -7.354993733599619e0 -7.353934192659449e0 -7.352849210913596e0
    -7.351738186488047e0 -7.350600502479243e0 -7.349435526447606e0 -7.348242609912042e0
    -7.347021087798774e0 -7.345770277849169e0 -7.344489480016235e0 -7.343177975817989e0
    -7.341835027664509e0 -7.340459878142017e0 -7.339051749253320e0 -7.337609841611681e0
    -7.336133333591823e0 -7.334621380454116e0 -7.333073113393332e0 -7.331487638528968e0
    -7.329864035852918e0 -7.328201358105000e0 -7.326498629592921e0 -7.324754844948941e0
    -7.322968967781015e0 -7.321139929271739e0 -7.319266626712302e0 -7.317347921904677e0
    -7.315382639493988e0 -7.313369565224671e0 -7.311307444063564e0 -7.309194978221228e0
    -7.307030825064402e0 -7.304813594909889e0 -7.302541848699465e0 -7.300214095519419e0
    -7.297828789987383e0 -7.295384329508955e0 -7.292879051370462e0 -7.290311229659243e0
    -7.287679072035186e0 -7.284980716306318e0 -7.282214226817969e0 -7.279377590676843e0
    -7.276468713754849e0 -7.273485416474570e0 -7.270425429380842e0 -7.267286388504596e0
    -7.264065830471110e0 -7.260761187358177e0 -7.257369781322372e0 -7.253888818962133e0
    -7.250315385390538e0 -7.246646438035123e0 -7.242878800179421e0 -7.239009154177612e0
    -7.235034034375372e0 -7.230949819727704e0 -7.226752726098750e0 -7.222438798258293e0
    -7.218003901518914e0 -7.213443713052126e0 -7.208753712895290e0 -7.203929174591110e0
    -7.198965155488247e0 -7.193856486745004e0 -7.188597762946767e0 -7.183183331387897e0
    -7.177607281077771e0 -7.171863431372786e0 -7.165945320283988e0 -7.159846192518331e0
    -7.153558987212708e0 -7.147076325374817e0 -7.140390497072798e0 -7.133493448403895e0
    -7.126376768242284e0 -7.119031674774913e0 -7.111449001922312e0 -7.103619185641321e0
    -7.095532250133434e0 -7.087177794037621e0 -7.078544976637303e0 -7.069622504169807e0
    -7.060398616263816e0 -7.050861072566954e0 -7.040997139690189e0 -7.030793578515244e0
    -7.020236631939539e0 -7.009312013181973e0 -6.998004894761795e0 -6.986299898249728e0
    -6.974181084895186e0 -6.961631947291986e0 -6.948635402225641e0 -6.935173784826858e0
    -6.921228844222560e0 -6.906781740853267e0 -6.891813045622919e0 -6.876302741106995e0
    -6.860230225002889e0 -6.843574316065558e0 -6.826313262771281e0 -6.808424754920056e0
    -6.789885938478741e0 -6.770673433921399e0 -6.750763358346759e0 -6.730131351692227e0
    -6.708752607357963e0 -6.686601907559115e0 -6.663653663724798e0 -6.639881962333098e0
    -6.615260616528576e0 -6.589763223863344e0 -6.563363230561895e0 -6.536034002697099e0
    -6.507748904641159e0 -6.478481385173876e0 -6.448205071659931e0 -6.416893872643564e0
    -6.384522089229932e0 -6.351064535627674e0 -6.316496669167075e0 -6.280794730101976e0
    -6.243935891481708e0 -6.205898419334234e0 -6.166661843341057e0 -6.126207138144466e0
    -6.084516915366085e0 -6.041575626310050e0 -5.997369775265694e0 -5.951888143221622e0
    -5.905122021653149e0 -5.857065455951640e0 -5.807715497892787e0 -5.757072466376658e0
    -5.705140215500288e0 -5.651926408783867e0 -5.597442798170223e0 -5.541705506162510e0
    -5.484735309167852e0 -5.426557919827552e0 -5.367204265776477e0 -5.306710761913460e0
    -5.245119572893154e0 -5.182478862127490e0 -5.118843023127555e0 -5.054272888560293e0
    -4.988835911908357e0 -4.922606316069574e0 -4.855665202702012e0 -4.788100615571015e0
    -4.720007550551146e0 -4.651487904356805e0 -4.582650353501085e0 -4.513610154409222e0
    -4.444488855066965e0 -4.375413908088390e0 -4.306518174650478e0 -4.237939308425906e0
    -4.169819008458617e0 -4.102302129887439e0 -4.035535641656279e0 -3.969667420887933e0
    -3.904844874495044e0 -3.841213380008029e0 -3.778914539636374e0 -3.718084244339705e0
    -3.658850548398112e0 -3.601331359852208e0 -3.545631958427200e0 -3.491842360504356e0
    -3.440034560673275e0 -3.390259691784467e0 -3.342545160714967e0 -3.296891835721270e0
    -3.253271383977081e0 -3.211623885338249e0 -3.171855881324094e0 -3.133839057773138e0
    -3.097409806589452e0 -3.062369967732104e0 -3.028489118539522e0 -2.995508855234899e0
    -2.963149602973091e0 -2.931120598234302e0 -2.899133813354816e0 -2.866922740522738e0
    -2.834267125124955e0 -2.801024939965236e0 -2.767173127344015e0 -2.732858910664387e0
    -2.698463797155944e0 -2.664521698447732e0 -2.631173387702437e0 -2.598430123671955e0
    -2.566299932819340e0 -2.534786977495706e0 -2.503849286172423e0 -2.473257049157365e0
    -2.442769768621049e0 -2.412461377607332e0 -2.382493305105578e0 -2.352897501572269e0
    -2.323669342590049e0 -2.294804261187013e0 -2.266297747122012e0 -2.238145346180084e0
    -2.210342659476868e0 -2.182885342770799e0 -2.155769105785072e0 -2.128989711536429e0
    -2.102542975672334e0 -2.076424765818870e0 -2.050631000934908e0 -2.025157650682785e0
    -2.000000734832454e0 -1.975156322596413e0 -1.950620531940090e0 -1.926389529033973e0
    -1.902459527705035e0 -1.878826788820991e0 -1.855487619697016e0 -1.832438373518026e0
    -1.809675448769180e0 -1.787195277386550e0 -1.764994236559520e0 -1.743068870848356e0
    -1.721415980390126e0 -1.700032190777574e0 -1.678914046651017e0 -1.658058237103098e0
    -1.637461503356765e0 -1.617120627116257e0 -1.597032430064360e0 -1.577193773366024e0
    -1.557601557176969e0 -1.538252720159376e0 -1.519144239004570e0 -1.500273127960008e0
    -1.481636438362232e0 -1.463231258176234e0 -1.445054711540488e0 -1.427103958317611e0
    -1.409376193650405e0 -1.391868647523304e0 -1.374578584329507e0 -1.357503302443588e0
    -1.340640133798963e0 -1.323986443470850e0 -1.307539629264872e0 -1.291297121309936e0
    -1.275256381656337e0 -1.259414903879495e0 -1.243770212687994e0 -1.228319863536580e0
    -1.213061442244275e0 -1.197992564616930e0 -1.183110876074522e0 -1.168414051283187e0
    -1.153899793791893e0 -1.139565835673532e0 -1.125409937170406e0 -1.111429886344404e0
    -1.097623498731411e0 -1.083988616999959e0 -1.070523110614311e0 -1.057224875501399e0
    -1.044091833723182e0 -1.031121933151712e0 -1.018313147147515e0 -1.005663474244801e0
    -9.931709378391707e-1 -9.808335858786457e-1 -9.686494905422849e-1 -9.566167479902285e-1
    -9.447334780337496e-1 -9.329978238074675e-1 -9.214079515298577e-1 -9.099620502015419e-1
    -8.986583313228635e-1 -8.874950286151641e-1 -8.764703977455655e-1 -8.655827160551958e-1
    -8.548302822907154e-1 -8.442114163391768e-1 -8.337244589662117e-1 -8.233677715573560e-1
    -8.131397358624895e-1 -8.030387537434340e-1 -7.930632469245449e-1 -7.832116567462868e-1
    -7.734824439218171e-1 -7.638740882963884e-1 -7.543850886095893e-1 -7.450139622604368e-1
    -7.357592450752728e-1 -7.266194910782833e-1 -7.175932722647406e-1 -7.086791783770998e-1
    -6.998758166835843e-1 -6.911818117593485e-1 -6.825958052704162e-1 -6.741164557601333e-1
    -6.657424384382042e-1 -6.574724449722869e-1 -6.493051832821790e-1 -6.412393773365040e-1
    -6.332737669519009e-1 -6.254071075948858e-1 -6.176381701860535e-1 -6.099657409067882e-1
    -6.023886210085736e-1 -5.949056266247032e-1 -5.875155885844618e-1 -5.802173522296808e-1
    -5.730097772338029e-1 -5.658917374233308e-1 -5.588621206016113e-1 -5.519198283750539e-1
    -5.450637759816002e-1 -5.382928921215147e-1 -5.316061187904831e-1 -5.250024111148896e-1
    -5.184807371893545e-1 -5.120400779163576e-1 -5.056794268480164e-1 -4.993977900299825e-1
    -4.931941858472680e-1 -4.870676448721393e-1 -4.810172097139251e-1 -4.750419348707007e-1
    -4.691408865828599e-1 -4.633131426884528e-1 -4.575577924803152e-1 -4.518739365649102e-1
    -4.462606867228406e-1 -4.407171657710588e-1 -4.352425074266679e-1 -4.298358561723012e-1
    -4.244963671230923e-1 -4.192232058951779e-1 -4.140155484757217e-1 -4.088725810944489e-1
    -4.037935000966668e-1 -3.987775118177554e-1 -3.938238324591314e-1 -3.889316879656596e-1
    -3.841003139045079e-1 -3.793289553454391e-1 -3.746168667425298e-1 -3.699633118173029e-1
    -3.653675634432714e-1 -3.608289035318889e-1 -3.563466229198862e-1 -3.519200212579938e-1
    -3.475484069010379e-1 -3.432310967993963e-1 -3.389674163918126e-1 -3.347566994995433e-1
    -3.305982882218375e-1 -3.264915328327291e-1 -3.224357916791292e-1 -3.184304310802087e-1
    -3.144748252280494e-1 -3.105683560895552e-1 -3.067104133096068e-1 -3.029003941154381e-1
    -2.991377032222318e-1 -2.954217527399032e-1 -2.917519620810683e-1 -2.881277578701776e-1
    -2.845485738537914e-1 -2.810138508119974e-1 -2.775230364709381e-1 -2.740755854164447e-1
    -2.706709590087579e-1 -2.673086252983184e-1 -2.639880589426196e-1 -2.607087411240975e-1
    -2.574701594690550e-1 -2.542718079676006e-1 -2.511131868945840e-1 -2.479938027315267e-1
    -2.449131680895205e-1 -2.418708016330937e-1 -2.388662280050240e-1 -2.358989777520869e-1
    -2.329685872517322e-1 -2.300745986396689e-1 -2.272165597383537e-1 -2.243940239863687e-1
    -2.216065503686735e-1 -2.188537033477284e-1 -2.161350527954679e-1 -2.134501739261218e-1
    -2.107986472298698e-1 -2.081800584073161e-1 -2.055939983047801e-1 -2.030400628503848e-1
    -2.005178529909398e-1 -1.980269746296052e-1 -1.955670385643237e-1 -1.931376604270177e-1
    -1.907384606235323e-1 -1.883690642743229e-1 -1.860291011558700e-1 -1.837182056428281e-1
    -1.814360166520982e-1 -1.791821775812990e-1 -1.769563342935593e-1 -1.747581430955040e-1
    -1.725872583586669e-1 -1.704433408713637e-1 -1.683260556341878e-1 -1.662350718075695e-1
    -1.641700626599029e-1 -1.621307055144273e-1 -1.601166817785789e-1 -1.581276760243593e-1
    -1.561633818929186e-1 -1.542237157554830e-1 -1.523076689520863e-1 -1.504156711623775e-1
    -1.485471557956718e-1 -1.467018733908140e-1 -1.448795134516569e-1 -1.430797912312372e-1
    -1.413024255192960e-1 -1.395471385988243e-1 -1.378136562026695e-1 -1.361017074706800e-1
    -1.344110249073831e-1 -1.327413443401888e-1 -1.310924048781108e-1 -1.294639488710041e-1
    -1.278557218693037e-1 -1.262674725842687e-1 -1.246989528487173e-1 -1.231499175782491e-1
    -1.216201247329521e-1 -1.201093352795815e-1 -1.186173131542112e-1 -1.171438252253492e-1
    -1.156886412575082e-1 -1.142515338752331e-1 -1.128322785275715e-1 -1.114306534529874e-1
    -1.100464396447119e-1 -1.086794208165207e-1 -1.073293833689412e-1 -1.059961163558754e-1
    -1.046794114516396e-1 -1.033790629184141e-1 -1.020948675740947e-1 -1.008266247605466e-1
    -9.957413631224959e-2 -9.833720652533541e-2 -9.711564212700875e-2 -9.590925224534665e-2
    -9.471784837947562e-2 -9.354124437011782e-2 -9.237925637050308e-2 -9.123170281764297e-2
    -9.009840440395994e-2 -8.897918404927154e-2 -8.787386687312026e-2 -8.678228016744839e-2
    -8.570425336961270e-2 -8.463961803573243e-2 -8.358820781437100e-2 -8.254985842054213e-2
    -8.152440761004025e-2 -8.051169515409027e-2 -7.951156281431029e-2 -7.852385431798771e-2
    -7.754841533366035e-2 -7.658509344700217e-2 -7.563373813700885e-2 -7.469420075247734e-2
    -7.376633448878001e-2 -7.284999436492539e-2 -7.194503720090459e-2 -7.105132159531989e-2
    -7.016870790328934e-2 -6.929705821462818e-2 -6.843623633229900e-2 -6.758610775113122e-2
    -6.674653963680468e-2 -6.591740080509317e-2 -6.509856170136757e-2 -6.428989438035186e-2
    -6.349127248613177e-2 -6.270257123241175e-2 -6.192366738301605e-2 -6.115443923263374e-2
    -6.039476658780120e-2 -5.964453074812202e-2 -5.890361448772007e-2 -5.817190203692205e-2
    -5.744927906416906e-2 -5.673563265815131e-2 -5.603085131016584e-2 -5.533482489669332e-2
    -5.464744466219042e-2 -5.396860320209715e-2 -5.329819444605418e-2 -5.263611364132935e-2
    -5.198225733645005e-2 -5.133652336503822e-2 -5.069881082984724e-2 -5.006902008699595e-2
    -4.944705273039937e-2 -4.883281157639282e-2 -4.822620064854613e-2 -4.762712516266782e-2
    -4.703549151199431e-2 -4.645120725256391e-2 -4.587418108877253e-2 -4.530432285910794e-2
    -4.474154352206253e-2 -4.418575514221981e-2 -4.363687087651460e-2 -4.309480496066385e-2
    -4.255947269576517e-2 -4.203079043506320e-2 -4.150867557087901e-2 -4.099304652170276e-2
    -4.048382271944661e-2 -3.998092459685524e-2 -3.948427357507405e-2 -3.899379205137035e-2
    -3.850940338700808e-2 -3.803103189527310e-2 -3.755860282964643e-2 -3.709204237212551e-2
    -3.663127762168960e-2 -3.617623658290891e-2 -3.572684815469549e-2 -3.528304211919303e-2
    -3.484474913080566e-2 -3.441190070536215e-2 -3.398442920941537e-2 -3.356226784967447e-2
    -3.314535066256799e-2 -3.273361250393734e-2 -3.232698903885747e-2 -3.192541673158466e-2
    -3.152883283562896e-2 -3.113717538394968e-2 -3.075038317927328e-2 -3.036839578453077e-2
    -2.999115351341453e-2 -2.961859742105228e-2 -2.925066929479653e-2 -2.888731164512910e-2
    -2.852846769667789e-2 -2.817408137934587e-2 -2.782409731955004e-2 -2.747846083156889e-2
    -2.713711790899811e-2 -2.680001521631148e-2 -2.646710008052742e-2 -2.613832048297872e-2
    -2.581362505118427e-2 -2.549296305082233e-2 -2.517628437780293e-2 -2.486353955043905e-2
    -2.455467970171525e-2 -2.424965657165167e-2 -2.394842249976377e-2 -2.365093041761491e-2
    -2.335713384146195e-2 -2.306698686499220e-2 -2.278044415215023e-2 -2.249746093005425e-2
    -2.221799298200002e-2 -2.194199664055205e-2 -2.166942878072055e-2 -2.140024681322279e-2
    -2.113440867782876e-2 -2.087187283678895e-2 -2.061259826834400e-2 -2.035654446031517e-2
    -2.010367140377394e-2
    </PP_LOCAL>
  <PP_NONLOCAL>
    <PP_BETA.1 index="1" label="1S" angular_momentum="0" cutoff_radius_index="571" cutoff_radius="8.000000000000e-1" ultrasoft_cutoff_radius="1.000000000000e0">
      -6.077461566358799e-2 -6.153873685235922e-2 -6.231245691655118e-2 -6.309589611422339e-2
      -6.390518727255845e-2 -6.473434225585528e-2 -6.529341492257679e-2 -6.622965472415565e-2
      -6.715317706816570e-2 -6.823013740113559e-2 -6.889597824547700e-2 -6.948543857706824e-2
      -7.079350352427127e-2 -7.147561860151974e-2 -7.259622908011387e-2 -7.350002592839289e-2
      -7.410021631599228e-2 -7.510842292803233e-2 -7.628990635072519e-2 -7.695751458182265e-2
      -7.821249908311501e-2 -7.910784539708793e-2 -8.012554292029250e-2 -8.098061280766444e-2
      -8.201470015240986e-2 -8.339181063593415e-2 -8.399356790720525e-2 -8.502216178046140e-2
      -8.637866345263312e-2 -8.718049117052651e-2 -8.845731243921762e-2 -8.947730907332208e-2
      -9.084604988751899e-2 -9.174421115110931e-2 -9.297118877340971e-2 -9.420200250948341e-2
      -9.498843267731338e-2 -9.662968365968894e-2 -9.766734255634546e-2 -9.880872551081765e-2
      -1.000773330648421e-1 -1.014174915592960e-1 -1.028817908908124e-1 -1.040053718872400e-1
      -1.051523951580435e-1 -1.068014206917596e-1 -1.079507945760732e-1 -1.092578989591075e-1
      -1.108522598222059e-1 -1.122326553966246e-1 -1.135614753193792e-1 -1.149863090175138e-1
      -1.163893210522531e-1 -1.176550651680977e-1 -1.193197036968208e-1 -1.207258357457661e-1
      -1.224103664002989e-1 -1.237718224354225e-1 -1.252887571209449e-1 -1.268993593605643e-1
      -1.286925698040911e-1 -1.301248456703981e-1 -1.317873362474948e-1 -1.334829008363130e-1
      -1.351765452196361e-1 -1.368333584388957e-1 -1.386715620774410e-1 -1.401857320089341e-1
      -1.420417641002913e-1 -1.438584762329072e-1 -1.456765179132198e-1 -1.475145447888835e-1
      -1.494276569840132e-1 -1.511770822937137e-1 -1.532069040688739e-1 -1.551188524379583e-1
      -1.568060201159511e-1 -1.588587553716749e-1 -1.609930374104849e-1 -1.627390967857565e-1
      -1.651560551965900e-1 -1.669850872922325e-1 -1.691525989383749e-1 -1.712123070808680e-1
      -1.734426863484835e-1 -1.755318760275877e-1 -1.778166605626161e-1 -1.800029904674751e-1
      -1.822983439341890e-1 -1.846230912741795e-1 -1.868566377022631e-1 -1.891863797113231e-1
      -1.915683949742579e-1 -1.939015543047411e-1 -1.964638336146933e-1 -1.988909968531019e-1
      -2.014750372270129e-1 -2.038870465275977e-1 -2.065230776369447e-1 -2.091181954397570e-1
      -2.116700543479055e-1 -2.143230054858662e-1 -2.169884420834407e-1 -2.197739440574793e-1
      -2.223864674832967e-1 -2.252430591881662e-1 -2.280004967936904e-1 -2.309247616475858e-1
      -2.337656201289349e-1 -2.367496225224812e-1 -2.396334307350969e-1 -2.425769899661177e-1
      -2.457806924495713e-1 -2.487542236507494e-1 -2.518380509419487e-1 -2.550911829999976e-1
      -2.582330039476872e-1 -2.614026187017657e-1 -2.646668995055492e-1 -2.679143403269038e-1
      -2.712940819401908e-1 -2.746653437919377e-1 -2.781793879328305e-1 -2.815680438889743e-1
      -2.850911730178893e-1 -2.886921189991156e-1 -2.922141942868564e-1 -2.958921904069172e-1
      -2.996601947839039e-1 -3.033171768409630e-1 -3.070446963361917e-1 -3.108822997404914e-1
      -3.147319100434629e-1 -3.186871610108426e-1 -3.226383569865092e-1 -3.266887869686315e-1
      -3.306979042800648e-1 -3.348205427225324e-1 -3.390244426484799e-1 -3.431561733170270e-1
      -3.474436101696980e-1 -3.517686940617608e-1 -3.561440193545238e-1 -3.604968507365740e-1
      -3.649881992874029e-1 -3.694753024719475e-1 -3.741158060078291e-1 -3.787445029227499e-1
      -3.834078651701134e-1 -3.882019455644325e-1 -3.929220515014151e-1 -3.978521990343324e-1
      -4.026846368152093e-1 -4.077189797821745e-1 -4.127610514446616e-1 -4.178324820658190e-1
      -4.229402443818486e-1 -4.281461921887910e-1 -4.334086619873716e-1 -4.388098676039505e-1
      -4.442162865777419e-1 -4.496021697065657e-1 -4.551580855315791e-1 -4.607773111163880e-1
      -4.663903515165089e-1 -4.721141965626288e-1 -4.779145159338896e-1 -4.837178138274254e-1
      -4.896768752631289e-1 -4.956373739947253e-1 -5.017470460793305e-1 -5.078375067903096e-1
      -5.140193461879932e-1 -5.202913127246944e-1 -5.266608723123483e-1 -5.330103273626037e-1
      -5.395160314110825e-1 -5.460678231369798e-1 -5.527051431816972e-1 -5.594053996370718e-1
      -5.661656790849747e-1 -5.730484076757136e-1 -5.799736706614453e-1 -5.869505016033543e-1
      -5.940613895457858e-1 -6.011935472684797e-1 -6.084490371290769e-1 -6.157379841185389e-1
      -6.231407502437776e-1 -6.306253686049388e-1 -6.381728479630624e-1 -6.458105267713847e-1
      -6.535076805891435e-1 -6.613243688915418e-1 -6.691738908515390e-1 -6.771902198321129e-1
      -6.851965623249896e-1 -6.933235040143728e-1 -7.015472260897724e-1 -7.098388797340647e-1
      -7.181978939229765e-1 -7.266867913514403e-1 -7.352147465850578e-1 -7.438475907545694e-1
      -7.525544816591889e-1 -7.613595801747408e-1 -7.702632275261578e-1 -7.792247835218120e-1
      -7.882801089189684e-1 -7.974434519950648e-1 -8.066670892253285e-1 -8.159716660273375e-1
      -8.253914671415998e-1 -8.348781203164606e-1 -8.444421962582283e-1 -8.540909654792017e-1
      -8.638300557436480e-1 -8.736564746041324e-1 -8.835809486435551e-1 -8.935662437647238e-1
      -9.036285624813161e-1 -9.137903721339171e-1 -9.240411983788874e-1 -9.343600615477499e-1
      -9.447655116429985e-1 -9.552400825594987e-1 -9.657997875257252e-1 -9.764329766329922e-1
      -9.871520497728170e-1 -9.979239623776266e-1 -1.008809411941996e0 -1.019731098539381e0
      -1.030736333378741e0 -1.041799544476646e0 -1.052952660019088e0 -1.064140252172876e0
      -1.075432649364615e0 -1.086750420126720e0 -1.098142506994577e0 -1.109586126423210e0
      -1.121083827321883e0 -1.132654062968214e0 -1.144238031279713e0 -1.155877829248567e0
      -1.167576415922952e0 -1.179272223633660e0 -1.191039374941255e0 -1.202854786421227e0
      -1.214650396414953e0 -1.226491852864029e0 -1.238348054908926e0 -1.250228085401545e0
      -1.262102266990695e0 -1.273991998957683e0 -1.285882097423354e0 -1.297742012075219e0
      -1.309615802951043e0 -1.321443305293570e0 -1.333267835382770e0 -1.345044273105884e0
      -1.356787582969446e0 -1.368459914226037e0 -1.380104045018015e0 -1.391671744265977e0
      -1.403156949112145e0 -1.414569959161668e0 -1.425883984965651e0 -1.437099637646668e0
      -1.448201763634984e0 -1.459173091045272e0 -1.470016997575215e0 -1.480714233970502e0
      -1.491238172434237e0 -1.501604144181670e0 -1.511771556347981e0 -1.521735090958316e0
      -1.531485177927095e0 -1.541008267040525e0 -1.550282580694727e0 -1.559285834321145e0
      -1.568006509429608e0 -1.576438062096884e0 -1.584535361482665e0 -1.592304107364896e0
      -1.599693335695520e0 -1.606716026134734e0 -1.613317614189384e0 -1.619519164689223e0
      -1.625246536945951e0 -1.630489573912655e0 -1.635241864133491e0 -1.639444670363446e0
      -1.643091524121587e0 -1.646168161810294e0 -1.648583815338270e0 -1.650370429224779e0
      -1.651471505335564e0 -1.651840065399824e0 -1.651436224329757e0 -1.650257580247171e0
      -1.648232599316998e0 -1.645324419007977e0 -1.641496880638442e0 -1.636699321974504e0
      -1.630901106861700e0 -1.624047513466621e0 -1.616081873352357e0 -1.606952781808445e0
      -1.596604778694484e0 -1.584995099940102e0 -1.572068556275212e0 -1.557745439723476e0
      -1.541977870829101e0 -1.524694807846913e0 -1.505843510062050e0 -1.485327625481204e0
      -1.463108584352540e0 -1.439090529427972e0 -1.413193986476472e0 -1.385359518459722e0
      -1.355480230287867e0 -1.323478944159433e0 -1.289260293763618e0 -1.252752284514827e0
      -1.213838478649450e0 -1.172418679716998e0 -1.128406201374560e0 -1.081674918959266e0
      -1.032132147961079e0 -9.796519004597712e-1 -9.241201165191342e-1 -8.654068685075345e-1
      -8.033939713823202e-1 -7.379458066310463e-1 -6.689240970329138e-1 -5.961867126410425e-1
      -5.195906252940858e-1 -4.389787879435971e-1 -3.542136545262338e-1 -2.651072305967546e-1
      -1.715166387664340e-1 -7.325266559178090e-2 2.985684145164669e-2 1.380016376285766e-1
      2.513737412330102e-1 3.701485051772124e-1 4.945569848069908e-1 6.247990518560300e-1
      7.610855831275103e-1 9.036542622803836e-1 1.052720263664924e0 1.208530630362702e0
      1.371334615285150e0 1.541378186097745e0 1.718931431173246e0 1.904249591543362e0
      2.097627452970073e0 2.299343020316542e0 2.509689421802818e0 2.728983143561777e0
      2.957514929100967e0 3.195617216782921e0 3.443624883002030e0 3.701872495823181e0
      3.970717649913695e0 4.250509016794467e0 4.541621158557291e0 4.844431381505046e0
      5.159334954272481e0 5.486717856547102e0 5.827003085590604e0 6.180603531846145e0
      6.547950719913615e0 6.929485127651333e0 7.325656907238454e0 7.736925883276399e0
      8.163772657036588e0 8.606663261626409e0 9.066102071026762e0 9.542586794943190e0
      1.003663420771636e1 1.054875565429507e1 1.107949241102415e1 1.162938441079609e1
      1.219897566819873e1 1.278883475240491e1 1.339951660362249e1 1.403160165930876e1
      1.468567216362908e1 1.536231711664004e1 1.606212806375743e1 1.678570817063451e1
      1.753365535754620e1 1.830658795506702e1 1.910510601009378e1 1.992982392347812e1
      2.078136039700758e1 2.166031788238502e1 2.256731139962858e1 2.350294346672968e1
      2.446781359403599e1 2.546251506804561e1 2.648762460879721e1 2.754372149894425e1
      2.863135658894339e1 2.975107733155573e1 3.090340008769795e1 3.208883259400659e1
      3.330784280563080e1 3.456088185097815e1 3.584837262179235e1 3.717068495044032e1
      3.852817064388637e1 3.992112804645376e1 4.134980848999203e1 4.281440886190876e1
      4.431507338828033e1 4.585187967530056e1 4.742483759784136e1 4.903388464682258e1
      5.067887453786307e1 5.235957349331511e1 5.407565833534227e1 5.582669611522352e1
      5.761214700127903e1 5.943135554985793e1 6.128353596890702e1 6.316776810664123e1
      6.508298634819858e1 6.702797183624717e1 6.900133857582341e1 7.100152331895652e1
      7.302677875477684e1 7.507515676091771e1 7.714449692723974e1 7.923242174971484e1
      8.133630909044768e1 8.345329454786770e1 8.558025416017244e1 8.771378158286144e1
      8.985017747221036e1 9.198544765890302e1 9.411527471234422e1 9.623500644673914e1
      9.833964430491552e1 1.004238277812429e2 1.024818169666787e2 1.045074779079278e2
      1.064942773403132e2 1.084352612176317e2 1.103230335937842e2 1.121497653122911e2
      1.139071645357558e2 1.155864720383756e2 1.171784532766169e2 1.186733861990388e2
      1.200610613014833e2 1.213307709421724e2 1.224713119068961e2 1.234709820646026e2
      1.243175919696801e2 1.249984570549418e2 1.255004214917290e2 1.258098716220670e2
      1.259127427677381e2 1.257945581147601e2 1.254404485036075e2 1.248351964053745e2
      1.239632671510494e2 1.228088697416574e2 1.213560044456499e2 1.195885422123802e2
      1.174902837340019e2 1.150450563969789e2 1.122368041198231e2 1.090497042681957e2
      1.054682662425132e2 1.014774913255740e2 9.706299585415264e1 9.221117752845783e1
      8.690940249534890e1 8.114617186741112e1 7.491134817128653e1 6.819636620600839e1
      6.099447296376365e1 5.330098719685947e1 4.511356254515147e1 3.643248158410495e1
      2.726095194286711e1 1.760542514024178e1 7.475927767510711e0 -3.113603669080703e0
      -1.414497147063139e1 -2.559536332346170e1 -3.743699338056740e1 -4.963675973023510e1
      -6.215588855367241e1 -7.494960858769947e1 -8.796684209316345e1 -1.011499312341666e2
      -1.144343939332439e2 -1.277487430227611e2 -1.410143642164458e2 -1.541454776096170e2
      -1.670491897888742e2 -1.796256622213405e2 -1.917684152069851e2 -2.033647839974074e2
      -2.142965503393634e2 -2.244407837656181e2 -2.336708997869774e2 -2.418579825836014e2
      -2.488723707822237e2 -2.545855609768551e2 -2.588724195971182e2 -2.616137459531774e2
      -2.626991645942653e2 -2.620303938533061e2 -2.595248151949636e2 -2.551193601179521e2
      -2.487746373454357e2 -2.404791976840980e2 -2.302538311645640e2 -2.181556858336017e2
      -2.042819723911489e2 -1.887729086345680e2 -1.718134620719884e2 -1.536333235762895e2
      -1.345043663372426e2 -1.147346587217144e2 -9.465785249439069e1 -7.461645924624827e1
      -5.493717113126422e1 -3.589591952752653e1 -1.766985515433225e1 -2.727249260242388e-1
      1.653063451686921e1 3.316125130436876e1 4.964125022799772e1 6.585055689633873e1
      8.165868090545064e1 9.692420251130216e1 1.114942628727597e2 1.252040490901238e2
      1.378762967355056e2 1.493207911268675e2 1.593338940033058e2 1.676980879932696e2
      1.741815469708214e2 1.785377459991530e2 1.805051065302593e2 1.798066993669830e2
      1.761500020318209e2 1.692267273146065e2 1.587127427380126e2 1.442679900857232e2
      1.255373933721726e2 1.021433195405109e2 7.376140441105719e1 3.938793334155596e1
      4.462942582832721e0 -3.367397577152182e-1 1.361298416529442e-1 8.628701843178213e-2
      8.829817284482594e-2 8.519883884222637e-2 8.263771382300714e-2 8.005507382050228e-2
      7.750725107147463e-2 7.498865649540456e-2 7.250108034071817e-2 7.004426959530501e-2
      6.761886664080176e-2 6.522548337170447e-2 6.286442290571577e-2 6.053598625057365e-2
      5.824069014134125e-2 5.597887129043243e-2 5.375069054684889e-2 5.155681805271301e-2
      4.939721782891572e-2 4.727238866883678e-2 4.518263418629625e-2 4.312812632148928e-2
      4.110916906956725e-2 3.912600414463005e-2 3.717895372715192e-2 3.526809600459346e-2
      3.339373372411375e-2 3.155599029620262e-2 0.000000000000000e0 0.000000000000000e0
      0.000000000000000e0 0.000000000000000e0 0.000000000000000e0 0.000000000000000e0
      0.000000000000000e0 0.000000000000000e0 0.000000000000000e0 0.000000000000000e0
      0.000000000000000e0 0.000000000000000e0 0.000000000000000e0 0.000000000000000e0
      0.000000000000000e0 0.000000000000000e0 0.000000000000000e0 0.000000000000000e0
      0.000000000000000e0 0.000000000000000e0 0.000000000000000e0 0.000000000000000e0
      0.000000000000000e0 0.000000000000000e0 0.000000000000000e0 0.000000000000000e0
      0.000000000000000e0 0.000000000000000e0 0.000000000000000e0 0.000000000000000e0
      0.000000000000000e0 0.000000000000000e0 0.000000000000000e0 0.000000000000000e0
      0.000000000000000e0 0.000000000000000e0 0.000000000000000e0 0.000000000000000e0
      0.000000000000000e0 0.000000000000000e0 0.000000000000000e0 0.000000000000000e0
      0.000000000000000e0 0.000000000000000e0 0.000000000000000e0 0.000000000000000e0
      0.000000000000000e0 0.000000000000000e0 0.000000000000000e0 0.000000000000000e0
      0.000000000000000e0 0.000000000000000e0 0.000000000000000e0 0.000000000000000e0
      0.000000000000000e0 0.000000000000000e0 0.000000000000000e0 0.000000000000000e0
      0.000000000000000e0 0.000000000000000e0 0.000000000000000e0 0.000000000000000e0
      0.000000000000000e0 0.000000000000000e0 0.000000000000000e0 0.000000000000000e0
      0.000000000000000e0 0.000000000000000e0 0.000000000000000e0 0.000000000000000e0
      0.000000000000000e0 0.000000000000000e0 0.000000000000000e0 0.000000000000000e0
      0.000000000000000e0 0.000000000000000e0 0.000000000000000e0 0.000000000000000e0
      0.000000000000000e0 0.000000000000000e0 0.000000000000000e0 0.000000000000000e0
      0.000000000000000e0 0.000000000000000e0 0.000000000000000e0 0.000000000000000e0
      0.000000000000000e0 0.000000000000000e0 0.000000000000000e0 0.000000000000000e0
      0.000000000000000e0 0.000000000000000e0 0.000000000000000e0 0.000000000000000e0
      0.000000000000000e0 0.000000000000000e0 0.000000000000000e0 0.000000000000000e0
      0.000000000000000e0 0.000000000000000e0 0.000000000000000e0 0.000000000000000e0
      0.000000000000000e0 0.000000000000000e0 0.000000000000000e0 0.000000000000000e0
      0.000000000000000e0 0.000000000000000e0 0.000000000000000e0 0.000000000000000e0
      0.000000000000000e0 0.000000000000000e0 0.000000000000000e0 0.000000000000000e0
      0.000000000000000e0 0.000000000000000e0 0.000000000000000e0 0.000000000000000e0
      0.000000000000000e0 0.000000000000000e0 0.000000000000000e0 0.000000000000000e0
      0.000000000000000e0 0.000000000000000e0 0.000000000000000e0 0.000000000000000e0
      0.000000000000000e0 0.000000000000000e0 0.000000000000000e0 0.000000000000000e0
      0.000000000000000e0 0.000000000000000e0 0.000000000000000e0 0.000000000000000e0
      0.000000000000000e0 0.000000000000000e0 0.000000000000000e0 0.000000000000000e0
      0.000000000000000e0 0.000000000000000e0 0.000000000000000e0 0.000000000000000e0
      0.000000000000000e0 0.000000000000000e0 0.000000000000000e0 0.000000000000000e0
      0.000000000000000e0 0.000000000000000e0 0.000000000000000e0 0.000000000000000e0
      0.000000000000000e0 0.000000000000000e0 0.000000000000000e0 0.000000000000000e0
      0.000000000000000e0 0.000000000000000e0 0.000000000000000e0 0.000000000000000e0
      0.000000000000000e0 0.000000000000000e0 0.000000000000000e0 0.000000000000000e0
      0.000000000000000e0 0.000000000000000e0 0.000000000000000e0 0.000000000000000e0
      0.000000000000000e0 0.000000000000000e0 0.000000000000000e0 0.000000000000000e0
      0.000000000000000e0 0.000000000000000e0 0.000000000000000e0 0.000000000000000e0
      0.000000000000000e0 0.000000000000000e0 0.000000000000000e0 0.000000000000000e0
      0.000000000000000e0 0.000000000000000e0 0.000000000000000e0 0.000000000000000e0
      0.000000000000000e0 0.000000000000000e0 0.000000000000000e0 0.000000000000000e0
      0.000000000000000e0 0.000000000000000e0 0.000000000000000e0 0.000000000000000e0
      0.000000000000000e0 0.000000000000000e0 0.000000000000000e0 0.000000000000000e0
      0.000000000000000e0 0.000000000000000e0 0.000000000000000e0 0.000000000000000e0
      0.000000000000000e0 0.000000000000000e0 0.000000000000000e0 0.000000000000000e0
      0.000000000000000e0 0.000000000000000e0 0.000000000000000e0 0.000000000000000e0
      0.000000000000000e0 0.000000000000000e0 0.000000000000000e0 0.000000000000000e0
      0.000000000000000e0 0.000000000000000e0 0.000000000000000e0 0.000000000000000e0
      0.000000000000000e0 0.000000000000000e0 0.000000000000000e0 0.000000000000000e0
      0.000000000000000e0 0.000000000000000e0 0.000000000000000e0 0.000000000000000e0
      0.000000000000000e0 0.000000000000000e0 0.000000000000000e0 0.000000000000000e0
      0.000000000000000e0 0.000000000000000e0 0.000000000000000e0 0.000000000000000e0
      0.000000000000000e0 0.000000000000000e0 0.000000000000000e0 0.000000000000000e0
      0.000000000000000e0 0.000000000000000e0 0.000000000000000e0 0.000000000000000e0
      0.000000000000000e0 0.000000000000000e0 0.000000000000000e0 0.000000000000000e0
      0.000000000000000e0 0.000000000000000e0 0.000000000000000e0 0.000000000000000e0
      0.000000000000000e0 0.000000000000000e0 0.000000000000000e0 0.000000000000000e0
      0.000000000000000e0 0.000000000000000e0 0.000000000000000e0 0.000000000000000e0
      0.000000000000000e0 0.000000000000000e0 0.000000000000000e0 0.000000000000000e0
      0.000000000000000e0 0.000000000000000e0 0.000000000000000e0 0.000000000000000e0
      0.000000000000000e0 0.000000000000000e0 0.000000000000000e0 0.000000000000000e0
      0.000000000000000e0 0.000000000000000e0 0.000000000000000e0 0.000000000000000e0
      0.000000000000000e0 0.000000000000000e0 0.000000000000000e0 0.000000000000000e0
      0.000000000000000e0 0.000000000000000e0 0.000000000000000e0 0.000000000000000e0
      0.000000000000000e0 0.000000000000000e0 0.000000000000000e0 0.000000000000000e0
      0.000000000000000e0 0.000000000000000e0 0.000000000000000e0 0.000000000000000e0
      0.000000000000000e0 0.000000000000000e0 0.000000000000000e0 0.000000000000000e0
      0.000000000000000e0 0.000000000000000e0 0.000000000000000e0 0.000000000000000e0
      0.000000000000000e0 0.000000000000000e0 0.000000000000000e0 0.000000000000000e0
      0.000000000000000e0 0.000000000000000e0 0.000000000000000e0 0.000000000000000e0
      0.000000000000000e0 0.000000000000000e0 0.000000000000000e0 0.000000000000000e0
      0.000000000000000e0 0.000000000000000e0 0.000000000000000e0 0.000000000000000e0
      0.000000000000000e0 0.000000000000000e0 0.000000000000000e0 0.000000000000000e0
      0.000000000000000e0 0.000000000000000e0 0.000000000000000e0 0.000000000000000e0
      0.000000000000000e0 0.000000000000000e0 0.000000000000000e0 0.000000000000000e0
      0.000000000000000e0 0.000000000000000e0 0.000000000000000e0 0.000000000000000e0
      0.000000000000000e0 0.000000000000000e0 0.000000000000000e0 0.000000000000000e0
      0.000000000000000e0 0.000000000000000e0 0.000000000000000e0 0.000000000000000e0
      0.000000000000000e0 0.000000000000000e0 0.000000000000000e0 0.000000000000000e0
      0.000000000000000e0
      </PP_BETA.1>
    <PP_BETA.2 index="2" label="1S" angular_momentum="0" cutoff_radius_index="571" cutoff_radius="8.000000000000e-1" ultrasoft_cutoff_radius="1.000000000000e0">
      5.317268724689406e-2 5.384116593553401e-2 5.451803962391821e-2 5.520341339506629e-2
      5.591425312954712e-2 5.664480891723578e-2 5.708262972354206e-2 5.792446511835436e-2
      5.875034480882313e-2 5.973960713325965e-2 6.028363142048221e-2 6.074335503842221e-2
      6.197534404425120e-2 6.252997919250625e-2 6.355553920639068e-2 6.434470814464355e-2
      6.480476135646995e-2 6.570168345382577e-2 6.678354994466851e-2 6.730854438413658e-2
      6.846453141946007e-2 6.923062691985216e-2 7.012562703159197e-2 7.084285963608927e-2
      7.175097200823011e-2 7.302564594709615e-2 7.346229913797941e-2 7.435641793873771e-2
      7.560079183570245e-2 7.624513385785470e-2 7.739835818402696e-2 7.827188177950184e-2
      7.951865383817847e-2 8.025515299160446e-2 8.134331426042252e-2 8.243270923514956e-2
      8.304020999008088e-2 8.456569803984593e-2 8.543782839786829e-2 8.641858060052954e-2
      8.753337785793036e-2 8.872199469319852e-2 9.004130383202735e-2 9.098996901839485e-2
      9.196079739474428e-2 9.346923852228173e-2 9.443586262913328e-2 9.556887831577754e-2
      9.700810093669077e-2 9.821328598450307e-2 9.935939793265902e-2 1.006052049284669e-1
      1.018241200895851e-1 1.028910466658211e-1 1.043842985888865e-1 1.055950742742091e-1
      1.071021520294728e-1 1.082573853229611e-1 1.095758971508545e-1 1.109915160563233e-1
      1.125999087107346e-1 1.138150903160273e-1 1.152746280598862e-1 1.167652635897980e-1
      1.182497445295034e-1 1.196901365819194e-1 1.213217398555422e-1 1.225998993741939e-1
      1.242418378946262e-1 1.258367855514635e-1 1.274288632404286e-1 1.290376650849439e-1
      1.307228112404708e-1 1.322268639581949e-1 1.340281042438178e-1 1.356976760744786e-1
      1.371199359200830e-1 1.389312288115114e-1 1.408253030649291e-1 1.422959872861398e-1
      1.444843213540317e-1 1.460340614818705e-1 1.479432262221927e-1 1.497305716514390e-1
      1.516967120673804e-1 1.535050832395086e-1 1.555186520258438e-1 1.574204781866904e-1
      1.594341405144775e-1 1.614736085724431e-1 1.634089386376019e-1 1.654420341324325e-1
      1.675254729435025e-1 1.695500608627185e-1 1.718154933569664e-1 1.739290531279565e-1
      1.762052553576652e-1 1.782898579921053e-1 1.806091505057026e-1 1.828779836837739e-1
      1.850934836597133e-1 1.874112505173997e-1 1.897357128704229e-1 1.921824739647704e-1
      1.944359498126644e-1 1.969453685661335e-1 1.993407362934505e-1 2.019086831216583e-1
      2.043792459600908e-1 2.069968845121792e-1 2.094987554435050e-1 2.120576084902766e-1
      2.148889282052480e-1 2.174643708425990e-1 2.201508563821264e-1 2.230117002741139e-1
      2.257445240695262e-1 2.284990697643892e-1 2.313472117788251e-1 2.341688205529948e-1
      2.371244877028147e-1 2.400623639915977e-1 2.431452782809203e-1 2.460842787766069e-1
      2.491591419700043e-1 2.523088603456856e-1 2.553643101258629e-1 2.585785164511734e-1
      2.618801232866730e-1 2.650526982754400e-1 2.682915277711260e-1 2.716392017031097e-1
      2.749899167958461e-1 2.784442639806102e-1 2.818842159603250e-1 2.854207343064630e-1
      2.889022551378417e-1 2.924955567821215e-1 2.961657174628911e-1 2.997472959220104e-1
      3.034855745427478e-1 3.072533662011452e-1 3.110641185427454e-1 3.148390506530063e-1
      3.187518406956400e-1 3.226483275806658e-1 3.266981889197353e-1 3.307234643588117e-1
      3.347738345515268e-1 3.389527683374496e-1 3.430396000413225e-1 3.473400684213317e-1
      3.515225516090652e-1 3.559095742738094e-1 3.602918995824780e-1 3.646925649541828e-1
      3.691189022547121e-1 3.736374860597493e-1 3.782031151171310e-1 3.829043852283291e-1
      3.875970200564041e-1 3.922532866800879e-1 3.970782744979857e-1 4.019567201691530e-1
      4.068137183656262e-1 4.117749483106365e-1 4.168034164524954e-1 4.218196420270033e-1
      4.269879861350176e-1 4.321421377590724e-1 4.374408877725955e-1 4.427027308032763e-1
      4.480465709297761e-1 4.534708100582492e-1 4.589833906197072e-1 4.644571126290202e-1
      4.700819640543301e-1 4.757388791548749e-1 4.814701690167169e-1 4.872513346749088e-1
      4.930788794043224e-1 4.990199576380974e-1 5.049881211218263e-1 5.109929057857130e-1
      5.171229965744573e-1 5.232565037875503e-1 5.295032600835441e-1 5.357661675332679e-1
      5.421314179235424e-1 5.485645043072367e-1 5.550445366096426e-1 5.616007983942950e-1
      5.681998883101471e-1 5.749062042271760e-1 5.816261365364284e-1 5.885036330406308e-1
      5.953480412762104e-1 6.022997130867083e-1 6.093326480204837e-1 6.164155730280925e-1
      6.235474137847916e-1 6.307953940164452e-1 6.380612589456689e-1 6.454155813744933e-1
      6.528249287672736e-1 6.603148852098570e-1 6.678855613310475e-1 6.754928212854452e-1
      6.831749163795564e-1 6.909469576163474e-1 6.987570798665388e-1 7.066271977873839e-1
      7.145939485960753e-1 7.226047391548605e-1 7.306707399485788e-1 7.387992409615265e-1
      7.469960688000867e-1 7.552575379556004e-1 7.635948368772176e-1 7.719674654925655e-1
      7.803924302048699e-1 7.888935736353346e-1 7.974591823576702e-1 8.060662238605119e-1
      8.147343116377215e-1 8.234440954336719e-1 8.322124606380612e-1 8.410264116337203e-1
      8.498987903617774e-1 8.587936444454840e-1 8.677757866960576e-1 8.767615133725712e-1
      8.858013625855392e-1 8.948671936707342e-1 9.039930230283346e-1 9.131185212992250e-1
      9.223190206633660e-1 9.315084078585869e-1 9.407388686032903e-1 9.499853391000386e-1
      9.592500137507614e-1 9.685522310613521e-1 9.778280715973438e-1 9.871222998598057e-1
      9.964375623896160e-1 1.005706908831485e0 1.015009611733859e0 1.024320206982821e0
      1.033564713600811e0 1.042813266279069e0 1.052031705815921e0 1.061229156643179e0
      1.070373031367836e0 1.079485644477927e0 1.088550023884522e0 1.097532515262344e0
      1.106479923054735e0 1.115326675108236e0 1.124118715628924e0 1.132806725451474e0
      1.141406028866186e0 1.149875111239226e0 1.158259283301447e0 1.166505749455553e0
      1.174607218147059e0 1.182573923748009e0 1.190376199812135e0 1.198013835782660e0
      1.205469643728634e0 1.212724135544647e0 1.219780042380762e0 1.226615725534657e0
      1.233201558519511e0 1.239553108810469e0 1.245625678734996e0 1.251412555100330e0
      1.256902428939782e0 1.262079692521411e0 1.266919802261953e0 1.271397744500689e0
      1.275499992113851e0 1.279218412594389e0 1.282503250038758e0 1.285359509057400e0
      1.287731126265101e0 1.289630880388586e0 1.290998782866325e0 1.291856309891216e0
      1.292122287546874e0 1.291784533192526e0 1.290834801190897e0 1.289208492640284e0
      1.286897251752123e0 1.283884348615459e0 1.280070558942612e0 1.275488855417450e0
      1.270076901004984e0 1.263782560250775e0 1.256561346970841e0 1.248409079035525e0
      1.239247106823711e0 1.229034066846282e0 1.217729356766313e0 1.205276659660740e0
      1.191641249362704e0 1.176762387853046e0 1.160577216168349e0 1.143028491590712e0
      1.124054572916066e0 1.103607456292252e0 1.081625714134702e0 1.058021443841426e0
      1.032741025122277e0 1.005705793504035e0 9.768567998496565e-1 9.460880231148394e-1
      9.133556901491602e-1 8.785542162523825e-1 8.415956514317031e-1 8.024135722148458e-1
      7.608903586753968e-1 7.169403771325733e-1 6.704583356545299e-1 6.213640573799921e-1
      5.695294365649488e-1 5.148438261630872e-1 4.572110255621737e-1 3.964923428392240e-1
      3.325850123243299e-1 2.653503417781167e-1 1.946624337938374e-1 1.203782066728536e-1
      4.236718663685224e-2 -3.951995231795991e-2 -1.254354795746622e-1 -2.155358721046241e-1
      -3.099786460732048e-1 -4.089365027334679e-1 -5.125611902118408e-1 -6.210589015136065e-1
      -7.345872637422417e-1 -8.533539369088885e-1 -9.775482418060619e-1 -1.107378570025048e0
      -1.243055811172894e0 -1.384772969661867e0 -1.532783156413529e0 -1.687305959858122e0
      -1.848572899470355e0 -2.016844455931164e0 -2.192356929256562e0 -2.375381051775776e0
      -2.566189994142292e0 -2.765053476737648e0 -2.972267285669204e0 -3.188111270227182e0
      -3.412907972842845e0 -3.646961927538428e0 -3.890594027027419e0 -4.144150413215584e0
      -4.407949531919257e0 -4.682354848488330e0 -4.967732490360277e0 -5.264448320114298e0
      -5.572893065950439e0 -5.893447878330107e0 -6.226521863487051e0 -6.572527111816044e0
      -6.931895105168906e0 -7.305047333715265e0 -7.692445202656017e0 -8.094539231021372e0
      -8.511800014587834e0 -8.944707797680849e0 -9.393753221767383e0 -9.859437328151444e0
      -1.034228349446221e1 -1.084279935197901e1 -1.136153377273718e1 -1.189902837036516e1
      -1.245584518646911e1 -1.303254030151402e1 -1.362970190780652e1 -1.424791658832874e1
      -1.488777514405160e1 -1.554989463098923e1 -1.623487717530930e1 -1.694335213795171e1
      -1.767595051546823e1 -1.843331028385478e1 -1.921607179569310e1 -2.002488753772173e1
      -2.086040391998404e1 -2.172328887462959e1 -2.261419011772432e1 -2.353377027998454e1
      -2.448269601497441e1 -2.546161580513945e1 -2.647119097052587e1 -2.751206857738476e1
      -2.858489162366777e1 -2.969029549426910e1 -3.082889676107493e1 -3.200131370884606e1
      -3.320813286872908e1 -3.444993591298408e1 -3.572726971628163e1 -3.704067049127843e1
      -3.839063010441987e1 -3.977762072766200e1 -4.120208242688250e1 -4.266439630292007e1
      -4.416492213676475e1 -4.570396008047737e1 -4.728175747638943e1 -4.889850072450236e1
      -5.055431706176660e1 -5.224925938004572e1 -5.398330488180318e1 -5.575634990452773e1
      -5.756819750387923e1 -5.941855325412462e1 -6.130702304670194e1 -6.323309094864317e1
      -6.519612213808841e1 -6.719535330927465e1 -6.922987659071532e1 -7.129863504482865e1
      -7.340041048257536e1 -7.553381488278410e1 -7.769727521252753e1 -7.988902231118164e1
      -8.210708333139292e1 -8.434926349717307e1 -8.661313348878911e1 -8.889602408353040e1
      -9.119499623413731e1 -9.350684343291277e1 -9.582807285485933e1 -9.815488057320408e1
      -1.004831399134996e2 -1.028083993158421e2 -1.051258515036184e2 -1.074303209603291e2
      -1.097162512522300e2 -1.119776881279686e2 -1.142082606077320e2 -1.164011651303154e2
      -1.185491598306203e2 -1.206445413906317e2 -1.226791223064097e2 -1.246442403105120e2
      -1.265307267274229e2 -1.283289015633709e2 -1.300285651704330e2 -1.316189853933329e2
      -1.330888979692713e2 -1.344264954317482e2 -1.356194303768643e2 -1.366548124297810e2
      -1.375192214452864e2 -1.381986998473758e2 -1.386787792526275e2 -1.389444959266593e2
      -1.389803992590319e2 -1.387705949170450e2 -1.382987675705804e2 -1.375482298268867e2
      -1.365019575768665e2 -1.351426573923027e2 -1.334528198426606e2 -1.314148072798953e2
      -1.290109198757364e2 -1.262235026720844e2 -1.230350451527645e2 -1.194283102031880e2
      -1.153864435005187e2 -1.108931491180615e2 -1.059328258082223e2 -1.004907499488394e2
      -9.455328105998456e1 -8.810804534199622e1 -8.114418393154375e1 -7.365258451937807e1
      -6.562614438774105e1 -5.706005471678271e1 -4.795208879137533e1 -3.830292353663435e1
      -2.811646327554877e1 -1.740018788234670e1 -6.165514113381278e0 5.571839326154077e0
      1.779146927277270e1 3.046790365835295e1 4.357021159637952e1 5.706163168346257e1
      7.089918665522237e1 8.503333149543597e1 9.940762028560085e1 1.139584123156701e2
      1.286146112136239e2 1.432974737156101e2 1.579204834341645e2 1.723893164355232e2
      1.866019064485645e2 2.004486375628494e2 2.138126853955828e2 2.265705247986908e2
      2.385926293536822e2 2.497443997901919e2 2.598873291772007e2 2.688804562487085e2
      2.765821054035742e2 2.828519722146876e2 2.875535442255496e2 2.905569029382750e2
      2.917418830574225e2 2.910016389581278e2 2.882465363823067e2 2.834083863934493e2
      2.764449370139373e2 2.673445102504202e2 2.561306688225951e2 2.428666829402946e2
      2.276595397641595e2 2.106631186314717e2 1.920800512952801e2 1.721616501641765e2
      1.512050939176652e2 1.295468584419386e2 1.075511131376270e2 8.559146826158031e1
      6.402407241710626e1 4.314955849644003e1 2.316078387043899e1 4.072544132948678e0
      -1.437137801029303e1 -3.262931201232596e1 -5.072490710928469e1 -6.852693561754950e1
      -8.589284323460925e1 -1.026681970841003e2 -1.186861383194587e2 -1.337668298874019e2
      -1.477169239896893e2 -1.603290291040256e2 -1.713812053651917e2 -1.806364801831828e2
      -1.878423928972111e2 -1.927305832980964e2 -1.950164194353086e2 -1.943986890244108e2
      -1.905593509148832e2 -1.831633647539662e2 -1.718586202426726e2 -1.562758674499360e2
      -1.360297200340308e2 -1.107104981039023e2 -7.996648315293874e1 -4.270939866441526e1
      -4.839577289835464e0 3.657528002920718e-1 -1.471028797091314e-1 -9.306637499405836e-2
      -9.526622536599984e-2 -9.192335095748605e-2 -8.916387330687510e-2 -8.638076257473660e-2
      -8.363511106132824e-2 -8.092086180495141e-2 -7.823995153284145e-2 -7.559211108301884e-2
      -7.297803672741988e-2 -7.039839104834805e-2 -6.785350467390160e-2 -6.534370510749554e-2
      -6.286955291310954e-2 -6.043141399536372e-2 -5.802946492936321e-2 -5.566443112233759e-2
      -5.333627646590440e-2 -5.104554171954091e-2 -4.879255679940159e-2 -4.657750958657020e-2
      -4.440073042848949e-2 -4.226248223916537e-2 -4.016311477211664e-2 -3.810271455527365e-2
      -3.608161002790362e-2 -3.409993639335188e-2 0.000000000000000e0 0.000000000000000e0
      0.000000000000000e0 0.000000000000000e0 0.000000000000000e0 0.000000000000000e0
      0.000000000000000e0 0.000000000000000e0 0.000000000000000e0 0.000000000000000e0
      0.000000000000000e0 0.000000000000000e0 0.000000000000000e0 0.000000000000000e0
      0.000000000000000e0 0.000000000000000e0 0.000000000000000e0 0.000000000000000e0
      0.000000000000000e0 0.000000000000000e0 0.000000000000000e0 0.000000000000000e0
      0.000000000000000e0 0.000000000000000e0 0.000000000000000e0 0.000000000000000e0
      0.000000000000000e0 0.000000000000000e0 0.000000000000000e0 0.000000000000000e0
      0.000000000000000e0 0.000000000000000e0 0.000000000000000e0 0.000000000000000e0
      0.000000000000000e0 0.000000000000000e0 0.000000000000000e0 0.000000000000000e0
      0.000000000000000e0 0.000000000000000e0 0.000000000000000e0 0.000000000000000e0
      0.000000000000000e0 0.000000000000000e0 0.000000000000000e0 0.000000000000000e0
      0.000000000000000e0 0.000000000000000e0 0.000000000000000e0 0.000000000000000e0
      0.000000000000000e0 0.000000000000000e0 0.000000000000000e0 0.000000000000000e0
      0.000000000000000e0 0.000000000000000e0 0.000000000000000e0 0.000000000000000e0
      0.000000000000000e0 0.000000000000000e0 0.000000000000000e0 0.000000000000000e0
      0.000000000000000e0 0.000000000000000e0 0.000000000000000e0 0.000000000000000e0
      0.000000000000000e0 0.000000000000000e0 0.000000000000000e0 0.000000000000000e0
      0.000000000000000e0 0.000000000000000e0 0.000000000000000e0 0.000000000000000e0
      0.000000000000000e0 0.000000000000000e0 0.000000000000000e0 0.000000000000000e0
      0.000000000000000e0 0.000000000000000e0 0.000000000000000e0 0.000000000000000e0
      0.000000000000000e0 0.000000000000000e0 0.000000000000000e0 0.000000000000000e0
      0.000000000000000e0 0.000000000000000e0 0.000000000000000e0 0.000000000000000e0
      0.000000000000000e0 0.000000000000000e0 0.000000000000000e0 0.000000000000000e0
      0.000000000000000e0 0.000000000000000e0 0.000000000000000e0 0.000000000000000e0
      0.000000000000000e0 0.000000000000000e0 0.000000000000000e0 0.000000000000000e0
      0.000000000000000e0 0.000000000000000e0 0.000000000000000e0 0.000000000000000e0
      0.000000000000000e0 0.000000000000000e0 0.000000000000000e0 0.000000000000000e0
      0.000000000000000e0 0.000000000000000e0 0.000000000000000e0 0.000000000000000e0
      0.000000000000000e0 0.000000000000000e0 0.000000000000000e0 0.000000000000000e0
      0.000000000000000e0 0.000000000000000e0 0.000000000000000e0 0.000000000000000e0
      0.000000000000000e0 0.000000000000000e0 0.000000000000000e0 0.000000000000000e0
      0.000000000000000e0 0.000000000000000e0 0.000000000000000e0 0.000000000000000e0
      0.000000000000000e0 0.000000000000000e0 0.000000000000000e0 0.000000000000000e0
      0.000000000000000e0 0.000000000000000e0 0.000000000000000e0 0.000000000000000e0
      0.000000000000000e0 0.000000000000000e0 0.000000000000000e0 0.000000000000000e0
      0.000000000000000e0 0.000000000000000e0 0.000000000000000e0 0.000000000000000e0
      0.000000000000000e0 0.000000000000000e0 0.000000000000000e0 0.000000000000000e0
      0.000000000000000e0 0.000000000000000e0 0.000000000000000e0 0.000000000000000e0
      0.000000000000000e0 0.000000000000000e0 0.000000000000000e0 0.000000000000000e0
      0.000000000000000e0 0.000000000000000e0 0.000000000000000e0 0.000000000000000e0
      0.000000000000000e0 0.000000000000000e0 0.000000000000000e0 0.000000000000000e0
      0.000000000000000e0 0.000000000000000e0 0.000000000000000e0 0.000000000000000e0
      0.000000000000000e0 0.000000000000000e0 0.000000000000000e0 0.000000000000000e0
      0.000000000000000e0 0.000000000000000e0 0.000000000000000e0 0.000000000000000e0
      0.000000000000000e0 0.000000000000000e0 0.000000000000000e0 0.000000000000000e0
      0.000000000000000e0 0.000000000000000e0 0.000000000000000e0 0.000000000000000e0
      0.000000000000000e0 0.000000000000000e0 0.000000000000000e0 0.000000000000000e0
      0.000000000000000e0 0.000000000000000e0 0.000000000000000e0 0.000000000000000e0
      0.000000000000000e0 0.000000000000000e0 0.000000000000000e0 0.000000000000000e0
      0.000000000000000e0 0.000000000000000e0 0.000000000000000e0 0.000000000000000e0
      0.000000000000000e0 0.000000000000000e0 0.000000000000000e0 0.000000000000000e0
      0.000000000000000e0 0.000000000000000e0 0.000000000000000e0 0.000000000000000e0
      0.000000000000000e0 0.000000000000000e0 0.000000000000000e0 0.000000000000000e0
      0.000000000000000e0 0.000000000000000e0 0.000000000000000e0 0.000000000000000e0
      0.000000000000000e0 0.000000000000000e0 0.000000000000000e0 0.000000000000000e0
      0.000000000000000e0 0.000000000000000e0 0.000000000000000e0 0.000000000000000e0
      0.000000000000000e0 0.000000000000000e0 0.000000000000000e0 0.000000000000000e0
      0.000000000000000e0 0.000000000000000e0 0.000000000000000e0 0.000000000000000e0
      0.000000000000000e0 0.000000000000000e0 0.000000000000000e0 0.000000000000000e0
      0.000000000000000e0 0.000000000000000e0 0.000000000000000e0 0.000000000000000e0
      0.000000000000000e0 0.000000000000000e0 0.000000000000000e0 0.000000000000000e0
      0.000000000000000e0 0.000000000000000e0 0.000000000000000e0 0.000000000000000e0
      0.000000000000000e0 0.000000000000000e0 0.000000000000000e0 0.000000000000000e0
      0.000000000000000e0 0.000000000000000e0 0.000000000000000e0 0.000000000000000e0
      0.000000000000000e0 0.000000000000000e0 0.000000000000000e0 0.000000000000000e0
      0.000000000000000e0 0.000000000000000e0 0.000000000000000e0 0.000000000000000e0
      0.000000000000000e0 0.000000000000000e0 0.000000000000000e0 0.000000000000000e0
      0.000000000000000e0 0.000000000000000e0 0.000000000000000e0 0.000000000000000e0
      0.000000000000000e0 0.000000000000000e0 0.000000000000000e0 0.000000000000000e0
      0.000000000000000e0 0.000000000000000e0 0.000000000000000e0 0.000000000000000e0
      0.000000000000000e0 0.000000000000000e0 0.000000000000000e0 0.000000000000000e0
      0.000000000000000e0 0.000000000000000e0 0.000000000000000e0 0.000000000000000e0
      0.000000000000000e0 0.000000000000000e0 0.000000000000000e0 0.000000000000000e0
      0.000000000000000e0 0.000000000000000e0 0.000000000000000e0 0.000000000000000e0
      0.000000000000000e0 0.000000000000000e0 0.000000000000000e0 0.000000000000000e0
      0.000000000000000e0 0.000000000000000e0 0.000000000000000e0 0.000000000000000e0
      0.000000000000000e0 0.000000000000000e0 0.000000000000000e0 0.000000000000000e0
      0.000000000000000e0 0.000000000000000e0 0.000000000000000e0 0.000000000000000e0
      0.000000000000000e0 0.000000000000000e0 0.000000000000000e0 0.000000000000000e0
      0.000000000000000e0 0.000000000000000e0 0.000000000000000e0 0.000000000000000e0
      0.000000000000000e0 0.000000000000000e0 0.000000000000000e0 0.000000000000000e0
      0.000000000000000e0 0.000000000000000e0 0.000000000000000e0 0.000000000000000e0
      0.000000000000000e0 0.000000000000000e0 0.000000000000000e0 0.000000000000000e0
      0.000000000000000e0 0.000000000000000e0 0.000000000000000e0 0.000000000000000e0
      0.000000000000000e0
      </PP_BETA.2>
    <PP_DIJ>
      -9.935762873070166e-3 -6.475361102982315e-3 -6.475361102982315e-3 -2.975205481804223e-3
      </PP_DIJ>
    <PP_AUGMENTATION q_with_l="true" nqf="0" nqlc="3">
      <PP_Q>
        9.228117072538485e-3 9.187630663927628e-3 9.187630663927628e-3 9.129545926490511e-3
        </PP_Q>
      <PP_QIJL.1.1.0 first_index="1" second_index="1" composite_index="1" angular_momentum="0">
        5.759094844103401e-7 5.904885951833419e-7 6.054367724046116e-7 6.207633587538758e-7
        6.364779334074750e-7 6.525903180245561e-7 6.691105828847793e-7 6.860490531813570e-7
        7.034163154733575e-7 7.212232243013138e-7 7.394809089702492e-7 7.582007805043757e-7
        7.773945387777975e-7 7.970741798256743e-7 8.172520033404185e-7 8.379406203575829e-7
        8.591529611362716e-7 8.809022832389735e-7 9.032021798158620e-7 9.260665880987553e-7
        9.495097981100054e-7 9.735464615917891e-7 9.981916011613542e-7 1.023460619697945e-6
        1.049369309967268e-6 1.075933864489489e-6 1.103170885656963e-6 1.131097396107958e-6
        1.159730849362900e-6 1.189089140729749e-6 1.219190618485303e-6 1.250054095339457e-6
        1.281698860189512e-6 1.314144690171916e-6 1.347411863018946e-6 1.381521169728015e-6
        1.416493927551562e-6 1.452351993315586e-6 1.489117777075158e-6 1.526814256115435e-6
        1.565464989306875e-6 1.605094131823670e-6 1.645726450234533e-6 1.687387337975268e-6
        1.730102831212782e-6 1.773899625110416e-6 1.818805090504772e-6 1.864847291004411e-6
        1.912055000521089e-6 1.960457721244502e-6 2.010085702071676e-6 2.060969957502572e-6
        2.113142287013654e-6 2.166635294921480e-6 2.221482410748767e-6 2.277717910105527e-6
        2.335376936098396e-6 2.394495521281442e-6 2.455110610162131e-6 2.517260082276541e-6
        2.580982775848104e-6 2.646318512044720e-6 2.713308119849311e-6 2.781993461559299e-6
        2.852417458930958e-6 2.924624119984831e-6 2.998658566489011e-6 3.074567062137348e-6
        3.152397041440140e-6 3.232197139345334e-6 3.314017221608620e-6 3.397908415931398e-6
        3.483923143885972e-6 3.572115153647839e-6 3.662539553555495e-6 3.755252846518551e-6
        3.850312965295707e-6 3.947779308664429e-6 4.047712778504879e-6 4.150175817821201e-6
        4.255232449723722e-6 4.362948317396437e-6 4.473390725074545e-6 4.586628680057563e-6
        4.702732935784143e-6 4.821776035995308e-6 4.943832360013688e-6 5.068978169166769e-6
        5.197291654383078e-6 5.328852984990888e-6 5.463744358749673e-6 5.602050053145512e-6
        5.743856477982215e-6 5.889252229300871e-6 6.038328144661289e-6 6.191177359819590e-6
        6.347895366837262e-6 6.508580073657591e-6 6.673331865186539e-6 6.842253665915939e-6
        7.015451004127717e-6 7.193032077719222e-6 7.375107821690192e-6 7.561791977333371e-6
        7.753201163171620e-6 7.949454947685336e-6 8.150675923875472e-6 8.356989785708112e-6
        8.568525406488083e-6 8.785414919210053e-6 9.007793798936749e-6 9.235800947255491e-6
        9.469578778865063e-6 9.709273310346564e-6 9.955034251173135e-6 1.020701509701469e-5
        1.046537322539544e-5 1.073026999376323e-5 1.100187084003124e-5 1.128034538565414e-5
        1.156586754130218e-5 1.185861561519868e-5 1.215877242418741e-5 1.246652540759854e-5
        1.278206674398333e-5 1.310559347078919e-5 1.343730760704928e-5 1.377741627916174e-5
        1.412613184983617e-5 1.448367205028672e-5 1.485026011575270e-5 1.522612492443047e-5
        1.561150113990178e-5 1.600662935714571e-5 1.641175625222451e-5 1.682713473573421e-5
        1.725302411011504e-5 1.768969023091755e-5 1.813740567212312e-5 1.859644989562062e-5
        1.906710942494216e-5 1.954967802336485e-5 2.004445687648715e-5 2.055175477939123e-5
        2.107188832850589e-5 2.160518211828677e-5 2.215196894283406e-5 2.271259000257051e-5
        2.328739511610535e-5 2.387674293741361e-5 2.448100117846209e-5 2.510054683741814e-5
        2.573576643257924e-5 2.638705624216555e-5 2.705482255012106e-5 2.773948189807145e-5
        2.844146134359233e-5 2.916119872494326e-5 2.989914293242773e-5 3.065575418654338e-5
        3.143150432308928e-5 3.222687708540344e-5 3.304236842390545e-5 3.387848680312486e-5
        3.473575351640027e-5 3.561470300843656e-5 3.651588320591632e-5 3.743985585636045e-5
        3.838719687544327e-5 3.935849670296868e-5 4.035436066771907e-5 4.137540936139706e-5
        4.242227902187963e-5 4.349562192601520e-5 4.459610679219597e-5 4.572441919294331e-5
        4.688126197775386e-5 4.806735570645214e-5 4.928343909330949e-5 5.053026946218957e-5
        5.180862321298763e-5 5.311929629964103e-5 5.446310471998752e-5 5.584088501776179e-5
        5.725349479702285e-5 5.870181324931096e-5 6.018674169384609e-5 6.170920413107648e-5
        6.327014780990353e-5 6.487054380891011e-5 6.651138763192690e-5 6.819369981828522e-5
        6.991852656810213e-5 7.168694038296226e-5 7.350004072236135e-5 7.535895467628658e-5
        7.726483765432111e-5 7.921887409166038e-5 8.122227817244543e-5 8.327629457082201e-5
        8.538219921014086e-5 8.754130004073430e-5 8.975493783669744e-5 9.202448701212768e-5
        9.435135645727522e-5 9.673699039506822e-5 9.918286925849497e-5 1.016905105893195e-4
        1.042614699586338e-4 1.068973419097491e-4 1.095997609239404e-4 1.123704024095786e-4
        1.152109837151777e-4 1.181232651669137e-4 1.211090511311714e-4 1.241701911026867e-4
        1.273085808188741e-4 1.305261634009224e-4 1.338249305222712e-4 1.372069236050809e-4
        1.406742350453218e-4 1.442290094671293e-4 1.478734450070662e-4 1.516097946289644e-4
        1.554403674700190e-4 1.593675302188155e-4 1.633937085260042e-4 1.675213884483169e-4
        1.717531179266629e-4 1.760915082990348e-4 1.805392358489701e-4 1.850990433903400e-4
        1.897737418892220e-4 1.945662121236563e-4 1.994794063820773e-4 2.045163502012230e-4
        2.096801441443580e-4 2.149739656206263e-4 2.204010707463903e-4 2.259647962494079e-4
        2.316685614167079e-4 2.375158700870577e-4 2.435103126888921e-4 2.496555683246164e-4
        2.559554069021883e-4 2.624136913148934e-4 2.690343796702488e-4 2.758215275689650e-4
        2.827792904349137e-4 2.899119258970562e-4 2.972237962242836e-4 3.047193708141457e-4
        3.124032287364293e-4 3.202800613325691e-4 3.283546748718683e-4 3.366319932655126e-4
        3.451170608393632e-4 3.538150451665127e-4 3.627312399605936e-4 3.718710680308218e-4
        3.812400842997538e-4 3.908439788847422e-4 4.006885802440512e-4 4.107798583886060e-4
        4.211239281603266e-4 4.317270525779831e-4 4.425956462515179e-4 4.537362788657354e-4
        4.651556787342658e-4 4.768607364246766e-4 4.888585084555876e-4 5.011562210666205e-4
        5.137612740619795e-4 5.266812447284387e-4 5.399238918284686e-4 5.534971596691920e-4
        5.674091822478388e-4 5.816682874742872e-4 5.962830014712685e-4 6.112620529527303e-4
        6.266143776807952e-4 6.423491230017135e-4 6.584756524610959e-4 6.750035504986801e-4
        6.919426272227778e-4 7.093029232644600e-4 7.270947147114728e-4 7.453285181217267e-4
        7.640150956161512e-4 7.831654600505442e-4 8.027908802659358e-4 8.229028864168795e-4
        8.435132753768853e-4 8.646341162201246e-4 8.862777557783229e-4 9.084568242716056e-4
        9.311842410118917e-4 9.544732201771986e-4 9.783372766550599e-4 1.002790231953003e-3
        1.027846220173809e-3 1.053519694053046e-3 1.079825431056072e-3 1.106778539531461e-3
        1.134394464917489e-3 1.162688995997990e-3 1.191678271203612e-3 1.221378784954088e-3
        1.251807394036820e-3 1.282981324016668e-3 1.314918175671384e-3 1.347635931446777e-3
        1.381152961925147e-3 1.415488032300097e-3 1.450660308850324e-3 1.486689365404377e-3
        1.523595189787933e-3 1.561398190244384e-3 1.600119201819061e-3 1.639779492696620e-3
        1.680400770480506e-3 1.722005188402654e-3 1.764615351450788e-3 1.808254322399926e-3
        1.852945627733799e-3 1.898713263441038e-3 1.945581700669989e-3 1.993575891225146e-3
        2.042721272887030e-3 2.093043774536362e-3 2.144569821062225e-3 2.197326338032657e-3
        2.251340756105039e-3 2.306641015152157e-3 2.363255568078610e-3 2.421213384300755e-3
        2.480543952861868e-3 2.541277285152783e-3 2.603443917206482e-3 2.667074911533582e-3
        2.732201858463821e-3 2.798856876956806e-3 2.867072614843477e-3 2.936882248457634e-3
        3.008319481614884e-3 3.081418543894210e-3 3.156214188175043e-3 3.232741687380543e-3
        3.311036830375270e-3 3.391135916962931e-3 3.473075751927352e-3 3.556893638057043e-3
        3.642627368091055e-3 3.730315215520819e-3 3.819995924179741e-3 3.911708696549271e-3
        4.005493180706844e-3 4.101389455838014e-3 4.199438016231524e-3 4.299679753672681e-3
        4.402155938146804e-3 4.506908196760719e-3 4.613978490786742e-3 4.723409090729423e-3
        4.835242549311546e-3 4.949521672271819e-3 5.066289486862352e-3 5.185589207930146e-3
        5.307464201462149e-3 5.431957945469362e-3 5.559113988080905e-3 5.688975902714454e-3
        5.821587240185173e-3 5.956991477610408e-3 6.095231963963107e-3 6.236351862122307e-3
        6.380394087264301e-3 6.527401241433978e-3 6.677415544130949e-3 6.830478758740988e-3
        6.986632114638903e-3 7.145916224784736e-3 7.308370998631393e-3 7.474035550157744e-3
        7.642948100837788e-3 7.815145877353030e-3 7.990665003852383e-3 8.169540388560764e-3
        8.351805604535887e-3 8.537492764370297e-3 8.726632388634686e-3 8.919253267857680e-3
        9.115382317836922e-3 9.315044428077192e-3 9.518262303152259e-3 9.725056296789553e-3
        9.935444238479823e-3 1.014944125241800e-2 1.036705956858706e-2 1.058830832580294e-2
        1.081319336654676e-2 1.104171702341979e-2 1.127387789706762e-2 1.150967062543325e-2
        1.174908564421254e-2 1.199210893840323e-2 1.223872178485691e-2 1.248890048576477e-2
        1.274261609303215e-2 1.299983412352303e-2 1.326051426518533e-2 1.352461007410064e-2
        1.379206866253759e-2 1.406283037812808e-2 1.433682847432862e-2 1.461398877237637e-2
        1.489422931500137e-2 1.517746001221178e-2 1.546358227953102e-2 1.575248866913021e-2
        1.604406249437138e-2 1.633817744835299e-2 1.663469721713182e-2 1.693347508838373e-2
        1.723435355636048e-2 1.753716392410045e-2 1.784172590395988e-2 1.814784721764492e-2
        1.845532319704789e-2 1.876393638731939e-2 1.907345615374526e-2 1.938363829414140e-2
        1.969422465863133e-2 2.000494277883117e-2 2.031550550863375e-2 2.062561067895857e-2
        2.093494076901652e-2 2.124316259682757e-2 2.154992703192647e-2 2.185486873339404e-2
        2.215760591656054e-2 2.245774015194211e-2 2.275485620018975e-2 2.304852188705338e-2
        2.333828802258817e-2 2.362368836905719e-2 2.390423966221097e-2 2.417944169084890e-2
        2.444877743978923e-2 2.471171330158936e-2 2.496769936256564e-2 2.521616976885872e-2
        2.545654317847283e-2 2.568822330538382e-2 2.591059956195558e-2 2.612304780602500e-2
        2.632493119910754e-2 2.651560118223276e-2 2.669439857593879e-2 2.686065481092888e-2
        2.701369329581747e-2 2.715283092826088e-2 2.727737975557144e-2 2.738664879064755e-2
        2.747994598870663e-2 2.755658038987712e-2 2.761586443217943e-2 2.765711643879703e-2
        2.767966328279811e-2 2.768284323160572e-2 2.766600897252347e-2 2.762853081949175e-2
        2.756980009997116e-2 2.748923271941407e-2 2.738627289918415e-2 2.726039708201095e-2
        2.711111799711401e-2 2.693798887499335e-2 2.674060779955649e-2 2.651862218273324e-2
        2.627173334401780e-2 2.599970117447535e-2 2.570234886166074e-2 2.537956764862932e-2
        2.503132159678408e-2 2.465765231871587e-2 2.425868364347518e-2 2.383462617288912e-2
        2.338578168363842e-2 2.291254732587561e-2 2.241541956524026e-2 2.189499781126513e-2
        2.135198767142984e-2 2.078720376657476e-2 2.020157204012048e-2 1.959613149063406e-2
        1.897203525484431e-2 1.833055096634504e-2 1.767306031405662e-2 1.700105772417711e-2
        1.631614808998218e-2 1.562004347558030e-2 1.491455872275560e-2 1.420160589449626e-2
        1.348318749488725e-2 1.276138841290798e-2 1.203836654749285e-2 1.131634208315139e-2
        1.059758539965686e-2 9.884403615948163e-3 9.179125787560750e-3 8.484086798707908e-3
        7.801610014628658e-3 7.133988787010055e-3 6.483466935141953e-3 5.852218357853039e-3
        5.242325966021006e-3 4.655760162266693e-3 4.094357132937327e-3 3.559797257160020e-3
        3.053583977955010e-3 2.577023520354490e-3 2.131205880228766e-3 1.716987543952387e-3
        1.334976431850212e-3 9.855195860466354e-4 6.686941442189563e-4 3.843021529462463e-4
        1.318697757847270e-4 -8.934856034045410e-5 -2.803605637392379e-4 -4.424205496178033e-4
        -5.770075780046692e-4 -6.857969392489206e-4 -7.706247819224741e-4 -8.334458192208825e-4
        -8.762842209737981e-4 -9.011780007582761e-4 -9.101174423769322e-4 -9.049783774056976e-4
        -8.874514249559462e-4 -8.589686344023379e-4 -8.206293283634178e-4 -7.731273218073952e-4
        -7.170347494778184e-4 -6.540042541679503e-4 -5.860290482106456e-4 -5.151118336016447e-4
        -4.432324204711735e-4 -3.723112593205236e-4 -3.041687042965036e-4 -2.404798416166809e-4
        -1.827247387057307e-4 -1.321339963195056e-4 -8.962951877539149e-5 -5.576045717425870e-5
        -3.063432832495216e-5 -1.384336898702099e-5 -4.386252423882464e-6 -5.853733676119965e-7
        -1.665334536937735e-16 0.000000000000000e0 0.000000000000000e0 0.000000000000000e0
        0.000000000000000e0 0.000000000000000e0 0.000000000000000e0 0.000000000000000e0
        0.000000000000000e0 0.000000000000000e0 0.000000000000000e0 0.000000000000000e0
        0.000000000000000e0 0.000000000000000e0 0.000000000000000e0 0.000000000000000e0
        0.000000000000000e0 0.000000000000000e0 0.000000000000000e0 0.000000000000000e0
        0.000000000000000e0 0.000000000000000e0 0.000000000000000e0 0.000000000000000e0
        0.000000000000000e0 0.000000000000000e0 0.000000000000000e0 0.000000000000000e0
        0.000000000000000e0 0.000000000000000e0 0.000000000000000e0 0.000000000000000e0
        0.000000000000000e0 0.000000000000000e0 0.000000000000000e0 0.000000000000000e0
        0.000000000000000e0 0.000000000000000e0 0.000000000000000e0 0.000000000000000e0
        0.000000000000000e0 0.000000000000000e0 0.000000000000000e0 0.000000000000000e0
        0.000000000000000e0 0.000000000000000e0 0.000000000000000e0 0.000000000000000e0
        0.000000000000000e0 0.000000000000000e0 0.000000000000000e0 0.000000000000000e0
        0.000000000000000e0 0.000000000000000e0 0.000000000000000e0 0.000000000000000e0
        0.000000000000000e0 0.000000000000000e0 0.000000000000000e0 0.000000000000000e0
        0.000000000000000e0 0.000000000000000e0 0.000000000000000e0 0.000000000000000e0
        0.000000000000000e0 0.000000000000000e0 0.000000000000000e0 0.000000000000000e0
        0.000000000000000e0 0.000000000000000e0 0.000000000000000e0 0.000000000000000e0
        0.000000000000000e0 0.000000000000000e0 0.000000000000000e0 0.000000000000000e0
        0.000000000000000e0 0.000000000000000e0 0.000000000000000e0 0.000000000000000e0
        0.000000000000000e0 0.000000000000000e0 0.000000000000000e0 0.000000000000000e0
        0.000000000000000e0 0.000000000000000e0 0.000000000000000e0 0.000000000000000e0
        0.000000000000000e0 0.000000000000000e0 0.000000000000000e0 0.000000000000000e0
        0.000000000000000e0 0.000000000000000e0 0.000000000000000e0 0.000000000000000e0
        0.000000000000000e0 0.000000000000000e0 0.000000000000000e0 0.000000000000000e0
        0.000000000000000e0 0.000000000000000e0 0.000000000000000e0 0.000000000000000e0
        0.000000000000000e0 0.000000000000000e0 0.000000000000000e0 0.000000000000000e0
        0.000000000000000e0 0.000000000000000e0 0.000000000000000e0 0.000000000000000e0
        0.000000000000000e0 0.000000000000000e0 0.000000000000000e0 0.000000000000000e0
        0.000000000000000e0 0.000000000000000e0 0.000000000000000e0 0.000000000000000e0
        0.000000000000000e0 0.000000000000000e0 0.000000000000000e0 0.000000000000000e0
        0.000000000000000e0 0.000000000000000e0 0.000000000000000e0 0.000000000000000e0
        0.000000000000000e0 0.000000000000000e0 0.000000000000000e0 0.000000000000000e0
        0.000000000000000e0 0.000000000000000e0 0.000000000000000e0 0.000000000000000e0
        0.000000000000000e0 0.000000000000000e0 0.000000000000000e0 0.000000000000000e0
        0.000000000000000e0 0.000000000000000e0 0.000000000000000e0 0.000000000000000e0
        0.000000000000000e0 0.000000000000000e0 0.000000000000000e0 0.000000000000000e0
        0.000000000000000e0 0.000000000000000e0 0.000000000000000e0 0.000000000000000e0
        0.000000000000000e0 0.000000000000000e0 0.000000000000000e0 0.000000000000000e0
        0.000000000000000e0 0.000000000000000e0 0.000000000000000e0 0.000000000000000e0
        0.000000000000000e0 0.000000000000000e0 0.000000000000000e0 0.000000000000000e0
        0.000000000000000e0 0.000000000000000e0 0.000000000000000e0 0.000000000000000e0
        0.000000000000000e0 0.000000000000000e0 0.000000000000000e0 0.000000000000000e0
        0.000000000000000e0 0.000000000000000e0 0.000000000000000e0 0.000000000000000e0
        0.000000000000000e0 0.000000000000000e0 0.000000000000000e0 0.000000000000000e0
        0.000000000000000e0 0.000000000000000e0 0.000000000000000e0 0.000000000000000e0
        0.000000000000000e0 0.000000000000000e0 0.000000000000000e0 0.000000000000000e0
        0.000000000000000e0 0.000000000000000e0 0.000000000000000e0 0.000000000000000e0
        0.000000000000000e0 0.000000000000000e0 0.000000000000000e0 0.000000000000000e0
        0.000000000000000e0 0.000000000000000e0 0.000000000000000e0 0.000000000000000e0
        0.000000000000000e0 0.000000000000000e0 0.000000000000000e0 0.000000000000000e0
        0.000000000000000e0 0.000000000000000e0 0.000000000000000e0 0.000000000000000e0
        0.000000000000000e0 0.000000000000000e0 0.000000000000000e0 0.000000000000000e0
        0.000000000000000e0 0.000000000000000e0 0.000000000000000e0 0.000000000000000e0
        0.000000000000000e0 0.000000000000000e0 0.000000000000000e0 0.000000000000000e0
        0.000000000000000e0 0.000000000000000e0 0.000000000000000e0 0.000000000000000e0
        0.000000000000000e0 0.000000000000000e0 0.000000000000000e0 0.000000000000000e0
        0.000000000000000e0 0.000000000000000e0 0.000000000000000e0 0.000000000000000e0
        0.000000000000000e0 0.000000000000000e0 0.000000000000000e0 0.000000000000000e0
        0.000000000000000e0 0.000000000000000e0 0.000000000000000e0 0.000000000000000e0
        0.000000000000000e0 0.000000000000000e0 0.000000000000000e0 0.000000000000000e0
        0.000000000000000e0 0.000000000000000e0 0.000000000000000e0 0.000000000000000e0
        0.000000000000000e0 0.000000000000000e0 0.000000000000000e0 0.000000000000000e0
        0.000000000000000e0 0.000000000000000e0 0.000000000000000e0 0.000000000000000e0
        0.000000000000000e0 0.000000000000000e0 0.000000000000000e0 0.000000000000000e0
        0.000000000000000e0 0.000000000000000e0 0.000000000000000e0 0.000000000000000e0
        0.000000000000000e0 0.000000000000000e0 0.000000000000000e0 0.000000000000000e0
        0.000000000000000e0 0.000000000000000e0 0.000000000000000e0 0.000000000000000e0
        0.000000000000000e0 0.000000000000000e0 0.000000000000000e0 0.000000000000000e0
        0.000000000000000e0 0.000000000000000e0 0.000000000000000e0 0.000000000000000e0
        0.000000000000000e0 0.000000000000000e0 0.000000000000000e0 0.000000000000000e0
        0.000000000000000e0 0.000000000000000e0 0.000000000000000e0 0.000000000000000e0
        0.000000000000000e0 0.000000000000000e0 0.000000000000000e0 0.000000000000000e0
        0.000000000000000e0 0.000000000000000e0 0.000000000000000e0 0.000000000000000e0
        0.000000000000000e0 0.000000000000000e0 0.000000000000000e0 0.000000000000000e0
        0.000000000000000e0 0.000000000000000e0 0.000000000000000e0 0.000000000000000e0
        0.000000000000000e0 0.000000000000000e0 0.000000000000000e0 0.000000000000000e0
        0.000000000000000e0 0.000000000000000e0 0.000000000000000e0 0.000000000000000e0
        0.000000000000000e0 0.000000000000000e0 0.000000000000000e0 0.000000000000000e0
        0.000000000000000e0 0.000000000000000e0 0.000000000000000e0 0.000000000000000e0
        0.000000000000000e0 0.000000000000000e0 0.000000000000000e0 0.000000000000000e0
        0.000000000000000e0 0.000000000000000e0 0.000000000000000e0 0.000000000000000e0
        0.000000000000000e0 0.000000000000000e0 0.000000000000000e0 0.000000000000000e0
        0.000000000000000e0 0.000000000000000e0 0.000000000000000e0 0.000000000000000e0
        0.000000000000000e0 0.000000000000000e0 0.000000000000000e0 0.000000000000000e0
        0.000000000000000e0 0.000000000000000e0 0.000000000000000e0 0.000000000000000e0
        0.000000000000000e0 0.000000000000000e0 0.000000000000000e0 0.000000000000000e0
        0.000000000000000e0 0.000000000000000e0 0.000000000000000e0 0.000000000000000e0
        0.000000000000000e0 0.000000000000000e0 0.000000000000000e0 0.000000000000000e0
        0.000000000000000e0 0.000000000000000e0 0.000000000000000e0 0.000000000000000e0
        0.000000000000000e0 0.000000000000000e0 0.000000000000000e0 0.000000000000000e0
        0.000000000000000e0 0.000000000000000e0 0.000000000000000e0 0.000000000000000e0
        0.000000000000000e0
        </PP_QIJL.1.1.0>
      <PP_QIJL.1.2.0 first_index="1" second_index="2" composite_index="2" angular_momentum="0">
        5.615866686580007e-7 5.758031991400640e-7 5.903796174869029e-7 6.053250340305395e-7
        6.206487897181733e-7 6.363604619495089e-7 6.524698705618313e-7 6.689870839665485e-7
        6.859224254410412e-7 7.032864795797565e-7 7.210900989085522e-7 7.393444106664500e-7
        7.580608237590150e-7 7.772510358877074e-7 7.969270408596660e-7 8.171011360824709e-7
        8.377859302485863e-7 8.589943512142707e-7 8.807396540778679e-7 9.030354294625473e-7
        9.258956120086276e-7 9.493344890808210e-7 9.733667096958175e-7 9.980072936757853e-7
        1.023271641033506e-6 1.049175541594991e-6 1.075735184865606e-6 1.102967170145851e-6
        1.130888516903106e-6 1.159516675405830e-6 1.188869537626841e-6 1.218965448422479e-6
        1.249823216994654e-6 1.281462128642888e-6 1.313901956813749e-6 1.347162975455118e-6
        1.381265971683080e-6 1.416232258769280e-6 1.452083689456885e-6 1.488842669613456e-6
        1.526532172229219e-6 1.565175751769520e-6 1.604797558890372e-6 1.645422355526307e-6
        1.687075530359936e-6 1.729783114682836e-6 1.773571798657722e-6 1.818468947991994e-6
        1.864502621033076e-6 1.911701586296226e-6 1.960095340435701e-6 2.009714126670548e-6
        2.060588953676470e-6 2.112751614955538e-6 2.166234708695891e-6 2.221071658133691e-6
        2.277296732430163e-6 2.334945068076631e-6 2.394052690840939e-6 2.454656538268947e-6
        2.516794482755060e-6 2.580505355196277e-6 2.645828969244389e-6 2.712806146171520e-6
        2.781478740364482e-6 2.851889665463768e-6 2.924082921163582e-6 2.998103620689506e-6
        3.073998018970948e-6 3.151813541525958e-6 3.231598814076306e-6 3.313403692911375e-6
        3.397279296019700e-6 3.483278035007548e-6 3.571453647824473e-6 3.661861232316077e-6
        3.754557280625018e-6 3.849599714461593e-6 3.947047921265820e-6 4.046962791283610e-6
        4.149406755579981e-6 4.254443825013055e-6 4.362139630193055e-6 4.472561462451092e-6
        4.585778315843346e-6 4.701860930216586e-6 4.820881835361966e-6 4.942915396284443e-6
        5.068037859615979e-6 5.196327401201394e-6 5.327864174886349e-6 5.462730362537897e-6
        5.601010225328569e-6 5.742790156315868e-6 5.888158734349886e-6 6.037206779342343e-6
        6.190027408931583e-6 6.346716096578477e-6 6.507370731129464e-6 6.672091677883547e-6
        6.840981841201130e-6 7.014146728693651e-6 7.191694517033653e-6 7.373736119426180e-6
        7.560385254783317e-6 7.751758518644605e-6 7.947975455887489e-6 8.149158635272615e-6
        8.355433725870288e-6 8.566929575415351e-6 8.783778290638866e-6 9.006115319626515e-6
        9.234079536254526e-6 9.467813326755349e-6 9.707462678466680e-6 9.953177270818513e-6
        1.020511056861467e-5 1.046341991766631e-5 1.072826664283637e-5 1.099981614855576e-5
        1.127823802187301e-5 1.156370613810110e-5 1.185639876912676e-5 1.215649869444871e-5
        1.246419331501366e-5 1.277967476991973e-5 1.310314005605962e-5 1.343479115077694e-5
        1.377483513761119e-5 1.412348433520891e-5 1.448095642947991e-5 1.484747460908027e-5
        1.522326770430503e-5 1.560857032947588e-5 1.600362302891156e-5 1.640867242656995e-5
        1.682397137945420e-5 1.724977913487670e-5 1.768636149167707e-5 1.813399096549325e-5
        1.859294695818642e-5 1.906351593152374e-5 1.954599158522491e-5 2.004067503948135e-5
        2.054787502205961e-5 2.106790806010268e-5 2.160109867674700e-5 2.214777959267432e-5
        2.270829193272131e-5 2.328298543767317e-5 2.387221868136919e-5 2.447635929325310e-5
        2.509578418650284e-5 2.573087979187839e-5 2.638204229742978e-5 2.704967789420964e-5
        2.773420302814033e-5 2.843604465818718e-5 2.915564052099397e-5 2.989343940214113e-5
        3.064990141418936e-5 3.142549828167728e-5 3.222071363324416e-5 3.303604330105383e-5
        3.387199562769980e-5 3.472909178077511e-5 3.560786607529767e-5 3.650886630418141e-5
        3.743265407695379e-5 3.837980516692094e-5 3.935090986698691e-5 4.034657335434214e-5
        4.136741606423488e-5 4.241407407305081e-5 4.348719949092734e-5 4.458746086413507e-5
        4.571554358746708e-5 4.687215032687702e-5 4.805800145261871e-5 4.927383548314147e-5
        5.052040954000210e-5 5.179849981406369e-5 5.310890204325180e-5 5.445243200215096e-5
        5.582992600372721e-5 5.724224141346832e-5 5.869025717624559e-5 6.017487435619932e-5
        6.169701668996521e-5 6.325763115356181e-5 6.485768854326524e-5 6.649818407081104e-5
        6.818013797326130e-5 6.990459613789193e-5 7.167263074245714e-5 7.348534091119662e-5
        7.534385338696397e-5 7.724932321985473e-5 7.920293447272910e-5 8.120590094402900e-5
        8.325946690829458e-5 8.536490787480549e-5 8.752353136476431e-5 8.973667770746571e-5
        9.200572085589307e-5 9.433206922219572e-5 9.671716653351659e-5 9.916249270863753e-5
        1.016695647559312e-4 1.042399376931127e-4 1.068752054892910e-4 1.095770020298431e-4
        1.123470021046264e-4 1.151869224200720e-4 1.180985226357030e-4 1.210836064256316e-4
        1.241440225656126e-4 1.272816660462199e-4 1.304984792127480e-4 1.337964529324350e-4
        1.371776277896182e-4 1.406440953094565e-4 1.441979992108438e-4 1.478415366891720e-4
        1.515769597295998e-4 1.554065764514958e-4 1.593327524847493e-4 1.633579123786330e-4
        1.674845410439342e-4 1.717151852290729e-4 1.760524550309319e-4 1.804990254411564e-4
        1.850576379286621e-4 1.897311020591353e-4 1.945222971522960e-4 1.994341739777136e-4
        2.044697564899907e-4 2.096321436041131e-4 2.149245110118061e-4 2.203501130397298e-4
        2.259122845503551e-4 2.316144428863985e-4 2.374600898596609e-4 2.434528137851726e-4
        2.495962915615234e-4 2.558942907982784e-4 2.623506719913941e-4 2.689693907475458e-4
        2.757545000582970e-4 2.827101526250457e-4 2.898406032356808e-4 2.971502111939077e-4
        3.046434428021843e-4 3.123248738992352e-4 3.201991924531018e-4 3.282712012106924e-4
        3.365458204048069e-4 3.450280905195966e-4 3.537231751154360e-4 3.626363637141733e-4
        3.717730747457197e-4 3.811388585569514e-4 3.907394004838677e-4 4.005805239879690e-4
        4.106681938577882e-4 4.210085194765060e-4 4.316077581565797e-4 4.424723185422751e-4
        4.536087640810046e-4 4.650238165643330e-4 4.767243597394982e-4 4.887174429922779e-4
        5.010102851019901e-4 5.136102780694024e-4 5.265249910182817e-4 5.397621741712771e-4
        5.533297629008032e-4 5.672358818555247e-4 5.814888491630192e-4 5.960971807091267e-4
        6.110695944944355e-4 6.264150150683130e-4 6.421425780407942e-4 6.582616346725942e-4
        6.747817565434198e-4 6.917127402986658e-4 7.090646124745183e-4 7.268476344013466e-4
        7.450723071852100e-4 7.637493767671599e-4 7.828898390599014e-4 8.025049451612814e-4
        8.226062066438832e-4 8.432054009199128e-4 8.643145766803755e-4 8.859460594073765e-4
        9.081124569582288e-4 9.308266652198265e-4 9.541018738315760e-4 9.779515719749492e-4
        1.002389554227488e-3 1.027429926478880e-3 1.053087111906444e-3 1.079375857007097e-3
        1.106311237682624e-3 1.133908665374712e-3 1.162183893245948e-3 1.191153022402601e-3
        1.220832508154680e-3 1.251239166308366e-3 1.282390179485509e-3 1.314303103464507e-3
        1.346995873536361e-3 1.380486810869310e-3 1.414794628874920e-3 1.449938439567948e-3
        1.485937759911845e-3 1.522812518141066e-3 1.560583060050851e-3 1.599270155244448e-3
        1.638895003327052e-3 1.679479240035120e-3 1.721044943288844e-3 1.763614639154922e-3
        1.807211307705821e-3 1.851858388760976e-3 1.897579787494339e-3 1.944399879891883e-3
        1.992343518041566e-3 2.041436035237243e-3 2.091703250876967e-3 2.143171475134876e-3
        2.195867513384806e-3 2.249818670352370e-3 2.305052753971034e-3 2.361598078916324e-3
        2.419483469790797e-3 2.478738263931056e-3 2.539392313806376e-3 2.601475988976974e-3
        2.665020177578223e-3 2.730056287295293e-3 2.796616245790977e-3 2.864732500547378e-3
        2.934438018080244e-3 3.005766282482622e-3 3.078751293252254e-3 3.153427562355067e-3
        3.229830110474552e-3 3.307994462394554e-3 3.387956641460413e-3 3.469753163060752e-3
        3.553421027069598e-3 3.638997709185601e-3 3.726521151102311e-3 3.816029749440435e-3
        3.907562343369857e-3 4.001158200846138e-3 4.096857003382786e-3 4.194698829277245e-3
        4.294724135205147e-3 4.396973736093550e-3 4.501488783180545e-3 4.608310740164531e-3
        4.717481357342731e-3 4.829042643634641e-3 4.943036836381795e-3 5.059506368811515e-3
        5.178493835047721e-3 5.300041952547907e-3 5.424193521840924e-3 5.550991383435826e-3
        5.680478371767800e-3 5.812697266042486e-3 5.947690737835777e-3 6.085501295301588e-3
        6.226171223835557e-3 6.369742523038465e-3 6.516256839818480e-3 6.665755397467182e-3
        6.818278920540078e-3 6.973867555368068e-3 7.132560786022592e-3 7.294397345553144e-3
        7.459415122312390e-3 7.627651061180702e-3 7.799141059498957e-3 7.973919857515442e-3
        8.152020923150783e-3 8.333476330882389e-3 8.518316634548729e-3 8.706570733872782e-3
        8.898265734503454e-3 9.093426801374470e-3 9.292077005180948e-3 9.494237161775953e-3
        9.699925664292188e-3 9.909158307797416e-3 1.012194810629768e-2 1.033830510190791e-2
        1.055823616601721e-2 1.078174479228494e-2 1.100883088131368e-2 1.123949051685792e-2
        1.147371573344037e-2 1.171149427526419e-2 1.195280934632716e-2 1.219763935166375e-2
        1.244595762966440e-2 1.269773217544598e-2 1.295292535527565e-2 1.321149361208188e-2
        1.347338716212003e-2 1.373854968289846e-2 1.400691799251190e-2 1.427842172057447e-2
        1.455298297099423e-2 1.483051597688432e-2 1.511092674796493e-2 1.539411271087284e-2
        1.567996234286377e-2 1.596835479946643e-2 1.625915953672604e-2 1.655223592876058e-2
        1.684743288144348e-2 1.714458844312440e-2 1.744352941340326e-2 1.774407095108339e-2
        1.804601618254760e-2 1.834915581192517e-2 1.865326773455017e-2 1.895811665535060e-2
        1.926345371395482e-2 1.956901611845620e-2 1.987452678993844e-2 2.017969402003394e-2
        2.048421114396354e-2 2.078775623169014e-2 2.108999180000970e-2 2.139056454859930e-2
        2.168910512324605e-2 2.198522790968873e-2 2.227853086171717e-2 2.256859536739222e-2
        2.285498615746832e-2 2.313725126032296e-2 2.341492200791922e-2 2.368751309754790e-2
        2.395452271431430e-2 2.421543271954661e-2 2.446970891050866e-2 2.471680135699529e-2
        2.495614482057112e-2 2.518715926238099e-2 2.540925044560758e-2 2.562181063877658e-2
        2.582421942620682e-2 2.601584463196862e-2 2.619604336374177e-2 2.636416318295178e-2
        2.651954340750106e-2 2.666151655329723e-2 2.678940992060399e-2 2.690254733099790e-2
        2.700025102039501e-2 2.708184369321156e-2 2.714665074223086e-2 2.719400263815884e-2
        2.722323749215210e-2 2.723370379378877e-2 2.722476332601210e-2 2.719579425750373e-2
        2.714619441172623e-2 2.707538471050610e-2 2.698281278850063e-2 2.686795677319571e-2
        2.673032922321195e-2 2.656948121564598e-2 2.638500657093850e-2 2.617654620133729e-2
        2.594379256641121e-2 2.568649421626991e-2 2.540446040015965e-2 2.509756571494109e-2
        2.476575476462561e-2 2.440904679866138e-2 2.402754029304173e-2 2.362141743457950e-2
        2.319094846487875e-2 2.273649583668029e-2 2.225851813139851e-2 2.175757368285522e-2
        2.123432384851293e-2 2.068953586597640e-2 2.012408522925063e-2 1.953895751629625e-2
        1.893524959690711e-2 1.831417014795885e-2 1.767703940175165e-2 1.702528805262977e-2
        1.636045524743543e-2 1.568418558679416e-2 1.499822506688798e-2 1.430441589541032e-2
        1.360469012098248e-2 1.290106202261378e-2 1.219561921497471e-2 1.149051243649483e-2
        1.078794400074612e-2 1.009015490738325e-2 9.399410627201410e-3 8.717985596748756e-3
        8.048146481459071e-3 7.392134292474894e-3 6.752145471191142e-3 6.130312086968724e-3
        5.528681327288899e-3 4.949194495589470e-3 4.393665769790919e-3 3.863761013624802e-3
        3.360976972718935e-3 2.886621227243620e-3 2.441793311887209e-3 2.027367450948995e-3
        1.643977390175391e-3 1.292003836196499e-3 9.715650374258383e-4 6.825110552597908e-4
        4.244222793541438e-4 1.966127334958054e-4 -1.861303202674476e-6 -1.721868738261533e-4
        -3.157736922187737e-4 -4.342269152550048e-4 -5.293130964199918e-4 -6.029192101911582e-4
        -6.570047977022836e-4 -6.935474760356129e-4 -7.144822774800535e-4 -7.216355417985366e-4
        -7.166543736631565e-4 -7.009329975707235e-4 -6.755376910560739e-4 -6.411323496399134e-4
        -5.982412152867322e-4 -5.483909712082347e-4 -4.934235141473842e-4 -4.351849578948519e-4
        -3.754958270387188e-4 -3.161178056165781e-4 -2.587169504135733e-4 -2.048233045592873e-4
        -1.557868779007432e-4 -1.127299970208884e-4 -7.649607039228457e-5 -4.759486371519461e-5
        -2.614443785486920e-5 -1.180996781446897e-5 -3.739736878560773e-6 -4.986864143297076e-7
        -5.551115123125783e-17 0.000000000000000e0 0.000000000000000e0 0.000000000000000e0
        0.000000000000000e0 0.000000000000000e0 0.000000000000000e0 0.000000000000000e0
        0.000000000000000e0 0.000000000000000e0 0.000000000000000e0 0.000000000000000e0
        0.000000000000000e0 0.000000000000000e0 0.000000000000000e0 0.000000000000000e0
        0.000000000000000e0 0.000000000000000e0 0.000000000000000e0 0.000000000000000e0
        0.000000000000000e0 0.000000000000000e0 0.000000000000000e0 0.000000000000000e0
        0.000000000000000e0 0.000000000000000e0 0.000000000000000e0 0.000000000000000e0
        0.000000000000000e0 0.000000000000000e0 0.000000000000000e0 0.000000000000000e0
        0.000000000000000e0 0.000000000000000e0 0.000000000000000e0 0.000000000000000e0
        0.000000000000000e0 0.000000000000000e0 0.000000000000000e0 0.000000000000000e0
        0.000000000000000e0 0.000000000000000e0 0.000000000000000e0 0.000000000000000e0
        0.000000000000000e0 0.000000000000000e0 0.000000000000000e0 0.000000000000000e0
        0.000000000000000e0 0.000000000000000e0 0.000000000000000e0 0.000000000000000e0
        0.000000000000000e0 0.000000000000000e0 0.000000000000000e0 0.000000000000000e0
        0.000000000000000e0 0.000000000000000e0 0.000000000000000e0 0.000000000000000e0
        0.000000000000000e0 0.000000000000000e0 0.000000000000000e0 0.000000000000000e0
        0.000000000000000e0 0.000000000000000e0 0.000000000000000e0 0.000000000000000e0
        0.000000000000000e0 0.000000000000000e0 0.000000000000000e0 0.000000000000000e0
        0.000000000000000e0 0.000000000000000e0 0.000000000000000e0 0.000000000000000e0
        0.000000000000000e0 0.000000000000000e0 0.000000000000000e0 0.000000000000000e0
        0.000000000000000e0 0.000000000000000e0 0.000000000000000e0 0.000000000000000e0
        0.000000000000000e0 0.000000000000000e0 0.000000000000000e0 0.000000000000000e0
        0.000000000000000e0 0.000000000000000e0 0.000000000000000e0 0.000000000000000e0
        0.000000000000000e0 0.000000000000000e0 0.000000000000000e0 0.000000000000000e0
        0.000000000000000e0 0.000000000000000e0 0.000000000000000e0 0.000000000000000e0
        0.000000000000000e0 0.000000000000000e0 0.000000000000000e0 0.000000000000000e0
        0.000000000000000e0 0.000000000000000e0 0.000000000000000e0 0.000000000000000e0
        0.000000000000000e0 0.000000000000000e0 0.000000000000000e0 0.000000000000000e0
        0.000000000000000e0 0.000000000000000e0 0.000000000000000e0 0.000000000000000e0
        0.000000000000000e0 0.000000000000000e0 0.000000000000000e0 0.000000000000000e0
        0.000000000000000e0 0.000000000000000e0 0.000000000000000e0 0.000000000000000e0
        0.000000000000000e0 0.000000000000000e0 0.000000000000000e0 0.000000000000000e0
        0.000000000000000e0 0.000000000000000e0 0.000000000000000e0 0.000000000000000e0
        0.000000000000000e0 0.000000000000000e0 0.000000000000000e0 0.000000000000000e0
        0.000000000000000e0 0.000000000000000e0 0.000000000000000e0 0.000000000000000e0
        0.000000000000000e0 0.000000000000000e0 0.000000000000000e0 0.000000000000000e0
        0.000000000000000e0 0.000000000000000e0 0.000000000000000e0 0.000000000000000e0
        0.000000000000000e0 0.000000000000000e0 0.000000000000000e0 0.000000000000000e0
        0.000000000000000e0 0.000000000000000e0 0.000000000000000e0 0.000000000000000e0
        0.000000000000000e0 0.000000000000000e0 0.000000000000000e0 0.000000000000000e0
        0.000000000000000e0 0.000000000000000e0 0.000000000000000e0 0.000000000000000e0
        0.000000000000000e0 0.000000000000000e0 0.000000000000000e0 0.000000000000000e0
        0.000000000000000e0 0.000000000000000e0 0.000000000000000e0 0.000000000000000e0
        0.000000000000000e0 0.000000000000000e0 0.000000000000000e0 0.000000000000000e0
        0.000000000000000e0 0.000000000000000e0 0.000000000000000e0 0.000000000000000e0
        0.000000000000000e0 0.000000000000000e0 0.000000000000000e0 0.000000000000000e0
        0.000000000000000e0 0.000000000000000e0 0.000000000000000e0 0.000000000000000e0
        0.000000000000000e0 0.000000000000000e0 0.000000000000000e0 0.000000000000000e0
        0.000000000000000e0 0.000000000000000e0 0.000000000000000e0 0.000000000000000e0
        0.000000000000000e0 0.000000000000000e0 0.000000000000000e0 0.000000000000000e0
        0.000000000000000e0 0.000000000000000e0 0.000000000000000e0 0.000000000000000e0
        0.000000000000000e0 0.000000000000000e0 0.000000000000000e0 0.000000000000000e0
        0.000000000000000e0 0.000000000000000e0 0.000000000000000e0 0.000000000000000e0
        0.000000000000000e0 0.000000000000000e0 0.000000000000000e0 0.000000000000000e0
        0.000000000000000e0 0.000000000000000e0 0.000000000000000e0 0.000000000000000e0
        0.000000000000000e0 0.000000000000000e0 0.000000000000000e0 0.000000000000000e0
        0.000000000000000e0 0.000000000000000e0 0.000000000000000e0 0.000000000000000e0
        0.000000000000000e0 0.000000000000000e0 0.000000000000000e0 0.000000000000000e0
        0.000000000000000e0 0.000000000000000e0 0.000000000000000e0 0.000000000000000e0
        0.000000000000000e0 0.000000000000000e0 0.000000000000000e0 0.000000000000000e0
        0.000000000000000e0 0.000000000000000e0 0.000000000000000e0 0.000000000000000e0
        0.000000000000000e0 0.000000000000000e0 0.000000000000000e0 0.000000000000000e0
        0.000000000000000e0 0.000000000000000e0 0.000000000000000e0 0.000000000000000e0
        0.000000000000000e0 0.000000000000000e0 0.000000000000000e0 0.000000000000000e0
        0.000000000000000e0 0.000000000000000e0 0.000000000000000e0 0.000000000000000e0
        0.000000000000000e0 0.000000000000000e0 0.000000000000000e0 0.000000000000000e0
        0.000000000000000e0 0.000000000000000e0 0.000000000000000e0 0.000000000000000e0
        0.000000000000000e0 0.000000000000000e0 0.000000000000000e0 0.000000000000000e0
        0.000000000000000e0 0.000000000000000e0 0.000000000000000e0 0.000000000000000e0
        0.000000000000000e0 0.000000000000000e0 0.000000000000000e0 0.000000000000000e0
        0.000000000000000e0 0.000000000000000e0 0.000000000000000e0 0.000000000000000e0
        0.000000000000000e0 0.000000000000000e0 0.000000000000000e0 0.000000000000000e0
        0.000000000000000e0 0.000000000000000e0 0.000000000000000e0 0.000000000000000e0
        0.000000000000000e0 0.000000000000000e0 0.000000000000000e0 0.000000000000000e0
        0.000000000000000e0 0.000000000000000e0 0.000000000000000e0 0.000000000000000e0
        0.000000000000000e0 0.000000000000000e0 0.000000000000000e0 0.000000000000000e0
        0.000000000000000e0 0.000000000000000e0 0.000000000000000e0 0.000000000000000e0
        0.000000000000000e0 0.000000000000000e0 0.000000000000000e0 0.000000000000000e0
        0.000000000000000e0 0.000000000000000e0 0.000000000000000e0 0.000000000000000e0
        0.000000000000000e0 0.000000000000000e0 0.000000000000000e0 0.000000000000000e0
        0.000000000000000e0 0.000000000000000e0 0.000000000000000e0 0.000000000000000e0
        0.000000000000000e0 0.000000000000000e0 0.000000000000000e0 0.000000000000000e0
        0.000000000000000e0 0.000000000000000e0 0.000000000000000e0 0.000000000000000e0
        0.000000000000000e0 0.000000000000000e0 0.000000000000000e0 0.000000000000000e0
        0.000000000000000e0 0.000000000000000e0 0.000000000000000e0 0.000000000000000e0
        0.000000000000000e0 0.000000000000000e0 0.000000000000000e0 0.000000000000000e0
        0.000000000000000e0 0.000000000000000e0 0.000000000000000e0 0.000000000000000e0
        0.000000000000000e0 0.000000000000000e0 0.000000000000000e0 0.000000000000000e0
        0.000000000000000e0 0.000000000000000e0 0.000000000000000e0 0.000000000000000e0
        0.000000000000000e0 0.000000000000000e0 0.000000000000000e0 0.000000000000000e0
        0.000000000000000e0 0.000000000000000e0 0.000000000000000e0 0.000000000000000e0
        0.000000000000000e0 0.000000000000000e0 0.000000000000000e0 0.000000000000000e0
        0.000000000000000e0
        </PP_QIJL.1.2.0>
      <PP_QIJL.2.2.0 first_index="2" second_index="2" composite_index="3" angular_momentum="0">
        5.473556738511062e-7 5.612119484760911e-7 5.754189912244296e-7 5.899856815699690e-7
        6.049211237580017e-7 6.202346524946839e-7 6.359358387804539e-7 6.520344958910869e-7
        6.685406855101150e-7 6.854647240164613e-7 7.028171889311872e-7 7.206089255274057e-7
        7.388510536074739e-7 7.575549744517003e-7 7.767323779429100e-7 7.963952498713054e-7
        8.165558794241973e-7 8.372268668652818e-7 8.584211314082435e-7 8.801519192896274e-7
        9.024328120459842e-7 9.252777350004987e-7 9.487009659643629e-7 9.727171441583529e-7
        9.973412793601677e-7 1.022588761283231e-6 1.048475369192839e-6 1.075017281765629e-6
        1.102231087198537e-6 1.130133793573561e-6 1.158742839484774e-6 1.188076104934257e-6
        1.218151922503717e-6 1.248989088808795e-6 1.280606876243183e-6 1.313025045019898e-6
        1.346263855517225e-6 1.380344080937033e-6 1.415287020283356e-6 1.451114511669356e-6
        1.487848945960939e-6 1.525513280765570e-6 1.564131054775005e-6 1.603726402470875e-6
        1.644324069202319e-6 1.685949426645034e-6 1.728628488651444e-6 1.772387927501822e-6
        1.817255090566515e-6 1.863258017389704e-6 1.910425457205267e-6 1.958786886895776e-6
        2.008372529405736e-6 2.059213372620603e-6 2.111341188723342e-6 2.164788554040558e-6
        2.219588869390625e-6 2.275776380946484e-6 2.333386201626070e-6 2.392454333023795e-6
        2.453017687896631e-6 2.515114113218936e-6 2.578782413820298e-6 2.644062376621169e-6
        2.710994795481402e-6 2.779621496677100e-6 2.849985365021763e-6 2.922130370647908e-6
        2.996101596465886e-6 3.071945266317013e-6 3.149708773838502e-6 3.229440712058214e-6
        3.311190903737646e-6 3.395010432482020e-6 3.480951674636922e-6 3.569068331991190e-6
        3.659415465306608e-6 3.752049528695105e-6 3.847028404864944e-6 3.944411441257823e-6
        4.044259487099295e-6 4.146634931385684e-6 4.251601741831021e-6 4.359225504798249e-6
        4.469573466239595e-6 4.582714573671412e-6 4.698719519209780e-6 4.817660783693448e-6
        4.939612681921657e-6 5.064651409034912e-6 5.192855088067466e-6 5.324303818701179e-6
        5.459079727250941e-6 5.597267017912728e-6 5.738952025306152e-6 5.884223268344018e-6
        6.033171505462488e-6 6.185889791245980e-6 6.342473534482038e-6 6.503020557682175e-6
        6.667631158105491e-6 6.836408170323134e-6 7.009457030362201e-6 7.186885841468925e-6
        7.368805441531963e-6 7.555329472207374e-6 7.746574449788353e-6 7.942659837863452e-6
        8.143708121808348e-6 8.349844885157282e-6 8.561198887901329e-6 8.777902146762138e-6
        9.000090017490658e-6 9.227901279241774e-6 9.461478221077126e-6 9.700966730649357e-6
        9.946516385122838e-6 1.019828054438692e-5 1.045641644661926e-5 1.072108530625834e-5
        1.099245241444542e-5 1.127068724199817e-5 1.155596354497934e-5 1.184845947292558e-5
        1.214835767980321e-5 1.245584543775904e-5 1.277111475373675e-5 1.309436248903015e-5
        1.342579048184734e-5 1.376560567296083e-5 1.411402023452102e-5 1.447125170211234e-5
        1.483752311013298e-5 1.521306313058157e-5 1.559810621533592e-5 1.599289274201090e-5
        1.639766916348550e-5 1.681268816119008e-5 1.723820880224818e-5 1.767449670056912e-5
        1.812182418198945e-5 1.858047045356517e-5 1.905072177711749e-5 1.953287164713852e-5
        2.002722097316559e-5 2.053407826673511e-5 2.105375983303071e-5 2.158658996734186e-5
        2.213290115645285e-5 2.269303428508515e-5 2.326733884751791e-5 2.385617316451607e-5
        2.445990460569756e-5 2.507890981747443e-5 2.571357495670669e-5 2.636429593020961e-5
        2.703147864026070e-5 2.771553923625410e-5 2.841690437265480e-5 2.913601147340880e-5
        2.987330900296821e-5 3.062925674409562e-5 3.140432608261434e-5 3.219900029927626e-5
        3.301377486892334e-5 3.384915776712085e-5 3.470566978444911e-5 3.558384484863898e-5
        3.648423035474674e-5 3.740738750356446e-5 3.835389164846764e-5 3.932433265090940e-5
        4.031931524476992e-5 4.133945940978077e-5 4.238540075424513e-5 4.345779090728006e-5
        4.455729792081641e-5 4.568460668159063e-5 4.684041933337540e-5 4.802545570969677e-5
        4.924045377729222e-5 5.048617009057387e-5 5.176338025735951e-5 5.307287941614858e-5
        5.441548272522100e-5 5.579202586384379e-5 5.720336554588183e-5 5.865038004610721e-5
        6.013396973951677e-5 6.165505765397042e-5 6.321459003646796e-5 6.481353693339647e-5
        6.645289278507745e-5 6.813367703496088e-5 6.985693475381394e-5 7.162373727926077e-5
        7.343518287104340e-5 7.529239738237231e-5 7.719653494775253e-5 7.914877868767500e-5
        8.115034143056882e-5 8.320246645242893e-5 8.530642823452730e-5 8.746353323963952e-5
        8.967512070721900e-5 9.194256346796008e-5 9.426726877820954e-5 9.665067917468139e-5
        9.909427334995343e-5 1.015995670492261e-4 1.041681139888323e-4 1.068015067970084e-4
        1.095013779774294e-4 1.122694008960392e-4 1.151072907917061e-4 1.180168058112447e-4
        1.209997480693682e-4 1.240579647341248e-4 1.271933491384053e-4 1.304078419181049e-4
        1.337034321775371e-4 1.370821586827169e-4 1.405461110831253e-4 1.440974311625973e-4
        1.477383141199752e-4 1.514710098801789e-4 1.552978244363736e-4 1.592211212239005e-4
        1.632433225266726e-4 1.673669109167374e-4 1.715944307277152e-4 1.759284895628537e-4
        1.803717598384215e-4 1.849269803632057e-4 1.895969579548693e-4 1.943845690939390e-4
        1.992927616162224e-4 2.043245564444340e-4 2.094830493598533e-4 2.147714128148286e-4
        2.201928977869526e-4 2.257508356757646e-4 2.314486402428129e-4 2.372898095959558e-4
        2.432779282187644e-4 2.494166690459084e-4 2.557097955854220e-4 2.621611640887407e-4
        2.687747257694242e-4 2.755545290714779e-4 2.825047219881920e-4 2.896295544324362e-4
        2.969333806593353e-4 3.044206617422737e-4 3.120959681031704e-4 3.199639820979709e-4
        3.280295006583127e-4 3.362974379903095e-4 3.447728283314138e-4 3.534608287663081e-4
        3.623667221027715e-4 3.714959198084784e-4 3.808539650096598e-4 3.904465355525770e-4
        4.002794471287277e-4 4.103586564647043e-4 4.206902645776220e-4 4.312805200969957e-4
        4.421358226539604e-4 4.532627263386879e-4 4.646679432268403e-4 4.763583469758870e-4
        4.883409764920667e-4 5.006230396687688e-4 5.132119171970650e-4 5.261151664490821e-4
        5.393405254348917e-4 5.528959168335148e-4 5.667894520986328e-4 5.810294356395187e-4
        5.956243690776507e-4 6.105829555794335e-4 6.259141042653546e-4 6.416269346958653e-4
        6.577307814341841e-4 6.742351986861371e-4 6.911499650170838e-4 7.084850881458561e-4
        7.262508098155620e-4 7.444576107409885e-4 7.631162156322145e-4 7.822375982939491e-4
        8.018329867999425e-4 8.219138687417122e-4 8.424919965506570e-4 8.635793928924677e-4
        8.851883561326048e-4 9.073314658713862e-4 9.300215885470806e-4 9.532718831051755e-4
        9.770958067317594e-4 1.001507120648771e-3 1.026519895968569e-3 1.052148519605062e-3
        1.078407700238347e-3 1.105312474329494e-3 1.132878212181856e-3 1.161120624044897e-3
        1.190055766256248e-3 1.219700047417279e-3 1.250070234597133e-3 1.281183459559756e-3
        1.313057225007994e-3 1.345709410838420e-3 1.379158280400061e-3 1.413422486749671e-3
        1.448521078895709e-3 1.484473508022569e-3 1.521299633686088e-3 1.559019729970672e-3
        1.597654491597758e-3 1.637225039974692e-3 1.677752929172278e-3 1.719260151818605e-3
        1.761769144895894e-3 1.805302795426332e-3 1.849884446031886e-3 1.895537900352320e-3
        1.942287428304537e-3 1.990157771165435e-3 2.039174146459405e-3 2.089362252630427e-3
        2.140748273477684e-3 2.193358882332264e-3 2.247221245951346e-3 2.302363028104919e-3
        2.358812392828616e-3 2.416598007314974e-3 2.475749044413701e-3 2.536295184710121e-3
        2.598266618149259e-3 2.661694045171234e-3 2.726608677322009e-3 2.793042237301525e-3
        2.861026958409351e-3 2.930595583346019e-3 3.001781362325981e-3 3.074618050456102e-3
        3.149139904331194e-3 3.225381677795787e-3 3.303378616818959e-3 3.383166453426304e-3
        3.464781398630794e-3 3.548260134301274e-3 3.633639803904686e-3 3.720958002055182e-3
        3.810252762800195e-3 3.901562546570548e-3 3.994926225718420e-3 4.090383068563654e-3
        4.187972721865599e-3 4.287735191634046e-3 4.389710822189408e-3 4.493940273378446e-3
        4.600464495848193e-3 4.709324704276837e-3 4.820562348456306e-3 4.934219082117491e-3
        5.050336729384675e-3 5.168957248741802e-3 5.290122694388915e-3 5.413875174862680e-3
        5.540256808790947e-3 5.669309677646508e-3 5.801075775361159e-3 5.935596954656699e-3
        6.072914869944919e-3 6.213070916644686e-3 6.356106166759464e-3 6.502061300554614e-3
        6.650976534169629e-3 6.802891542996120e-3 6.957845380648843e-3 7.115876393352877e-3
        7.277022129566690e-3 7.441319244657372e-3 7.608803400441286e-3 7.779509159400416e-3
        7.953469873382540e-3 8.130717566590951e-3 8.311282812668173e-3 8.495194605676824e-3
        8.682480224780221e-3 8.873165092425763e-3 9.067272625834461e-3 9.264824081602002e-3
        9.465838393219020e-3 9.670332001321482e-3 9.878318676487002e-3 1.008980933439804e-2
        1.030481184320004e-2 1.052333082289068e-2 1.074536743658602e-2 1.097091917352090e-2
        1.119997962365354e-2 1.143253824375961e-2 1.166858011491774e-2 1.190808569130757e-2
        1.215103054026317e-2 1.239738507354830e-2 1.264711426984708e-2 1.290017738849299e-2
        1.315652767449193e-2 1.341611205493120e-2 1.367887082690564e-2 1.394473733713549e-2
        1.421363765349796e-2 1.448549022874542e-2 1.476020555673969e-2 1.503768582159184e-2
        1.531782454016259e-2 1.560050619844920e-2 1.588560588246006e-2 1.617298890426096e-2
        1.646251042396348e-2 1.675401506852018e-2 1.704733654829141e-2 1.734229727245448e-2
        1.763870796444025e-2 1.793636727870162e-2 1.823506142024625e-2 1.853456376850047e-2
        1.883463450721284e-2 1.913502026225591e-2 1.943545374934061e-2 1.973565343382233e-2
        2.003532320494887e-2 2.033415206707844e-2 2.063181385058212e-2 2.092796694533544e-2
        2.122225405990297e-2 2.151430200972196e-2 2.180372153779971e-2 2.209010717165189e-2
        2.237303712042360e-2 2.265207321635300e-2 2.292676090495525e-2 2.319662928852160e-2
        2.346119122774403e-2 2.371994350648598e-2 2.397236706492407e-2 2.421792730648106e-2
        2.445607448415379e-2 2.468624417200914e-2 2.490785782777212e-2 2.512032345255986e-2
        2.532303635391941e-2 2.551538001840127e-2 2.569672709994065e-2 2.586644053031735e-2
        2.602387475792050e-2 2.616837712094722e-2 2.629928936100972e-2 2.641594928290725e-2
        2.651769256602875e-2 2.660385473248334e-2 2.667377327660002e-2 2.672678995988693e-2
        2.676225327488717e-2 2.677952108060136e-2 2.677796341126135e-2 2.675696545922235e-2
        2.671593073158696e-2 2.665428437887269e-2 2.657147669257860e-2 2.646698676688657e-2
        2.634032631794433e-2 2.619104365221117e-2 2.601872777320111e-2 2.582301261362685e-2
        2.560358137743012e-2 2.536017097347983e-2 2.509257651983093e-2 2.480065589437249e-2
        2.448433430445653e-2 2.414360884470942e-2 2.377855300869552e-2 2.338932111645537e-2
        2.297615261620172e-2 2.253937621466198e-2 2.207941378674403e-2 2.159678401142105e-2
        2.109210567703687e-2 2.056610059568633e-2 2.001959606300324e-2 1.945352679666828e-2
        1.886893628432635e-2 1.826697746947885e-2 1.764891270240110e-2 1.701611288235606e-2
        1.637005571746160e-2 1.571232302966308e-2 1.504459703452062e-2 1.436865552909284e-2
        1.368636592626065e-2 1.299967808054528e-2 1.231061585901078e-2 1.162126742136855e-2
        1.093377418608062e-2 1.025031847424558e-2 9.573109840475734e-3 8.904370119954057e-3
        8.246317243473978e-3 7.601147897559100e-3 6.971019134730798e-3 6.358029069575347e-3
        5.764196829328391e-3 5.191441963029621e-3 4.641563550593486e-3 4.116219291979208e-3
        3.616904896480484e-3 3.144934132317698e-3 2.701419936373293e-3 2.287257022070480e-3
        1.903106458891387e-3 1.549382728503809e-3 1.226243788373669e-3 9.335846923396243e-4
        6.710353269813009e-4 4.379628206084806e-4 2.334791660460016e-4 5.645456666158490e-5
        -9.446303525071155e-5 -2.208218601495015e-4 -3.243333307121118e-4 -4.068320783853324e-4
        -4.702288964619980e-4 -5.164567998364838e-4 -5.474105644317183e-4 -5.648803652040391e-4
        -5.704804107945234e-4 -5.655737844834849e-4 -5.511950430920082e-4 -5.279724943892429e-4
        -4.963744580117058e-4 -4.578131192420898e-4 -4.139971382550733e-4 -3.666350695444298e-4
        -3.174078532034996e-4 -2.679384108062455e-4 -2.197583307239626e-4 -1.742716601001448e-4
        -1.327158580405330e-4 -9.612000741743287e-5 -6.526043152710326e-5 -4.061391723281238e-5
        -2.230880878129060e-5 -1.007430683519495e-5 -3.188386064112425e-6 -4.248325515265883e-7
        0.000000000000000e0 0.000000000000000e0 0.000000000000000e0 0.000000000000000e0
        0.000000000000000e0 0.000000000000000e0 0.000000000000000e0 0.000000000000000e0
        0.000000000000000e0 0.000000000000000e0 0.000000000000000e0 0.000000000000000e0
        0.000000000000000e0 0.000000000000000e0 0.000000000000000e0 0.000000000000000e0
        0.000000000000000e0 0.000000000000000e0 0.000000000000000e0 0.000000000000000e0
        0.000000000000000e0 0.000000000000000e0 0.000000000000000e0 0.000000000000000e0
        0.000000000000000e0 0.000000000000000e0 0.000000000000000e0 0.000000000000000e0
        0.000000000000000e0 0.000000000000000e0 0.000000000000000e0 0.000000000000000e0
        0.000000000000000e0 0.000000000000000e0 0.000000000000000e0 0.000000000000000e0
        0.000000000000000e0 0.000000000000000e0 0.000000000000000e0 0.000000000000000e0
        0.000000000000000e0 0.000000000000000e0 0.000000000000000e0 0.000000000000000e0
        0.000000000000000e0 0.000000000000000e0 0.000000000000000e0 0.000000000000000e0
        0.000000000000000e0 0.000000000000000e0 0.000000000000000e0 0.000000000000000e0
        0.000000000000000e0 0.000000000000000e0 0.000000000000000e0 0.000000000000000e0
        0.000000000000000e0 0.000000000000000e0 0.000000000000000e0 0.000000000000000e0
        0.000000000000000e0 0.000000000000000e0 0.000000000000000e0 0.000000000000000e0
        0.000000000000000e0 0.000000000000000e0 0.000000000000000e0 0.000000000000000e0
        0.000000000000000e0 0.000000000000000e0 0.000000000000000e0 0.000000000000000e0
        0.000000000000000e0 0.000000000000000e0 0.000000000000000e0 0.000000000000000e0
        0.000000000000000e0 0.000000000000000e0 0.000000000000000e0 0.000000000000000e0
        0.000000000000000e0 0.000000000000000e0 0.000000000000000e0 0.000000000000000e0
        0.000000000000000e0 0.000000000000000e0 0.000000000000000e0 0.000000000000000e0
        0.000000000000000e0 0.000000000000000e0 0.000000000000000e0 0.000000000000000e0
        0.000000000000000e0 0.000000000000000e0 0.000000000000000e0 0.000000000000000e0
        0.000000000000000e0 0.000000000000000e0 0.000000000000000e0 0.000000000000000e0
        0.000000000000000e0 0.000000000000000e0 0.000000000000000e0 0.000000000000000e0
        0.000000000000000e0 0.000000000000000e0 0.000000000000000e0 0.000000000000000e0
        0.000000000000000e0 0.000000000000000e0 0.000000000000000e0 0.000000000000000e0
        0.000000000000000e0 0.000000000000000e0 0.000000000000000e0 0.000000000000000e0
        0.000000000000000e0 0.000000000000000e0 0.000000000000000e0 0.000000000000000e0
        0.000000000000000e0 0.000000000000000e0 0.000000000000000e0 0.000000000000000e0
        0.000000000000000e0 0.000000000000000e0 0.000000000000000e0 0.000000000000000e0
        0.000000000000000e0 0.000000000000000e0 0.000000000000000e0 0.000000000000000e0
        0.000000000000000e0 0.000000000000000e0 0.000000000000000e0 0.000000000000000e0
        0.000000000000000e0 0.000000000000000e0 0.000000000000000e0 0.000000000000000e0
        0.000000000000000e0 0.000000000000000e0 0.000000000000000e0 0.000000000000000e0
        0.000000000000000e0 0.000000000000000e0 0.000000000000000e0 0.000000000000000e0
        0.000000000000000e0 0.000000000000000e0 0.000000000000000e0 0.000000000000000e0
        0.000000000000000e0 0.000000000000000e0 0.000000000000000e0 0.000000000000000e0
        0.000000000000000e0 0.000000000000000e0 0.000000000000000e0 0.000000000000000e0
        0.000000000000000e0 0.000000000000000e0 0.000000000000000e0 0.000000000000000e0
        0.000000000000000e0 0.000000000000000e0 0.000000000000000e0 0.000000000000000e0
        0.000000000000000e0 0.000000000000000e0 0.000000000000000e0 0.000000000000000e0
        0.000000000000000e0 0.000000000000000e0 0.000000000000000e0 0.000000000000000e0
        0.000000000000000e0 0.000000000000000e0 0.000000000000000e0 0.000000000000000e0
        0.000000000000000e0 0.000000000000000e0 0.000000000000000e0 0.000000000000000e0
        0.000000000000000e0 0.000000000000000e0 0.000000000000000e0 0.000000000000000e0
        0.000000000000000e0 0.000000000000000e0 0.000000000000000e0 0.000000000000000e0
        0.000000000000000e0 0.000000000000000e0 0.000000000000000e0 0.000000000000000e0
        0.000000000000000e0 0.000000000000000e0 0.000000000000000e0 0.000000000000000e0
        0.000000000000000e0 0.000000000000000e0 0.000000000000000e0 0.000000000000000e0
        0.000000000000000e0 0.000000000000000e0 0.000000000000000e0 0.000000000000000e0
        0.000000000000000e0 0.000000000000000e0 0.000000000000000e0 0.000000000000000e0
        0.000000000000000e0 0.000000000000000e0 0.000000000000000e0 0.000000000000000e0
        0.000000000000000e0 0.000000000000000e0 0.000000000000000e0 0.000000000000000e0
        0.000000000000000e0 0.000000000000000e0 0.000000000000000e0 0.000000000000000e0
        0.000000000000000e0 0.000000000000000e0 0.000000000000000e0 0.000000000000000e0
        0.000000000000000e0 0.000000000000000e0 0.000000000000000e0 0.000000000000000e0
        0.000000000000000e0 0.000000000000000e0 0.000000000000000e0 0.000000000000000e0
        0.000000000000000e0 0.000000000000000e0 0.000000000000000e0 0.000000000000000e0
        0.000000000000000e0 0.000000000000000e0 0.000000000000000e0 0.000000000000000e0
        0.000000000000000e0 0.000000000000000e0 0.000000000000000e0 0.000000000000000e0
        0.000000000000000e0 0.000000000000000e0 0.000000000000000e0 0.000000000000000e0
        0.000000000000000e0 0.000000000000000e0 0.000000000000000e0 0.000000000000000e0
        0.000000000000000e0 0.000000000000000e0 0.000000000000000e0 0.000000000000000e0
        0.000000000000000e0 0.000000000000000e0 0.000000000000000e0 0.000000000000000e0
        0.000000000000000e0 0.000000000000000e0 0.000000000000000e0 0.000000000000000e0
        0.000000000000000e0 0.000000000000000e0 0.000000000000000e0 0.000000000000000e0
        0.000000000000000e0 0.000000000000000e0 0.000000000000000e0 0.000000000000000e0
        0.000000000000000e0 0.000000000000000e0 0.000000000000000e0 0.000000000000000e0
        0.000000000000000e0 0.000000000000000e0 0.000000000000000e0 0.000000000000000e0
        0.000000000000000e0 0.000000000000000e0 0.000000000000000e0 0.000000000000000e0
        0.000000000000000e0 0.000000000000000e0 0.000000000000000e0 0.000000000000000e0
        0.000000000000000e0 0.000000000000000e0 0.000000000000000e0 0.000000000000000e0
        0.000000000000000e0 0.000000000000000e0 0.000000000000000e0 0.000000000000000e0
        0.000000000000000e0 0.000000000000000e0 0.000000000000000e0 0.000000000000000e0
        0.000000000000000e0 0.000000000000000e0 0.000000000000000e0 0.000000000000000e0
        0.000000000000000e0 0.000000000000000e0 0.000000000000000e0 0.000000000000000e0
        0.000000000000000e0 0.000000000000000e0 0.000000000000000e0 0.000000000000000e0
        0.000000000000000e0 0.000000000000000e0 0.000000000000000e0 0.000000000000000e0
        0.000000000000000e0 0.000000000000000e0 0.000000000000000e0 0.000000000000000e0
        0.000000000000000e0 0.000000000000000e0 0.000000000000000e0 0.000000000000000e0
        0.000000000000000e0 0.000000000000000e0 0.000000000000000e0 0.000000000000000e0
        0.000000000000000e0 0.000000000000000e0 0.000000000000000e0 0.000000000000000e0
        0.000000000000000e0 0.000000000000000e0 0.000000000000000e0 0.000000000000000e0
        0.000000000000000e0 0.000000000000000e0 0.000000000000000e0 0.000000000000000e0
        0.000000000000000e0 0.000000000000000e0 0.000000000000000e0 0.000000000000000e0
        0.000000000000000e0 0.000000000000000e0 0.000000000000000e0 0.000000000000000e0
        0.000000000000000e0 0.000000000000000e0 0.000000000000000e0 0.000000000000000e0
        0.000000000000000e0 0.000000000000000e0 0.000000000000000e0 0.000000000000000e0
        0.000000000000000e0 0.000000000000000e0 0.000000000000000e0 0.000000000000000e0
        0.000000000000000e0 0.000000000000000e0 0.000000000000000e0 0.000000000000000e0
        0.000000000000000e0
        </PP_QIJL.2.2.0>
    </PP_AUGMENTATION>
  </PP_NONLOCAL>
  <PP_PSWFC>
    <PP_CHI.1 index="1" label="1S" l="0" occupation="1.000000000000e0" n="1" pseudo_energy="-4.772109620448e-1" cutoff_radius="8.000000000000e-1" ultrasoft_cutoff_radius="1.000000000000e0">
      -1.299683166298017e-3 -1.316031140940178e-3 -1.332584746754257e-3 -1.349346570222439e-3
      -1.366319230359341e-3 -1.383505379121158e-3 -1.400907701819963e-3 -1.418528917543198e-3
      -1.436371779578462e-3 -1.454439075843628e-3 -1.472733629322362e-3 -1.491258298505134e-3
      -1.510015977835753e-3 -1.529009598163533e-3 -1.548242127201138e-3 -1.567716569988177e-3
      -1.587435969360633e-3 -1.607403406426200e-3 -1.627622001045573e-3 -1.648094912319815e-3
      -1.668825339083837e-3 -1.689816520406075e-3 -1.711071736094467e-3 -1.732594307208777e-3
      -1.754387596579360e-3 -1.776455009332441e-3 -1.798799993422015e-3 -1.821426040168422e-3
      -1.844336684803687e-3 -1.867535507023723e-3 -1.891026131547467e-3 -1.914812228683048e-3
      -1.938897514901069e-3 -1.963285753415096e-3 -1.987980754769447e-3 -2.012986377434342e-3
      -2.038306528408571e-3 -2.063945163829714e-3 -2.089906289592017e-3 -2.116193961972071e-3
      -2.142812288262311e-3 -2.169765427412499e-3 -2.197057590679256e-3 -2.224693042283777e-3
      -2.252676100077783e-3 -2.281011136217849e-3 -2.309702577848208e-3 -2.338754907792139e-3
      -2.368172665252025e-3 -2.397960446518216e-3 -2.428122905686801e-3 -2.458664755386380e-3
      -2.489590767513987e-3 -2.520905773980236e-3 -2.552614667463850e-3 -2.584722402175638e-3
      -2.617233994632094e-3 -2.650154524438681e-3 -2.683489135082996e-3 -2.717243034737857e-3
      -2.751421497074493e-3 -2.786029862085936e-3 -2.821073536920770e-3 -2.856557996727311e-3
      -2.892488785508442e-3 -2.928871516987119e-3 -2.965711875482797e-3 -3.003015616798821e-3
      -3.040788569120970e-3 -3.079036633927287e-3 -3.117765786909315e-3 -3.156982078904899e-3
      -3.196691636842703e-3 -3.236900664698574e-3 -3.277615444463921e-3 -3.318842337126205e-3
      -3.360587783661778e-3 -3.402858306041173e-3 -3.445660508246956e-3 -3.489001077304420e-3
      -3.532886784325159e-3 -3.577324485563733e-3 -3.622321123487620e-3 -3.667883727860552e-3
      -3.714019416839465e-3 -3.760735398085164e-3 -3.808038969886951e-3 -3.855937522301346e-3
      -3.904438538305072e-3 -3.953549594962507e-3 -4.003278364607760e-3 -4.053632616041557e-3
      -4.104620215743139e-3 -4.156249129097340e-3 -4.208527421637063e-3 -4.261463260301253e-3
      -4.315064914708707e-3 -4.369340758447805e-3 -4.424299270382410e-3 -4.479949035974100e-3
      -4.536298748620945e-3 -4.593357211013105e-3 -4.651133336505321e-3 -4.709636150506666e-3
      -4.768874791887637e-3 -4.828858514404871e-3 -4.889596688143669e-3 -4.951098800978596e-3
      -5.013374460052341e-3 -5.076433393273087e-3 -5.140285450830556e-3 -5.204940606731094e-3
      -5.270408960351867e-3 -5.336700738014502e-3 -5.403826294578472e-3 -5.471796115054279e-3
      -5.540620816236848e-3 -5.610311148359347e-3 -5.680877996767608e-3 -5.752332383615537e-3
      -5.824685469581583e-3 -5.897948555606707e-3 -5.972133084654011e-3 -6.047250643490366e-3
      -6.123312964490223e-3 -6.200331927461923e-3 -6.278319561496783e-3 -6.357288046841281e-3
      -6.437249716792495e-3 -6.518217059617254e-3 -6.600202720495108e-3 -6.683219503485558e-3
      -6.767280373519736e-3 -6.852398458416942e-3 -6.938587050926235e-3 -7.025859610793422e-3
      -7.114229766853759e-3 -7.203711319150738e-3 -7.294318241081083e-3 -7.386064681566534e-3
      -7.478964967252550e-3 -7.573033604734323e-3 -7.668285282810454e-3 -7.764734874764536e-3
      -7.862397440675199e-3 -7.961288229754551e-3 -8.061422682715886e-3 -8.162816434170555e-3
      -8.265485315054626e-3 -8.369445355085576e-3 -8.474712785249336e-3 -8.581304040318203e-3
      -8.689235761399814e-3 -8.798524798517743e-3 -8.909188213223874e-3 -9.021243281243104e-3
      -9.134707495150678e-3 -9.249598567082648e-3 -9.365934431479616e-3 -9.483733247864473e-3
      -9.603013403654167e-3 -9.723793517006342e-3 -9.846092439700831e-3 -9.969929260056626e-3
      -1.009532330588485e-2 -1.022229414747782e-2 -1.035086160063498e-2 -1.048104572972584e-2
      -1.061286685079063e-2 -1.074634553467881e-2 -1.088150261022610e-2 -1.101835916747044e-2
      -1.115693656090722e-2 -1.129725641278431e-2 -1.143934061643738e-2 -1.158321133966582e-2
      -1.172889102815006e-2 -1.187640240891018e-2 -1.202576849380693e-2 -1.217701258308530e-2
      -1.233015826896094e-2 -1.248522943925046e-2 -1.264225028104546e-2 -1.280124528443131e-2
      -1.296223924625090e-2 -1.312525727391380e-2 -1.329032478925172e-2 -1.345746753242022e-2
      -1.362671156584762e-2 -1.379808327823157e-2 -1.397160938858335e-2 -1.414731695032130e-2
      -1.432523335541289e-2 -1.450538633856673e-2 -1.468780398147469e-2 -1.487251471710469e-2
      -1.505954733404488e-2 -1.524893098089951e-2 -1.544069517073720e-2 -1.563486978559209e-2
      -1.583148508101836e-2 -1.603057169069891e-2 -1.623216063110837e-2 -1.643628330623135e-2
      -1.664297151233639e-2 -1.685225744280588e-2 -1.706417369302309e-2 -1.727875326531622e-2
      -1.749602957396059e-2 -1.771603645023926e-2 -1.793880814756245e-2 -1.816437934664693e-2
      -1.839278516075534e-2 -1.862406114099618e-2 -1.885824328168536e-2 -1.909536802576931e-2
      -1.933547227031086e-2 -1.957859337203780e-2 -1.982476915295508e-2 -2.007403790602134e-2
      -2.032643840088974e-2 -2.058200988971458e-2 -2.084079211302315e-2 -2.110282530565415e-2
      -2.136815020276314e-2 -2.163680804589513e-2 -2.190884058912557e-2 -2.218429010526939e-2
      -2.246319939215935e-2 -2.274561177899396e-2 -2.303157113275524e-2 -2.332112186469752e-2
      -2.361430893690684e-2 -2.391117786893219e-2 -2.421177474448894e-2 -2.451614621823440e-2
      -2.482433952261698e-2 -2.513640247479814e-2 -2.545238348364884e-2 -2.577233155682006e-2
      -2.609629630788786e-2 -2.642432796357407e-2 -2.675647737104204e-2 -2.709279600526864e-2
      -2.743333597649241e-2 -2.777815003773810e-2 -2.812729159241844e-2 -2.848081470201280e-2
      -2.883877409382337e-2 -2.920122516880944e-2 -2.956822400949891e-2 -2.993982738797862e-2
      -3.031609277396239e-2 -3.069707834293785e-2 -3.108284298439201e-2 -3.147344631011479e-2
      -3.186894866258194e-2 -3.226941112341611e-2 -3.267489552192696e-2 -3.308546444372972e-2
      -3.350118123944208e-2 -3.392211003345982e-2 -3.434831573281013e-2 -3.477986403608310e-2
      -3.521682144244088e-2 -3.565925526070406e-2 -3.610723361851484e-2 -3.656082547157673e-2
      -3.702010061297014e-2 -3.748512968254338e-2 -3.795598417637836e-2 -3.843273645633038e-2
      -3.891545975964086e-2 -3.940422820862297e-2 -3.989911682041822e-2 -4.040020151682401e-2
      -4.090755913419009e-2 -4.142126743338353e-2 -4.194140510982026e-2 -4.246805180356295e-2
      -4.300128810948188e-2 -4.354119558747930e-2 -4.408785677277399e-2 -4.464135518624540e-2
      -4.520177534483450e-2 -4.576920277199997e-2 -4.634372400822728e-2 -4.692542662158857e-2
      -4.751439921835013e-2 -4.811073145362680e-2 -4.871451404207789e-2 -4.932583876864386e-2
      -4.994479849931983e-2 -5.057148719196290e-2 -5.120599990712964e-2 -5.184843281894057e-2
      -5.249888322596733e-2 -5.315744956213898e-2 -5.382423140766337e-2 -5.449932949995854e-2
      -5.518284574458995e-2 -5.587488322620895e-2 -5.657554621948662e-2 -5.728494020003830e-2
      -5.800317185533301e-2 -5.873034909558166e-2 -5.946658106459792e-2 -6.021197815062575e-2
      -6.096665199712604e-2 -6.173071551351580e-2 -6.250428288585224e-2 -6.328746958745402e-2
      -6.408039238945187e-2 -6.488316937125909e-2 -6.569591993095431e-2 -6.651876479556620e-2
      -6.735182603125176e-2 -6.819522705335551e-2 -6.904909263634224e-2 -6.991354892358988e-2
      -7.078872343703154e-2 -7.167474508663596e-2 -7.257174417971175e-2 -7.347985243002396e-2
      -7.439920296670874e-2 -7.532993034297174e-2 -7.627217054455588e-2 -7.722606099796283e-2
      -7.819174057841206e-2 -7.916934961752107e-2 -8.015902991068884e-2 -8.116092472416502e-2
      -8.217517880178569e-2 -8.320193837135601e-2 -8.424135115065917e-2 -8.529356635307126e-2
      -8.635873469275866e-2 -8.743700838943614e-2 -8.852854117266135e-2 -8.963348828564065e-2
      -9.075200648852167e-2 -9.188425406114300e-2 -9.303039080521740e-2 -9.419057804591578e-2
      -9.536497863282431e-2 -9.655375694024286e-2 -9.775707886679095e-2 -9.897511183429048e-2
      -1.002080247858885e-1 -1.014559881833843e-1 -1.027191740037234e-1 -1.039977557346187e-1
      -1.052919083692606e-1 -1.066018084000724e-1 -1.079276338114682e-1 -1.092695640715685e-1
      -1.106277801228273e-1 -1.120024643715212e-1 -1.133938006760523e-1 -1.148019743340122e-1
      -1.162271720679542e-1 -1.176695820098159e-1 -1.191293936839393e-1 -1.206067979886249e-1
      -1.221019871761597e-1 -1.236151548312571e-1 -1.251464958478397e-1 -1.266962064041008e-1
      -1.282644839357719e-1 -1.298515271075237e-1 -1.314575357824262e-1 -1.330827109893909e-1
      -1.347272548885142e-1 -1.363913707342386e-1 -1.380752628362485e-1 -1.397791365180112e-1
      -1.415031980728714e-1 -1.432476547176082e-1 -1.450127145433535e-1 -1.467985864637776e-1
      -1.486054801604355e-1 -1.504336060251679e-1 -1.522831750994507e-1 -1.541543990105780e-1
      -1.560474899045659e-1 -1.579626603756542e-1 -1.599001233922889e-1 -1.618600922194532e-1
      -1.638427803372251e-1 -1.658484013554227e-1 -1.678771689242050e-1 -1.699292966404860e-1
      -1.720049979500175e-1 -1.741044860449966e-1 -1.762279737570445e-1 -1.783756734454001e-1
      -1.805477968801743e-1 -1.827445551205000e-1 -1.849661583874096e-1 -1.872128159312753e-1
      -1.894847358936346e-1 -1.917821251632255e-1 -1.941051892260505e-1 -1.964541320092847e-1
      -1.988291557188397e-1 -2.012304606703941e-1 -2.036582451136942e-1 -2.061127050499262e-1
      -2.085940340419624e-1 -2.111024230172728e-1 -2.136380600633018e-1 -2.162011302150968e-1
      -2.187918152349754e-1 -2.214102933840254e-1 -2.240567391852153e-1 -2.267313231779009e-1
      -2.294342116635129e-1 -2.321655664422022e-1 -2.349255445402278e-1 -2.377142979278680e-1
      -2.405319732276352e-1 -2.433787114125785e-1 -2.462546474944582e-1 -2.491599102015783e-1
      -2.520946216460694e-1 -2.550588969804111e-1 -2.580528440429990e-1 -2.610765629925496e-1
      -2.641301459311638e-1 -2.672136765158554e-1 -2.703272295583783e-1 -2.734708706131811e-1
      -2.766446555533377e-1 -2.798486301343055e-1 -2.830828295453912e-1 -2.863472779487960e-1
      -2.896419880061534e-1 -2.929669603924694e-1 -2.963221832974103e-1 -2.997076319138947e-1
      -3.031232679139743e-1 -3.065690389120106e-1 -3.100448779151910e-1 -3.135507027614437e-1
      -3.170864155448565e-1 -3.206519020287328e-1 -3.242470310464587e-1 -3.278716538903908e-1
      -3.315256036890294e-1 -3.352086947727769e-1 -3.389207220286402e-1 -3.426614602442800e-1
      -3.464306634418795e-1 -3.502280642023564e-1 -3.540533729805110e-1 -3.579062774117756e-1
      -3.617864416112954e-1 -3.656935054661551e-1 -3.696270839216487e-1 -3.735867662625783e-1
      -3.775721153906419e-1 -3.815826670991016e-1 -3.856179293459835e-1 -3.896773815272059e-1
      -3.937604737511191e-1 -3.978666261160688e-1 -4.019952279927123e-1 -4.061456373129500e-1
      -4.103171798674693e-1 -4.145091486140249e-1 -4.187208029987418e-1 -4.229513682928623e-1
      -4.272000349475191e-1 -4.314659579692791e-1 -4.357482563193550e-1 -4.400460123395631e-1
      -4.443582712082767e-1 -4.486840404297830e-1 -4.530222893606585e-1 -4.573719487769362e-1
      -4.617319104860270e-1 -4.661010269875531e-1 -4.704781111874145e-1 -4.748619361696089e-1
      -4.792512350304960e-1 -4.836447007803782e-1 -4.880409863174463e-1 -4.924387044792833e-1
      -4.968364281773039e-1 -5.012326906196233e-1 -5.056259856280047e-1 -5.100147680546395e-1
      -5.143974543046014e-1 -5.187724229699219e-1 -5.231380155812584e-1 -5.274925374831576e-1
      -5.318342588389138e-1 -5.361614157709738e-1 -5.404722116427458e-1 -5.447648184875533e-1
      -5.490373785902733e-1 -5.532880062269689e-1 -5.575147895675219e-1 -5.617157927458976e-1
      -5.658890581022161e-1 -5.700326086002796e-1 -5.741444504235849e-1 -5.782225757521131e-1
      -5.822649657213543e-1 -5.862695935641012e-1 -5.902344279344305e-1 -5.941574364121101e-1
      -5.980365891842893e-1 -6.018698628998300e-1 -6.056552446899413e-1 -6.093907363469299e-1
      -6.130743586508166e-1 -6.167041558313381e-1 -6.202782001503829e-1 -6.237945965872324e-1
      -6.272514876060875e-1 -6.306470579821791e-1 -6.339795396594194e-1 -6.372472166088368e-1
      -6.404484296531870e-1 -6.435815812189093e-1 -6.466451399721771e-1 -6.496376452910654e-1
      -6.525577115208792e-1 -6.554040319544211e-1 -6.581753824735054e-1 -6.608706247822585e-1
      -6.634887091567782e-1 -6.660286766295681e-1 -6.684896605208089e-1 -6.708708872220296e-1
      -6.731716761311841e-1 -6.753914386314788e-1 -6.775296759997028e-1 -6.795859761232355e-1
      -6.815600088985549e-1 -6.834515201779212e-1 -6.852603241251197e-1 -6.869862938358546e-1
      -6.886293500736543e-1 -6.901894479682063e-1 -6.916665615199593e-1 -6.930606657528827e-1
      -6.943717163566201e-1 -6.955996266600636e-1 -6.967442417809649e-1 -6.978053098007595e-1
      -6.987824498205897e-1 -6.996751167639029e-1 -7.004825628032252e-1 -7.012037953041384e-1
      -7.018375311984465e-1 -7.023821477213206e-1 -7.028356294743033e-1 -7.031955118077046e-1
      -7.034588205525561e-1 -7.036224802327426e-1 -7.036849006637840e-1 -7.036449391523238e-1
      -7.035014857703108e-1 -7.032534648658926e-1 -7.028998365856553e-1 -7.024395984070439e-1
      -7.018717866797278e-1 -7.011954781746849e-1 -7.004097916400278e-1 -6.995138892175587e-1
      -6.985069768289844e-1 -6.973883083428451e-1 -6.961571860014243e-1 -6.948129618431099e-1
      -6.933550392639335e-1 -6.917828745734856e-1 -6.900959785435954e-1 -6.882939179477210e-1
      -6.863763170888310e-1 -6.843428593134463e-1 -6.821932885093710e-1 -6.799274105845214e-1
      -6.775450949241088e-1 -6.750462758232869e-1 -6.724309538922095e-1 -6.696991974302858e-1
      -6.668511437662405e-1 -6.638870005604149e-1 -6.608070470655352e-1 -6.576116353420149e-1
      -6.543011914236196e-1 -6.508762164291674e-1 -6.473372876156983e-1 -6.436850593683681e-1
      -6.399202641221210e-1 -6.360437132099864e-1 -6.320562976327010e-1 -6.279589887441519e-1
      -6.237528388470091e-1 -6.194389816927814e-1 -6.150186328804127e-1 -6.104930901474902e-1
      -6.058637335480786e-1 -6.011320255112157e-1 -5.962995107741428e-1 -5.913678161844692e-1
      -5.863386503656287e-1 -5.812138032402019e-1 -5.759951454059959e-1 -5.706846273601155e-1
      -5.652842785667325e-1 -5.597962063647248e-1 -5.542225947121082e-1 -5.485657027645193e-1
      -5.428278632862062e-1 -5.370114808924741e-1 -5.311190301235625e-1 -5.251530533508790e-1
      -5.191161585174989e-1 -5.130110167159415e-1 -5.068403596073287e-1 -5.006069766871263e-1
      -4.943137124038380e-1 -4.879634631381383e-1 -4.815591740510579e-1 -4.751038358109110e-1
      -4.686004812097022e-1 -4.620521816807048e-1 -4.554620437298127e-1 -4.488332052940456e-1
      -4.421688320412852e-1 -4.354721136258809e-1 -4.287462599151866e-1 -4.219944972023836e-1
      -4.152200644210664e-1 -4.084262093770398e-1 -4.016161850125826e-1 -3.947932457180662e-1
      -3.879606437052784e-1 -3.811216254561091e-1 -3.742794282593695e-1 -3.674372768475170e-1
      -3.605983801438443e-1 -3.537659281293897e-1 -3.469430888373700e-1 -3.401330054813496e-1
      -3.333387937217028e-1 -3.265635390731539e-1 -3.198102944543657e-1 -3.130820778786810e-1
      -3.063818702832291e-1 -2.997126134917568e-1 -2.930772083046820e-1 -2.864785127081158e-1
      -2.799193401919193e-1 -2.734024581653186e-1 -2.669305864572274e-1 -2.605063958872365e-1
      -2.541325068922775e-1 -2.478114881932747e-1 -2.415458554856751e-1 -2.353380701376585e-1
      -2.291905378800397e-1 -2.231056074724504e-1 -2.170855693313023e-1 -2.111326541062875e-1
      -2.052490311937755e-1 -1.994368071773757e-1 -1.936980241881452e-1 -1.880346581793799e-1
      -1.824486171135921e-1 -1.769417390621142e-1 -1.715157902206874e-1 -1.661724628473647e-1
      -1.609133731319947e-1 -1.557400590093915e-1 -1.506539779309931e-1 -1.456565046122666e-1
      -1.407489287753178e-1 -1.359324529080349e-1 -1.312081900625907e-1 -1.265771617172526e-1
      -1.220402957261359e-1 -1.175984243818145e-1 -1.132522826155511e-1 -1.090025063593426e-1
      -1.048496310930272e-1 -1.007940905983698e-1 -9.683621594040458e-2 -9.297623469436513e-2
      -8.921427043435665e-2 -8.555034249754437e-2 -8.198436603510107e-2 -7.851615235852909e-2
      -7.514540958728627e-2 -7.187174360094607e-2 -6.869465929645839e-2 -6.561356214847251e-2
      -6.262776006818333e-2 -5.973646555378554e-2 -5.693879812339513e-2 -5.423378701924322e-2
      -5.162037417007367e-2 -4.909741739700158e-2 -4.666369384661400e-2 -4.431790363382198e-2
      -4.205867367591122e-2 -3.988456169837068e-2 -3.779406039241592e-2 -3.578560170364742e-2
      -3.385756123098957e-2 -3.200826271493798e-2 -3.023598259418149e-2 -2.853895460985884e-2
      -2.691537443704100e-2 -2.536340432348751e-2 -2.388117771629997e-2 -2.246680385777109e-2
      -2.111837233249655e-2 -1.983395754866549e-2 -1.861162313736106e-2 -1.744942625467982e-2
      -1.634542177250047e-2 -1.529766634479596e-2 -1.430422233747326e-2 -1.336316161083707e-2
      -1.247256914489837e-2 -1.163054649887711e-2 -1.083521509737551e-2 -1.008471933681630e-2
      -9.377229506842728e-3 -8.710944522459609e-3 -8.084094463751143e-3 -7.494942921037064e-3
      -6.941789144320443e-3 -6.422969996832574e-3 -5.936861713392187e-3 -5.481881465161673e-3
      -5.056488733202013e-3 -4.659186493997200e-3 -4.288522220836240e-3 -3.943088705605818e-3
      -3.621524706157053e-3 -3.322515424965663e-3 -3.044792825305251e-3 -2.787135791598333e-3
      -2.548370140999427e-3 -2.327368493599058e-3 -2.123050008918083e-3 -1.934379996588678e-3
      -1.760369409293244e-3 -1.600074226156566e-3 -1.452594734866200e-3 -1.317074720846598e-3
      -1.192700571603953e-3 -1.078700304724946e-3 -9.743425274670043e-4 -8.789353359455902e-4
      -7.918251617160821e-4 -7.123955733281515e-4 -6.400660401840287e-4 -5.742906657558016e-4
      -5.145568969168525e-4 -4.603842155426793e-4 -4.113242214946720e-4 -3.669704448729876e-4
      -3.269299357680058e-4 -2.908354067166525e-4 -2.583455308269081e-4 -2.291435992810209e-4
      -2.029362067767587e-4 -1.794519678556037e-4 -1.584402666988210e-4 -1.396700426578553e-4
      -1.229286134927134e-4 -1.080205380040351e-4 -9.476651946316064e-5 -8.300235097133474e-5
      -7.257790361581198e-5 -6.335615803845675e-5 -5.521227979282431e-5 -4.803273863986915e-5
      -4.171447172148711e-5 -3.616409035608528e-5 -3.129713002224901e-5 -2.703734293624860e-5
      -2.331603248748668e-5 -2.007142867394455e-5 -1.724810357822855e-5 -1.479642584507052e-5
      -1.267205306446388e-5 -1.083546093271294e-5 -9.251508058728549e-6 -7.889035307773478e-6
      -6.720498633317742e-6 -5.721634444702667e-6 -4.871156700559597e-6 -4.138396874898240e-6
      -3.508396999705875e-6 -2.967906740229671e-6 -2.505214506246648e-6 -2.109992001135787e-6
      -1.773151519636002e-6 -1.486715297879493e-6 -1.243696217786018e-6 -1.037989171686885e-6
      -8.642724016027765e-7 -7.179181404072342e-7 -5.949118986506953e-7 -4.917797605884368e-7
      -4.055230754532209e-7 -3.335599547612405e-7 -2.736730129814377e-7 -2.239628168026031e-7
      -1.828065370968229e-7 -1.488213271302083e-7 -1.208319802724052e-7 -9.784245009874207e-8
      -7.901084509034955e-8 -6.362753887907104e-8 -5.109606494971047e-8 -4.091649172845932e-8
      -3.267099991058307e-8 -2.601140859923132e-8 -2.064842025466374e-8 -1.634237652869994e-8
      -1.289533774540852e-8 -1.014431806941916e-8 -7.955526279720391e-9 -6.219478557503217e-9
      -4.846864833472258e-9 -3.765064066601051e-9 -2.915216395561973e-9 -2.249771476458639e-9
      -1.730442562073554e-9 -1.326505058544888e-9 -1.013386487492185e-9 -7.715020584097081e-10
      -5.852964907465873e-10 -4.424583894113693e-10 -3.332784413613107e-10 -2.501270316319464e-10
      -1.870306385471317e-10 -1.393296201889348e-10 -1.034028038367068e-10 -7.644668924648479e-11
      -5.629912340927561e-11 -4.129904271651837e-11 -3.017534811165978e-11 -2.195921571274495e-11
      -1.591518168088012e-11 -1.148720435727386e-11 -8.256624150776869e-12 -5.909534510301354e-12
      -4.211564928424012e-12 -2.988476101099065e-12 -2.111292614245325e-12 -1.484962278444002e-12
      -1.039744094232654e-12 -7.246977949938101e-13 -5.027845629377834e-13 -3.471972003242402e-13
      -2.386240586123026e-13 -1.632187712544786e-13 -1.111009175089924e-13 -7.525412769114753e-14
      -5.072023832206383e-14 -3.401287369612689e-14 -2.269284301303853e-14 -1.506226022671293e-14
      -9.945320948624353e-15 -6.532001655148178e-15 -4.267206349638729e-15 -2.772563890948358e-15
      -1.791555871450334e-15 -1.151224354028507e-15 -7.355970228865969e-16 -4.673470671253194e-16
      -2.952075352143171e-16 -1.853839433929052e-16 -1.157288287435015e-16 -7.181304896826304e-17
      -4.429194327754162e-17 -2.715016335638909e-17 -1.653913780886316e-17 -1.001179464053332e-17
      -6.021922483265544e-18 -3.598716446481014e-18 -2.136554504495705e-18 -1.260080813969888e-18
      -7.381840235540738e-19 -4.295126832683787e-19 -2.481962868847722e-19 -1.424245522203573e-19
      -8.115338272207325e-20 -4.591155269604920e-20 -2.578646702890640e-20 -1.437727725634028e-20
      -7.956761204832652e-21 -4.370491721571406e-21 -2.382415460610546e-21 -1.288713316789236e-21
      -6.916790676635914e-22 -3.683153311721634e-22 -1.945622680855871e-22 -1.019476859326928e-22
      -5.298241763605825e-23 -2.730718799424938e-23 -1.395621322219725e-23 -7.072250676112396e-24
      -3.553043942133946e-24 -1.769494664811456e-24 -8.734860086337447e-25 -4.273388085317681e-25
      -2.071807807877780e-25 -9.952628451576933e-26 -4.736822775064403e-26 -2.233298077542874e-26
      -1.042953659560820e-26 -4.823807885305276e-27 -2.209372354424302e-27 -1.001955276785781e-27
      -4.498566895265600e-28 -1.999363177318664e-28 -8.795193580043934e-29 -3.828945386597562e-29
      -1.649438548840360e-29
      </PP_CHI.1>
  </PP_PSWFC>
  <PP_RHOATOM>
    2.265085318435969e-6 2.322426047749438e-6 2.381218355383498e-6 2.441498987749007e-6
    2.503305621472584e-6 2.566676886943895e-6 2.631652392458999e-6 2.698272748974770e-6
    2.766579595489968e-6 2.836615625068737e-6 2.908424611522797e-6 2.982051436769057e-6
    3.057542118879659e-6 3.134943840842044e-6 3.214304980047029e-6 3.295675138523182e-6
    3.379105173936567e-6 3.464647231375120e-6 3.552354775937492e-6 3.642282626146820e-6
    3.734486988210228e-6 3.829025491145428e-6 3.925957222796499e-6 4.025342766761209e-6
    4.127244240253009e-6 4.231725332921309e-6 4.338851346654406e-6 4.448689236389789e-6
    4.561307651957365e-6 4.676776980981810e-6 4.795169392870680e-6 4.916558883916000e-6
    5.041021323537271e-6 5.168634501694904e-6 5.299478177503762e-6 5.433634129076888e-6
    5.571186204630977e-6 5.712220374885159e-6 5.856824786785955e-6 6.005089818592047e-6
    6.157108136353052e-6 6.312974751817777e-6 6.472787081808038e-6 6.636645009095135e-6
    6.804650944817020e-6 6.976909892475015e-6 7.153529513550233e-6 7.334620194780670e-6
    7.520295117140718e-6 7.710670326566520e-6 7.905864806471110e-6 8.106000552094674e-6
    8.311202646736406e-6 8.521599339915468e-6 8.737322127510009e-6 8.958505833924002e-6
    9.185288696333579e-6 9.417812451065027e-6 9.656222422158862e-6 9.900667612174882e-6
    1.015130079529497e-5 1.040827861278189e-5 1.067176167085368e-5 1.094191464103434e-5
    1.121890636304427e-5 1.150290995029357e-5 1.179410289804524e-5 1.209266719431479e-5
    1.239878943357602e-5 1.271266093334387e-5 1.303447785370694e-5 1.336444131988436e-5
    1.370275754788352e-5 1.404963797333704e-5 1.440529938359944e-5 1.476996405318557e-5
    1.514385988263597e-5 1.552722054089529e-5 1.592028561129243e-5 1.632330074121425e-5
    1.673651779556542e-5 1.716019501411035e-5 1.759459717279576e-5 1.803999574915391e-5
    1.849666909189011e-5 1.896490259475967e-5 1.944498887484361e-5 1.993722795533360e-5
    2.044192745294017e-5 2.095940277004150e-5 2.148997729169193e-5 2.203398258761350e-5
    2.259175861929621e-5 2.316365395233627e-5 2.375002597414452e-5 2.435124111716048e-5
    2.496767508771172e-5 2.559971310066087e-5 2.624775011998631e-5 2.691219110544673e-5
    2.759345126548254e-5 2.829195631651306e-5 2.900814274878943e-5 2.974245809897007e-5
    3.049536122958773e-5 3.126732261558223e-5 3.205882463807744e-5 3.287036188558555e-5
    3.370244146282602e-5 3.455558330735140e-5 3.543032051417669e-5 3.632719966861547e-5
    3.724678118752849e-5 3.818963966919758e-5 3.915636425204383e-5 4.014755898241058e-5
    4.116384319164209e-5 4.220585188269195e-5 4.327423612650104e-5 4.436966346839252e-5
    4.549281834473469e-5 4.664440251013287e-5 4.782513547541428e-5 4.903575495667917e-5
    5.027701733569630e-5 5.154969813192891e-5 5.285459248648480e-5 5.419251565829119e-5
    5.556430353280158e-5 5.697081314355163e-5 5.841292320688630e-5 5.989153467019150e-5
    6.140757127396962e-5 6.296198012810815e-5 6.455573230269875e-5 6.618982343377226e-5
    6.786527434432634e-5 6.958313168103102e-5 7.134446856700447e-5 7.315038527106664e-5
    7.500200989388297e-5 7.690049907142400e-5 7.884703869617709e-5 8.084284465655429e-5
    8.288916359495911e-5 8.498727368497306e-5 8.713848542815237e-5 8.934414247091967e-5
    9.160562244206039e-5 9.392433781133985e-5 9.630173676977048e-5 9.873930413207564e-5
    1.012385622619052e-4 1.038010720203753e-4 1.064284337385170e-4 1.091222882142329e-4
    1.118843177343790e-4 1.147162471226014e-4 1.176198448135701e-4 1.205969239542779e-4
    1.236493435330756e-4 1.267790095371464e-4 1.299878761391253e-4 1.332779469135951e-4
    1.366512760842117e-4 1.401099698022168e-4 1.436561874571324e-4 1.472921430204338e-4
    1.510201064230339e-4 1.548424049674177e-4 1.587614247752942e-4 1.627796122716592e-4
    1.668994757061679e-4 1.711235867127576e-4 1.754545819084707e-4 1.798951645324562e-4
    1.844481061261579e-4 1.891162482557009e-4 1.939025042775475e-4 1.988098611484883e-4
    2.038413812810690e-4 2.090002044455999e-4 2.142895497198861e-4 2.197127174878835e-4
    2.252730914884865e-4 2.309741409156893e-4 2.368194225714149e-4 2.428125830722927e-4
    2.489573611117450e-4 2.552575897787449e-4 2.617171989346411e-4 2.683402176495137e-4
    2.751307766994992e-4 2.820931111266231e-4 2.892315628626712e-4 2.965505834186786e-4
    3.040547366416718e-4 3.117487015403044e-4 3.196372751811005e-4 3.277253756570383e-4
    3.360180451302527e-4 3.445204529506926e-4 3.532378988525839e-4 3.621758162306227e-4
    3.713397754978573e-4 3.807354875272408e-4 3.903688071789435e-4 4.002457369154833e-4
    4.103724305068570e-4 4.207551968278548e-4 4.314005037498037e-4 4.423149821290717e-4
    4.535054298946568e-4 4.649788162372944e-4 4.767422859025561e-4 4.888031635904427e-4
    5.011689584640959e-4 5.138473687702273e-4 5.268462865740099e-4 5.401738026111830e-4
    5.538382112601977e-4 5.678480156373284e-4 5.822119328176656e-4 5.969388991850607e-4
    6.120380759141158e-4 6.275188545873586e-4 6.433908629508966e-4 6.596639708117998e-4
    6.763482960806489e-4 6.934542109626998e-4 7.109923483011762e-4 7.289736080763653e-4
    7.474091640641496e-4 7.663104706577997e-4 7.856892698568842e-4 8.055575984272055e-4
    8.259277952358563e-4 8.468125087654446e-4 8.682247048117524e-4 8.901776743690920e-4
    9.126850417077394e-4 9.357607726479639e-4 9.594191830351800e-4 9.836749474209302e-4
    1.008543107954439e-3 1.034039083489604e-3 1.060178678912406e-3 1.086978094693774e-3
    1.114453936673093e-3 1.142623226077631e-3 1.171503409783209e-3 1.201112370821677e-3
    1.231468439140683e-3 1.262590402621520e-3 1.294497518360815e-3 1.327209524221945e-3
    1.360746650662271e-3 1.395129632842259e-3 1.430379723022796e-3 1.466518703257025e-3
    1.503568898383182e-3 1.541553189325051e-3 1.580495026706705e-3 1.620418444788382e-3
    1.661348075730443e-3 1.703309164192429e-3 1.746327582274421e-3 1.790429844807955e-3
    1.835643125003924e-3 1.881995270464966e-3 1.929514819569952e-3 1.978231018238349e-3
    2.028173837082263e-3 2.079373988954166e-3 2.131862946898369e-3 2.185672962514396e-3
    2.240837084740579e-3 2.297389179066217e-3 2.355363947180811e-3 2.414796947068998e-3
    2.475724613559745e-3 2.538184279338696e-3 2.602214196432437e-3 2.667853558173658e-3
    2.735142521656208e-3 2.804122230689088e-3 2.874834839258599e-3 2.947323535507782e-3
    3.021632566242402e-3 3.097807261972900e-3 3.175894062501422e-3 3.255940543063498e-3
    3.337995441033639e-3 3.422108683204275e-3 3.508331413647402e-3 3.596716022168328e-3
    3.687316173360832e-3 3.780186836273052e-3 3.875384314693377e-3 3.972966278065461e-3
    4.072991793041473e-3 4.175521355682600e-3 4.280616924315598e-3 4.388341953054182e-3
    4.498761425993755e-3 4.611941892087891e-3 4.727951500714690e-3 4.846860037940973e-3
    4.968738963491971e-3 5.093661448433862e-3 5.221702413576250e-3 5.352938568601254e-3
    5.487448451925642e-3 5.625312471301685e-3 5.766612945162461e-3 5.911434144716364e-3
    6.059862336795398e-3 6.211985827460818e-3 6.367895006369677e-3 6.527682391904603e-3
    6.691442677068549e-3 6.859272776145833e-3 7.031271872129317e-3 7.207541464913239e-3
    7.388185420249975e-3 7.573310019467973e-3 7.763024009947150e-3 7.957438656346785e-3
    8.156667792579636e-3 8.360827874524906e-3 8.570038033470915e-3 8.784420130277221e-3
    9.004098810244205e-3 9.229201558676216e-3 9.459858757122984e-3 9.696203740281952e-3
    9.938372853541924e-3 1.018650551114685e-2 1.044074425495588e-2 1.070123481377359e-2
    1.096812616322210e-2 1.124157058612321e-2 1.152172373335774e-2 1.180874468516403e-2
    1.210279601283663e-2 1.240404384078154e-2 1.271265790888137e-2 1.302881163512090e-2
    1.335268217841877e-2 1.368445050160764e-2 1.402430143450115e-2 1.437242373698114e-2
    1.472901016203496e-2 1.509425751866720e-2 1.546836673460546e-2 1.585154291871483e-2
    1.624399542303001e-2 1.664593790430871e-2 1.705758838500379e-2 1.747916931354559e-2
    1.791090762381992e-2 1.835303479371897e-2 1.880578690263836e-2 1.926940468778307e-2
    1.974413359913978e-2 2.023022385296472e-2 2.072793048362734e-2 2.123751339364348e-2
    2.175923740172093e-2 2.229337228863295e-2 2.284019284072539e-2 2.339997889085333e-2
    2.397301535653411e-2 2.455959227509184e-2 2.516000483556012e-2 2.577455340709706e-2
    2.640354356365622e-2 2.704728610464671e-2 2.770609707130171e-2 2.838029775846556e-2
    2.907021472149530e-2 2.977617977796024e-2 3.049853000381191e-2 3.123760772368231e-2
    3.199376049495606e-2 3.276734108524840e-2 3.355870744290813e-2 3.436822266014947e-2
    3.519625492840665e-2 3.604317748548685e-2 3.690936855408780e-2 3.779521127122947e-2
    3.870109360813759e-2 3.962740828010331e-2 4.057455264583016e-2 4.154292859576532e-2
    4.253294242890277e-2 4.354500471753136e-2 4.457953015939003e-2 4.563693741668318e-2
    4.671764894139747e-2 4.782209078635297e-2 4.895069240141406e-2 5.010388641427736e-2
    5.128210839524955e-2 5.248579660542321e-2 5.371539172765637e-2 5.497133657975897e-2
    5.625407580929457e-2 5.756405556940370e-2 5.890172317506583e-2 6.026752673922205e-2
    6.166191478819064e-2 6.308533585582719e-2 6.453823805589160e-2 6.602106863210939e-2
    6.753427348544003e-2 6.907829667808941e-2 7.065357991384403e-2 7.226056199433649e-2
    7.389967825089921e-2 7.557135995170995e-2 7.727603368398833e-2 7.901412071106362e-2
    8.078603630420005e-2 8.259218904914128e-2 8.443298012741735e-2 8.630880257254198e-2
    8.822004050133334e-2 9.016706832068577e-2 9.215024991024357e-2 9.416993778154369e-2
    9.622647221432794e-2 9.832018037086563e-2 1.004513753892832e-1 1.026203554570473e-1
    1.048274028659312e-1 1.070727830499641e-1 1.093567436080621e-1 1.116795133132345e-1
    1.140413011104733e-1 1.164422951056510e-1 1.188826615479882e-1 1.213625438088821e-1
    1.238820613601407e-1 1.264413087549211e-1 1.290403546149275e-1 1.316792406276952e-1
    1.343579805580572e-1 1.370765592781620e-1 1.398349318206877e-1 1.426330224601678e-1
    1.454707238276159e-1 1.483478960639041e-1 1.512643660175955e-1 1.542199264931884e-1
    1.572143355559406e-1 1.602473158996625e-1 1.633185542840467e-1 1.664277010482594e-1
    1.695743697076266e-1 1.727581366403568e-1 1.759785408712387e-1 1.792350839592779e-1
    1.825272299961276e-1 1.858544057220457e-1 1.892160007658861e-1 1.926113680153398e-1
    1.960398241232567e-1 1.995006501553797e-1 2.029930923842490e-1 2.065163632333102e-1
    2.100696423744308e-1 2.136520779810693e-1 2.172627881382130e-1 2.209008624089631e-1
    2.245653635562180e-1 2.282553294163165e-1 2.319697749197774e-1 2.357076942523246e-1
    2.394680631473022e-1 2.432498412983159e-1 2.470519748784721e-1 2.508733991499912e-1
    2.547130411451817e-1 2.585698223968468e-1 2.624426616931435e-1 2.663304778287310e-1
    2.702321923208215e-1 2.741467320554170e-1 2.780730318257276e-1 2.820100367214713e-1
    2.859567043245526e-1 2.899120066636023e-1 2.938749318770095e-1 2.978444855315575e-1
    3.018196915416500e-1 3.057995926324603e-1 3.097832502892816e-1 3.137697441350360e-1
    3.177581706783914e-1 3.217476413764326e-1 3.257372799584433e-1 3.297262189612333e-1
    3.337135954317426e-1 3.376985457595487e-1 3.416801996105217e-1 3.456576729433626e-1
    3.496300601032698e-1 3.535964250016785e-1 3.575557914078843e-1 3.615071323976289e-1
    3.654493590253072e-1 3.693813083104263e-1 3.733017306551904e-1 3.772092768385300e-1
    3.811024847622790e-1 3.849797661573106e-1 3.888393934907927e-1 3.926794873498634e-1
    3.964980046113242e-1 4.002927277405115e-1 4.040612555945898e-1 4.078009961347248e-1
    4.115091614769696e-1 4.151827657314412e-1 4.188186260920726e-1 4.224133676428764e-1
    4.259634323393029e-1 4.294650926026767e-1 4.329144699295997e-1 4.363075588640674e-1
    4.396402566054442e-1 4.429083984279123e-1 4.461077989640667e-1 4.492342992548016e-1
    4.522838192876316e-1 4.552524155344954e-1 4.581363427571293e-1 4.609321190729536e-1
    4.636365929680742e-1 4.662470106082920e-1 4.687610814374136e-1 4.711770396697593e-1
    4.734933462251792e-1 4.757074691340825e-1 4.778166026795608e-1 4.798179740762482e-1
    4.817088476365958e-1 4.834865290083420e-1 4.851483694777320e-1 4.866917703326947e-1
    4.881141872798059e-1 4.894131349085325e-1 4.905861911958605e-1 4.916310020440839e-1
    4.925452858441625e-1 4.933268380567059e-1 4.939735358023071e-1 4.944833424526180e-1
    4.948543122131932e-1 4.950845946888761e-1 4.951724394221995e-1 4.951162003946775e-1
    4.949143404810348e-1 4.945654358458832e-1 4.940681802721408e-1 4.934213894102490e-1
    4.926240049369934e-1 4.916750986126250e-1 4.905738762252271e-1 4.893196812082751e-1
    4.879119966787674e-1 4.863504526132951e-1 4.846348276214217e-1 4.827650519451949e-1
    4.807412104726907e-1 4.785635455531549e-1 4.762324596020425e-1 4.737485174838241e-1
    4.711124486604276e-1 4.683251490933033e-1 4.653876828872299e-1 4.623012836641724e-1
    4.590673556557196e-1 4.556874745028892e-1 4.521633877523868e-1 4.484970150387689e-1
    4.446904479423431e-1 4.407459495131044e-1 4.366659534514724e-1 4.324530629371993e-1
    4.281100490983682e-1 4.236398491131485e-1 4.190455639376493e-1 4.143304556540595e-1
    4.094979444341250e-1 4.045516051139474e-1 3.994951633771575e-1 3.943324915445779e-1
    3.890676039697029e-1 3.837046520405900e-1 3.782479187900918e-1 3.727018131178316e-1
    3.670708636288173e-1 3.613597120952169e-1 3.555731065494820e-1 3.497158940187882e-1
    3.437930129125870e-1 3.378094850769402e-1 3.317704075312744e-1 3.256809439051539e-1
    3.195463155947112e-1 3.133717926603376e-1 3.071626844894217e-1 3.009243302495308e-1
    2.946620891598682e-1 2.883813306103280e-1 2.820874241593936e-1 2.757857294437512e-1
    2.694815860339650e-1 2.631803032719240e-1 2.568871501268863e-1 2.506073451078250e-1
    2.443460462704643e-1 2.381083413577652e-1 2.318992381127370e-1 2.257236548022410e-1
    2.195864109899645e-1 2.134922185958990e-1 2.074456732785379e-1 2.014512461745269e-1
    1.955132760287544e-1 1.896359617457921e-1 1.838233553912608e-1 1.780793556690925e-1
    1.724077018978345e-1 1.668119685060976e-1 1.612955600640610e-1 1.558617068646054e-1
    1.505134610642140e-1 1.452536933903067e-1 1.400850904181605e-1 1.350101524171188e-1
    1.300311917623645e-1 1.251503319052485e-1 1.203695068920152e-1 1.156904614177758e-1
    1.111147513998399e-1 1.066437450519834e-1 1.022786244389881e-1 9.802038748883247e-2
    9.386985043824943e-2 8.982765068605918e-2 8.589425002766596e-2 8.206993824345410e-2
    7.835483701347946e-2 7.474890413083878e-2 7.125193798639935e-2 6.786358229815759e-2
    6.458333105935347e-2 6.141053368056554e-2 5.834440030230663e-2 5.538400725611748e-2
    5.252830265374191e-2 4.977611208565109e-2 4.712614441189563e-2 4.457699762996523e-2
    4.212716480598344e-2 3.977504005710572e-2 3.751892457439130e-2 3.535703267663626e-2
    3.328749788666214e-2 3.130837902232532e-2 2.941766629502683e-2 2.761328740875881e-2
    2.589311365271656e-2 2.425496598024875e-2 2.269662106643216e-2 2.121581733586324e-2
    1.981026095139948e-2 1.847763175359512e-2 1.721558913950092e-2 1.602177786839551e-2
    1.489383378092271e-2 1.382938941708535e-2 1.282607951763266e-2 1.188154639261853e-2
    1.099344514034389e-2 1.015944869955237e-2 9.377252717656665e-3 8.644580217941666e-3
    7.959186049134523e-3 7.318861101447148e-3 6.721436274177433e-3 6.164786181187752e-3
    5.646832582041016e-3 5.165547528240132e-3 4.718956215856497e-3 4.305139537811465e-3
    3.922236331157940e-3 3.568445316858607e-3 3.242026731736746e-3 2.941303654448634e-3
    2.664663029458409e-3 2.410556395055394e-3 2.177500323410521e-3 1.964076582496732e-3
    1.768932031376788e-3 1.590778261871137e-3 1.428391000945581e-3 1.280609289292094e-3
    1.146334452510207e-3 1.024528882028489e-3 9.142146434356457e-4 8.144719302235831e-4
    7.244373810861202e-4 6.433022788767047e-4 5.703106491175024e-4 5.047572755835582e-4
    4.459856499739557e-4 3.933858720422647e-4 3.463925158071537e-4 3.044824766175092e-4
    2.671728129209324e-4 2.340185955967029e-4 2.046107766798690e-4 1.785740882373496e-4
    1.555649810742709e-4 1.352696118625427e-4 1.174018862063941e-4 1.017015641023565e-4
    8.793243322400189e-5 7.588055447336908e-5 6.535258329885187e-5 5.617416938960361e-5
    4.818843652420513e-5 4.125454358021145e-5 3.524632700394203e-5 3.005102439808309e-5
    2.556807830899890e-5 2.170801878584592e-5 1.839142283860620e-5 1.554794854027616e-5
    1.311544119730593e-5 1.103910874913476e-5 9.270763349030332e-6 7.768125920808466e-6
    6.494190375537439e-6 5.416644104997546e-6 4.507341340367073e-6 3.741825971202416e-6
    3.098900457175447e-6 2.560237529210533e-6 2.110031463761007e-6 1.734685820293145e-6
    1.422534653504397e-6 1.163594347413691e-6 9.493433608307900e-7 7.725273247737875e-7
    6.269870867266993e-7 5.075074528975456e-7 4.096845357968625e-7 3.298097687742418e-7
    2.647688001647003e-7 2.119536259208483e-7 1.691876151881980e-7 1.346673074102784e-7
    1.068831829012724e-7 8.458523380004067e-8 6.674241329823695e-8 5.250678909146104e-8
    4.118310402093936e-8 3.220300876724861e-8 2.510331811159352e-8 1.950772081604711e-8
    1.511144401524091e-8 1.166843663068119e-8 8.980693211161606e-9 6.889390266768630e-9
    5.267552093266095e-9 4.014002761393909e-9 3.048395839921116e-9 2.307143981245980e-9
    1.740097151002747e-9 1.307841431283100e-9 9.795103476295603e-10 7.310179130523125e-10
    5.436373709575343e-10 4.028622490132434e-10 2.974970770453005e-10 2.189342177886708e-10
    1.605809288685883e-10 1.174072136243483e-10 8.559040136071927e-11 6.223687808729659e-11
    4.516510188042565e-11 3.273710071880801e-11 2.372816760140666e-11 1.712632869416752e-11
    1.230884950754519e-11 8.808470418700713e-12 6.276099722308638e-12 4.452066244857003e-12
    3.144066311587462e-12 2.210322376948911e-12 1.546780282135247e-12 1.077421520539226e-12
    7.469667841722311e-13 5.154064563257810e-13 3.539201671561751e-13 2.418473329244200e-13
    1.644489647250388e-13 1.112622434203208e-13 7.489691803433817e-14 5.015934331015637e-14
    3.341823000533206e-14 2.214778740879647e-14 1.460036745655092e-14 9.573145041324828e-15
    6.242713641891211e-15 4.048463703807696e-15 2.610807853345030e-15 1.674159295365080e-15
    1.067394235157319e-15 6.765933773161650e-16 4.263572590132078e-16 2.670732706058027e-16
    1.662897355681577e-16 1.029071890935441e-16 6.329039838732174e-17 3.868191352724231e-17
    2.349209871395006e-17 1.417570742561045e-17 8.498486632953348e-18 5.061471696286884e-18
    2.994431460635684e-18 1.759615670345178e-18 1.026952173031748e-18 5.952154261304167e-19
    3.425719820802700e-19 1.957694263605030e-19 1.110745194762246e-19 6.256353195300872e-20
    3.498045975534783e-20 1.941274306199283e-20 1.069213984129246e-20 5.844096296748611e-21
    3.169591296652845e-21 1.705610929300809e-21 9.105516336598495e-22 4.822071547188649e-22
    2.532930079354220e-22 1.319558639457715e-22 6.817184236719187e-23 3.492259812844267e-23
    1.773727914633114e-23 8.930989406840270e-24 4.457556502966856e-24 2.205112968401600e-24
    1.081067781491683e-24 5.251868940688902e-25 2.527923167285378e-25 1.205458959129906e-25
    5.694144134860764e-26 2.664036728982178e-26 1.234341387133994e-26 5.663183734555535e-27
    2.572542575446952e-27 1.156875577068681e-27 5.149651240144121e-28 2.268716831372180e-28
    9.890940877114641e-29 4.266704562285851e-29 1.820905003039707e-29 7.687110529390695e-30
    3.209672440528162e-30 1.325317513308355e-30 5.411029800796243e-31 2.184132811506381e-31
    8.714748884731227e-32 3.436720646790387e-32 1.339316180234269e-32 5.157114002118147e-33
    1.961776239300966e-33 7.371313702786129e-34 2.735430794605667e-34 1.002360319242117e-34
    3.626355039445905e-35 1.295076006217294e-35 4.564865150680887e-36 1.587803657735015e-36
    5.449156526304821e-37 1.844811450884026e-37 6.160139682338812e-38 2.028475307516929e-38
    6.585871527235296e-39 2.107870670962103e-39 6.649418818328776e-40 2.067061013056795e-40
    6.331004887073001e-41 1.910119788832418e-41 5.675903426956155e-42 1.660782012869916e-42
    4.784199326439747e-43 1.356561831764604e-43 3.785447616260790e-44 1.039333066703097e-44
    2.807136578561695e-45 7.456825161532782e-46 1.947758875034335e-46 5.001672962577226e-47
    1.262412125473472e-47 3.131111368796209e-48 7.629778072789097e-49 1.826184572773511e-49
    4.292387592783330e-50 9.905481309513863e-51 2.243749000236883e-51 4.987620303156692e-52
    1.087752335991308e-52 2.326912251433334e-53 4.881326200494386e-54 1.003914376678871e-54
    2.023710411117958e-55 3.997453114817789e-56 7.735543011044602e-57 1.466082277354678e-57
    2.720647526400595e-58
    </PP_RHOATOM>
  <PP_GIPAW gipaw_data_format="2">
    <PP_GIPAW_CORE_ORBITALS number_of_core_orbitals="1">
      <PP_GIPAW_CORE_ORBITAL.1 index="1" label="1S" n="1.000000000000e0" l="0.000000000000e0">
        1.749126805657391e-3 1.771127522944464e-3 1.793404967773291e-3 1.815962620854584e-3
        1.838803799017633e-3 1.861931624393817e-3 1.885349800665727e-3 1.909061943283534e-3
        1.933071734713476e-3 1.957382903417855e-3 1.981999224320399e-3 2.006924519386746e-3
        2.032162658215466e-3 2.057717558630635e-3 2.083593187282476e-3 2.109793560254700e-3
        2.136322743678858e-3 2.163184854355756e-3 2.190384060384040e-3 2.217924581796045e-3
        2.245810691201026e-3 2.274046714435860e-3 2.302637031223333e-3 2.331586075838148e-3
        2.360898337780722e-3 2.390578362458923e-3 2.420630751877841e-3 2.451060165337707e-3
        2.481871320140079e-3 2.513068992302398e-3 2.544658017281035e-3 2.576643290702936e-3
        2.609029769105974e-3 2.641822470688128e-3 2.675026476065587e-3 2.708646929039907e-3
        2.742689037374308e-3 2.777158073579259e-3 2.812059375707411e-3 2.847398348158050e-3
        2.883180462491128e-3 2.919411258251018e-3 2.956096343800091e-3 2.993241397162238e-3
        3.030852166876445e-3 3.068934472860533e-3 3.107494207285184e-3 3.146537335458380e-3
        3.186069896720337e-3 3.226098005349103e-3 3.266627851476885e-3 3.307665702017276e-3
        3.349217901603461e-3 3.391290873537544e-3 3.433891120751126e-3 3.477025226777237e-3
        3.520699856733760e-3 3.564921758318475e-3 3.609697762815839e-3 3.655034786115641e-3
        3.700939829743660e-3 3.747419981904441e-3 3.794482418536343e-3 3.842134404378978e-3
        3.890383294053177e-3 3.939236533153612e-3 3.988701659354224e-3 4.038786303526581e-3
        4.089498190871304e-3 4.140845142062720e-3 4.192835074406839e-3 4.245476003012858e-3
        4.298776041978264e-3 4.352743405587750e-3 4.407386409526034e-3 4.462713472104745e-3
        4.518733115503542e-3 4.575453967025578e-3 4.632884760367503e-3 4.691034336904099e-3
        4.749911646987750e-3 4.809525751262880e-3 4.869885821995501e-3 4.931001144418051e-3
        4.992881118089642e-3 5.055535258271918e-3 5.118973197320649e-3 5.183204686093221e-3
        5.248239595372208e-3 5.314087917305150e-3 5.380759766860731e-3 5.448265383301503e-3
        5.516615131673318e-3 5.585819504311647e-3 5.655889122364931e-3 5.726834737335158e-3
        5.798667232635800e-3 5.871397625167311e-3 5.945037066910328e-3 6.019596846536770e-3
        6.095088391038984e-3 6.171523267377123e-3 6.248913184144928e-3 6.327269993254074e-3
        6.406605691637282e-3 6.486932422970328e-3 6.568262479413187e-3 6.650608303370412e-3
        6.733982489270995e-3 6.818397785367840e-3 6.903867095557057e-3 6.990403481217220e-3
        7.078020163068814e-3 7.166730523054015e-3 7.256548106236977e-3 7.347486622724862e-3
        7.439559949609707e-3 7.532782132931405e-3 7.627167389661888e-3 7.722730109710767e-3
        7.819484857952570e-3 7.917446376275771e-3 8.016629585653799e-3 8.117049588238183e-3
        8.218721669474057e-3 8.321661300238162e-3 8.425884138999557e-3 8.531406034003199e-3
        8.638243025476605e-3 8.746411347859722e-3 8.855927432058248e-3 8.966807907720533e-3
        9.079069605538276e-3 9.192729559571150e-3 9.307805009595599e-3 9.424313403477914e-3
        9.542272399571825e-3 9.661699869140715e-3 9.782613898804717e-3 9.905032793012779e-3
        1.002897507653993e-2 1.015445949700989e-2 1.028150502744319e-2 1.041013086883098e-2
        1.054035645273472e-2 1.067220144391180e-2 1.080568574296742e-2 1.094082948903278e-2
        1.107765306246973e-2 1.121617708760207e-2 1.135642243547373e-2 1.149841022663374e-2
        1.164216183394850e-2 1.178769888544107e-2 1.193504326715805e-2 1.208421712606380e-2
        1.223524287296245e-2 1.238814318544764e-2 1.254294101088016e-2 1.269965956939365e-2
        1.285832235692849e-2 1.301895314829391e-2 1.318157600025851e-2 1.334621525466929e-2
        1.351289554159928e-2 1.368164178252381e-2 1.385247919352566e-2 1.402543328852899e-2
        1.420052988256230e-2 1.437779509505041e-2 1.455725535313547e-2 1.473893739502725e-2
        1.492286827338257e-2 1.510907535871403e-2 1.529758634282808e-2 1.548842924229239e-2
        1.568163240193263e-2 1.587722449835868e-2 1.607523454352021e-2 1.627569188829168e-2
        1.647862622608677e-2 1.668406759650224e-2 1.689204638899106e-2 1.710259334656504e-2
        1.731573956952658e-2 1.753151651922982e-2 1.774995602187089e-2 1.797109027230728e-2
        1.819495183790624e-2 1.842157366242206e-2 1.865098906990226e-2 1.888323176862231e-2
        1.911833585504903e-2 1.935633581783235e-2 1.959726654182523e-2 1.984116331213177e-2
        2.008806181818303e-2 2.033799815784060e-2 2.059100884152756e-2 2.084713079638659e-2
        2.110640137046508e-2 2.136885833692680e-2 2.163453989828996e-2 2.190348469069131e-2
        2.217573178817596e-2 2.245132070701248e-2 2.273029141003309e-2 2.301268431099835e-2
        2.329854027898607e-2 2.358790064280391e-2 2.388080719542534e-2 2.417730219844833e-2
        2.447742838657628e-2 2.478122897212084e-2 2.508874764952582e-2 2.540002859991172e-2
        2.571511649564030e-2 2.603405650489848e-2 2.635689429630094e-2 2.668367604351074e-2
        2.701444842987712e-2 2.734925865308996e-2 2.768815442984975e-2 2.803118400055265e-2
        2.837839613398947e-2 2.872984013205781e-2 2.908556583448638e-2 2.944562362357066e-2
        2.981006442891871e-2 3.017893973220619e-2 3.055230157193952e-2 3.093020254822605e-2
        3.131269582754999e-2 3.169983514755306e-2 3.209167482181838e-2 3.248826974465656e-2
        3.288967539589240e-2 3.329594784565104e-2 3.370714375914186e-2 3.412332040143895e-2
        3.454453564225624e-2 3.497084796071608e-2 3.540231645010927e-2 3.583900082264512e-2
        3.628096141418955e-2 3.672825918898962e-2 3.718095574438232e-2 3.763911331548605e-2
        3.810279477987244e-2 3.857206366221667e-2 3.904698413892404e-2 3.952762104273053e-2
        4.001403986727536e-2 4.050630677164277e-2 4.100448858487101e-2 4.150865281042574e-2
        4.201886763063550e-2 4.253520191108645e-2 4.305772520497376e-2 4.358650775740665e-2
        4.412162050966451e-2 4.466313510340080e-2 4.521112388479179e-2 4.576565990862713e-2
        4.632681694233868e-2 4.689466946996449e-2 4.746929269604458e-2 4.805076254944460e-2
        4.863915568710411e-2 4.923454949770562e-2 4.983702210526047e-2 5.044665237260758e-2
        5.106351990482128e-2 5.168770505252357e-2 5.231928891509705e-2 5.295835334379369e-2
        5.360498094473508e-2 5.425925508179960e-2 5.492125987939154e-2 5.559108022508744e-2
        5.626880177215451e-2 5.695451094193603e-2 5.764829492609831e-2 5.835024168873409e-2
        5.906043996831633e-2 5.977897927949694e-2 6.050594991474483e-2 6.124144294581658e-2
        6.198555022505424e-2 6.273836438650358e-2 6.349997884684627e-2 6.427048780613964e-2
        6.504998624835688e-2 6.583856994172067e-2 6.663633543882374e-2 6.744338007652789e-2
        6.825980197563519e-2 6.908570004032262e-2 6.992117395733311e-2 7.076632419491444e-2
        7.162125200149766e-2 7.248605940410723e-2 7.336084920649344e-2 7.424572498697880e-2
        7.514079109600922e-2 7.604615265340059e-2 7.696191554527152e-2 7.788818642065234e-2
        7.882507268776079e-2 7.977268250993364e-2 8.073112480120489e-2 8.170050922151891e-2
        8.268094617156844e-2 8.367254678724640e-2 8.467542293369950e-2 8.568968719897320e-2
        8.671545288723543e-2 8.775283401156733e-2 8.880194528630902e-2 8.986290211894737e-2
        9.093582060153327e-2 9.202081750161566e-2 9.311801025267821e-2 9.422751694406603e-2
        9.534945631038788e-2 9.648394772038003e-2 9.763111116521740e-2 9.879106724625732e-2
        9.996393716220071e-2 1.011498426956558e-1 1.023489061990888e-1 1.035612505801451e-1
        1.047869992863264e-1 1.060262762890050e-1 1.072792060667612e-1 1.085459135880250e-1
        1.098265242930050e-1 1.111211640748880e-1 1.124299592602900e-1 1.137530365889415e-1
        1.150905231925880e-1 1.164425465730866e-1 1.178092345796809e-1 1.191907153854328e-1
        1.205871174627938e-1 1.219985695582931e-1 1.234252006663243e-1 1.248671400020097e-1
        1.263245169731199e-1 1.277974611510287e-1 1.292861022406817e-1 1.307905700495561e-1
        1.323109944555897e-1 1.338475053740573e-1 1.354002327233707e-1 1.369693063897799e-1
        1.385548561909523e-1 1.401570118384060e-1 1.417759028987727e-1 1.434116587538679e-1
        1.450644085595413e-1 1.467342812032857e-1 1.484214052605770e-1 1.501259089499212e-1
        1.518479200865830e-1 1.535875660349706e-1 1.553449736596499e-1 1.571202692749632e-1
        1.589135785932251e-1 1.607250266714699e-1 1.625547378567239e-1 1.644028357297754e-1
        1.662694430474152e-1 1.681546816831221e-1 1.700586725661644e-1 1.719815356190913e-1
        1.739233896935863e-1 1.758843525046562e-1 1.778645405631263e-1 1.798640691064171e-1
        1.818830520275725e-1 1.839216018025136e-1 1.859798294154906e-1 1.880578442827051e-1
        1.901557541740754e-1 1.922736651331188e-1 1.944116813949234e-1 1.965699053021821e-1
        1.987484372192637e-1 2.009473754442940e-1 2.031668161192207e-1 2.054068531378377e-1
        2.076675780517427e-1 2.099490799742031e-1 2.122514454819071e-1 2.145747585145745e-1
        2.169191002724051e-1 2.192845491113419e-1 2.216711804361260e-1 2.240790665911235e-1
        2.265082767489012e-1 2.289588767965348e-1 2.314309292196263e-1 2.339244929840168e-1
        2.364396234151735e-1 2.389763720752382e-1 2.415347866377199e-1 2.441149107598185e-1
        2.467167839523675e-1 2.493404414473828e-1 2.519859140632089e-1 2.546532280672540e-1
        2.573424050363061e-1 2.600534617144247e-1 2.627864098684058e-1 2.655412561408161e-1
        2.683180019005981e-1 2.711166430912467e-1 2.739371700765622e-1 2.767795674839845e-1
        2.796438140455178e-1 2.825298824362554e-1 2.854377391105189e-1 2.883673441356251e-1
        2.913186510233020e-1 2.942916065587701e-1 2.972861506275187e-1 3.003022160397973e-1
        3.033397283528580e-1 3.063986056909771e-1 3.094787585632948e-1 3.125800896795123e-1
        3.157024937634880e-1 3.188458573647827e-1 3.220100586682010e-1 3.251949673013860e-1
        3.284004441405263e-1 3.316263411142349e-1 3.348725010056722e-1 3.381387572529801e-1
        3.414249337481066e-1 3.447308446341003e-1 3.480562941009617e-1 3.514010761801408e-1
        3.547649745377788e-1 3.581477622667930e-1 3.615492016779140e-1 3.649690440897850e-1
        3.684070296182425e-1 3.718628869649026e-1 3.753363332051799e-1 3.788270735758785e-1
        3.823348012624932e-1 3.858591971863725e-1 3.893999297918955e-1 3.929566548338250e-1
        3.965290151650056e-1 4.001166405245806e-1 4.037191473269087e-1 4.073361384513715e-1
        4.109672030332669e-1 4.146119162559886e-1 4.182698391447089e-1 4.219405183617750e-1
        4.256234860040502e-1 4.293182594024307e-1 4.330243409237778e-1 4.367412177755169e-1
        4.404683618131557e-1 4.442052293509898e-1 4.479512609762634e-1 4.517058813670690e-1
        4.554684991142694e-1 4.592385065477418e-1 4.630152795672441e-1 4.667981774782160e-1
        4.705865428328347e-1 4.743797012766501e-1 4.781769614011362e-1 4.819776146024984e-1
        4.857809349470891e-1 4.895861790437870e-1 4.933925859237041e-1 4.971993769275944e-1
        5.010057556013397e-1 5.048109075999006e-1 5.086140006001233e-1 5.124141842228004e-1
        5.162105899643924e-1 5.200023311388172e-1 5.237885028297277e-1 5.275681818536944e-1
        5.313404267347245e-1 5.351042776905452e-1 5.388587566310882e-1 5.426028671696153e-1
        5.463355946469268e-1 5.500559061691011e-1 5.537627506592122e-1 5.574550589234772e-1
        5.611317437322864e-1 5.647916999165711e-1 5.684338044799605e-1 5.720569167271860e-1
        5.756598784091836e-1 5.792415138853513e-1 5.828006303034065e-1 5.863360177972994e-1
        5.898464497036217e-1 5.933306827969559e-1 5.967874575446000e-1 6.002154983811028e-1
        6.036135140030302e-1 6.069801976843877e-1 6.103142276131054e-1 6.136142672489910e-1
        6.168789657035436e-1 6.201069581420128e-1 6.232968662080737e-1 6.264472984714812e-1
        6.295568508990504e-1 6.326241073492959e-1 6.356476400910553e-1 6.386260103463960e-1
        6.415577688580973e-1 6.444414564819788e-1 6.472756048043279e-1 6.500587367846618e-1
        6.527893674240380e-1 6.554660044591081e-1 6.580871490820881e-1 6.606512966867928e-1
        6.631569376408649e-1 6.656025580842982e-1 6.679866407543347e-1 6.703076658367866e-1
        6.725641118438098e-1 6.747544565181247e-1 6.768771777636569e-1 6.789307546025361e-1
        6.809136681583668e-1 6.828244026656502e-1 6.846614465052077e-1 6.864232932654243e-1
        6.881084428290977e-1 6.897154024856460e-1 6.912426880683908e-1 6.926888251166060e-1
        6.940523500619749e-1 6.953318114390767e-1 6.965257711194759e-1 6.976328055689581e-1
        6.986515071274174e-1 6.995804853108595e-1 7.004183681349485e-1 7.011638034594881e-1
        7.018154603531817e-1 7.023720304779818e-1 7.028322294922914e-1 7.031947984722448e-1
        7.034585053502418e-1 7.036221463698732e-1 7.036845475563257e-1 7.036445662013059e-1
        7.035010923614769e-1 7.032530503693470e-1 7.028994003555003e-1 7.024391397810032e-1
        7.018713049787603e-1 7.011949727025417e-1 7.004092616823271e-1 6.995133341845631e-1
        6.985063975758433e-1 6.973877058884598e-1 6.961565613861898e-1 6.948123161285993e-1
        6.933543735320605e-1 6.917821899255819e-1 6.900952760994543e-1 6.882931988446072e-1
        6.863755824804596e-1 6.843421103689287e-1 6.821925264121321e-1 6.799266365311865e-1
        6.775443101233607e-1 6.750454814946931e-1 6.724301512650217e-1 6.696983877422116e-1
        6.668503282621902e-1 6.638861804912167e-1 6.608062236866288e-1 6.576108099121144e-1
        6.543003652033585e-1 6.508753906797161e-1 6.473364635973599e-1 6.436842383391522e-1
        6.399194473362910e-1 6.360429019165936e-1 6.320554930740948e-1 6.279581921544732e-1
        6.237520514506670e-1 6.194382047029102e-1 6.150178674973176e-1 6.104923375570802e-1
        6.058629949202865e-1 6.011313019984071e-1 5.962988035095192e-1 5.913671262804677e-1
        5.863379789123143e-1 5.812131513036626e-1 5.759945140267368e-1 5.706840175514635e-1
        5.652836913132461e-1 5.597956426206386e-1 5.542220553997279e-1 5.485651887727045e-1
        5.428273754688538e-1 5.370110200670320e-1 5.311185970695771e-1 5.251526488019493e-1
        5.191157831735592e-1 5.130106712350189e-1 5.068400446042785e-1 5.006066927324294e-1
        4.943134600224607e-1 4.879632428084642e-1 4.815589862038950e-1 4.751036808285810e-1
        4.686003594252166e-1 4.620520933770345e-1 4.554619891392536e-1 4.488331845976866e-1
        4.421688453685835e-1 4.354721610543462e-1 4.287463414701806e-1 4.219946128570356e-1
        4.152202140963080e-1 4.084263929417617e-1 4.016164022839138e-1 3.947934964617759e-1
        3.879609276363010e-1 3.811219422391898e-1 3.742797775098355e-1 3.674376581321630e-1
        3.605987929819364e-1 3.537663719937841e-1 3.469435631557386e-1 3.401335096375128e-1
        3.333393270570616e-1 3.265641008882194e-1 3.198108840103786e-1 3.130826943993148e-1
        3.063825129563746e-1 2.997132814713771e-1 2.930779007127351e-1 2.864792286365381e-1
        2.799200787046632e-1 2.734032183004383e-1 2.669313672290052e-1 2.605071962883439e-1
        2.541333258959672e-1 2.478123247555917e-1 2.415467085476865e-1 2.353389386276901e-1
        2.291914207159164e-1 2.231065035637338e-1 2.170864775815164e-1 2.111335734151290e-1
        2.052499604592995e-1 1.994377452981528e-1 1.936989700653823e-1 1.880356107189984e-1
        1.824495752282589e-1 1.769427016732189e-1 1.715167562602612e-1 1.661734312599363e-1
        1.609143428763780e-1 1.557410290604042e-1 1.506549472811001e-1 1.456574722731478e-1
        1.407498937793596e-1 1.359334143097412e-1 1.312091469399162e-1 1.265781131728562e-1
        1.220412408885556e-1 1.175993624065652e-1 1.132532126861446e-1 1.090034276882331e-1
        1.048505429224812e-1 1.007949922012649e-1 9.683710662095510e-2 9.297711378877739e-2
        8.921513731141511e-2 8.555119655912790e-2 8.198520671663095e-2 7.851697912934865e-2
        7.514622195097147e-2 7.187254109554787e-2 6.869544149467553e-2 6.561432865775467e-2
        6.262851053076389e-2 5.973719964664330e-2 5.693951555814478e-2 5.423448754195316e-2
        5.162105756101175e-2 4.909808347030829e-2 4.666434244990275e-2 4.431853464770785e-2
        4.205928701346764e-2 3.988515730451597e-2 3.779463824323085e-2 3.578616180562509e-2
        3.385810362022052e-2 3.200878745623232e-2 3.023648978013136e-2 2.853944435984421e-2
        2.691584689618242e-2 2.536385966154978e-2 2.388161612655057e-2 2.246722555579808e-2
        2.111877755499059e-2 1.983434655217031e-2 1.861199619699792e-2 1.744978366285047e-2
        1.634576383757420e-2 1.529799338978558e-2 1.430453469870522e-2 1.336345963662088e-2
        1.247285319420024e-2 1.163081694000277e-2 1.083547230666702e-2 1.008496369736728e-2
        9.377461407236504e-3 8.711164355534262e-3 8.084302625395487e-3 7.495139809021095e-3
        6.941975157163428e-3 6.423145532711930e-3 5.937027169095631e-3 5.482037235084999e-3
        5.056635208394413e-3 4.659324061255628e-3 4.288651261850046e-3 3.943209596152393e-3
        3.621637815348887e-3 3.322621114548810e-3 3.044891449008745e-3 2.787227694533754e-3
        2.548455659109332e-3 2.327447953152615e-3 2.123123726051865e-3 1.934448276888648e-3
        1.760432547424821e-3 1.600132505498527e-3 1.452648427242527e-3 1.317124086204346e-3
        1.192745857770950e-3 1.078741747160626e-3 9.743803490221421e-4 8.789697466421270e-4
        7.918563585050693e-4 7.124237392274335e-4 6.400913782050756e-4 5.743130507542809e-4
        5.145781152023251e-4 4.604007251675377e-4 4.113395371004135e-4 3.669835291790460e-4
        3.269408686391504e-4 2.908442499755521e-4 2.583523272273700e-4 2.291483710571367e-4
        2.029389539126209e-4 1.794526659903330e-4 1.584388645947947e-4 1.396664591458961e-4
        1.229227337908388e-4 1.080122092854606e-4 9.475554552375398e-5 8.298848581558250e-5
        7.256084374225456e-5 6.333553315886336e-5 5.518764166206973e-5 4.800354760301380e-5
        4.168008049777687e-5 3.612372447251303e-5 3.124986417697305e-5 2.698207240828229e-5
        2.325143850577131e-5 1.999593640623581e-5 1.715983108557391e-5 1.469312195507536e-5
        1.255102162577798e-5 1.069346829843474e-5 9.084669874810857e-6 7.692677713223381e-6
        6.488987746404623e-6 5.448166653206981e-6 4.547497814863962e-6 3.766667701903356e-6
        3.087344442421642e-6 2.495580275023470e-6 1.964025905797115e-6 0.000000000000000e0
        0.000000000000000e0 0.000000000000000e0 0.000000000000000e0 0.000000000000000e0
        0.000000000000000e0 0.000000000000000e0 0.000000000000000e0 0.000000000000000e0
        0.000000000000000e0 0.000000000000000e0 0.000000000000000e0 0.000000000000000e0
        0.000000000000000e0 0.000000000000000e0 0.000000000000000e0 0.000000000000000e0
        0.000000000000000e0 0.000000000000000e0 0.000000000000000e0 0.000000000000000e0
        0.000000000000000e0 0.000000000000000e0 0.000000000000000e0 0.000000000000000e0
        0.000000000000000e0 0.000000000000000e0 0.000000000000000e0 0.000000000000000e0
        0.000000000000000e0 0.000000000000000e0 0.000000000000000e0 0.000000000000000e0
        0.000000000000000e0 0.000000000000000e0 0.000000000000000e0 0.000000000000000e0
        0.000000000000000e0 0.000000000000000e0 0.000000000000000e0 0.000000000000000e0
        0.000000000000000e0 0.000000000000000e0 0.000000000000000e0 0.000000000000000e0
        0.000000000000000e0 0.000000000000000e0 0.000000000000000e0 0.000000000000000e0
        0.000000000000000e0 0.000000000000000e0 0.000000000000000e0 0.000000000000000e0
        0.000000000000000e0 0.000000000000000e0 0.000000000000000e0 0.000000000000000e0
        0.000000000000000e0 0.000000000000000e0 0.000000000000000e0 0.000000000000000e0
        0.000000000000000e0 0.000000000000000e0 0.000000000000000e0 0.000000000000000e0
        0.000000000000000e0 0.000000000000000e0 0.000000000000000e0 0.000000000000000e0
        0.000000000000000e0 0.000000000000000e0 0.000000000000000e0 0.000000000000000e0
        0.000000000000000e0 0.000000000000000e0 0.000000000000000e0 0.000000000000000e0
        0.000000000000000e0 0.000000000000000e0 0.000000000000000e0 0.000000000000000e0
        0.000000000000000e0 0.000000000000000e0 0.000000000000000e0 0.000000000000000e0
        0.000000000000000e0 0.000000000000000e0 0.000000000000000e0 0.000000000000000e0
        0.000000000000000e0 0.000000000000000e0 0.000000000000000e0 0.000000000000000e0
        0.000000000000000e0 0.000000000000000e0 0.000000000000000e0 0.000000000000000e0
        0.000000000000000e0 0.000000000000000e0 0.000000000000000e0 0.000000000000000e0
        0.000000000000000e0 0.000000000000000e0 0.000000000000000e0 0.000000000000000e0
        0.000000000000000e0 0.000000000000000e0 0.000000000000000e0 0.000000000000000e0
        0.000000000000000e0 0.000000000000000e0 0.000000000000000e0 0.000000000000000e0
        0.000000000000000e0 0.000000000000000e0 0.000000000000000e0 0.000000000000000e0
        0.000000000000000e0 0.000000000000000e0 0.000000000000000e0 0.000000000000000e0
        0.000000000000000e0 0.000000000000000e0 0.000000000000000e0 0.000000000000000e0
        0.000000000000000e0
        </PP_GIPAW_CORE_ORBITAL.1>
    </PP_GIPAW_CORE_ORBITALS>
    <PP_GIPAW_ORBITALS number_of_valence_orbitals="1">
      <PP_GIPAW_ORBITAL.1 index="1" label="1S" l="0" cutoff_radius="0.000000000000e0" ultrasoft_cutoff_radius="0.000000000000e0">
        <PP_GIPAW_WFS_AE>
          2.485668914759542e-3 2.516933943050236e-3 2.548592226447519e-3 2.580648711359157e-3
          2.613108111302456e-3 2.645974863111201e-3 2.679254230056566e-3 2.712951350023392e-3
          2.747071456132473e-3 2.781619846869208e-3 2.816601886744929e-3 2.852023007121815e-3
          2.887888707052792e-3 2.924204554123633e-3 2.960976185306523e-3 2.998209307823154e-3
          3.035909700017761e-3 3.074083212240221e-3 3.112735767739326e-3 3.151873363566383e-3
          3.191502071489304e-3 3.231628038917305e-3 3.272257489836412e-3 3.313396725755895e-3
          3.355052126665814e-3 3.397230152005819e-3 3.439937341645383e-3 3.483180316875603e-3
          3.526965781412758e-3 3.571300522413762e-3 3.616191411503676e-3 3.661645405815439e-3
          3.707669549041983e-3 3.754270972500879e-3 3.801456896211677e-3 3.849234629986097e-3
          3.897611574531234e-3 3.946595222565925e-3 3.996193159950444e-3 4.046413066829685e-3
          4.097262718789982e-3 4.148749988029738e-3 4.200882844544022e-3 4.253669357323280e-3
          4.307117695566342e-3 4.361236129907887e-3 4.416033033660510e-3 4.471516884071578e-3
          4.527696263595033e-3 4.584579861178312e-3 4.642176473564544e-3 4.700495006610214e-3
          4.759544476618447e-3 4.819334011688088e-3 4.879872853078765e-3 4.941170356592095e-3
          5.003235993969229e-3 5.066079354304884e-3 5.129710145478084e-3 5.194138195599752e-3
          5.259373454477374e-3 5.325425995096876e-3 5.392306015121950e-3 5.460023838410974e-3
          5.528589916551741e-3 5.598014830414193e-3 5.668309291721306e-3 5.739484144638405e-3
          5.811550367381011e-3 5.884519073841493e-3 5.958401515234678e-3 6.033209081762637e-3
          6.108953304298860e-3 6.185645856091988e-3 6.263298554489360e-3 6.341923362680536e-3
          6.421532391461025e-3 6.502137901016424e-3 6.583752302727196e-3 6.666388160994270e-3
          6.750058195085701e-3 6.834775281004600e-3 6.920552453378547e-3 7.007402907370725e-3
          7.095340000612977e-3 7.184377255160990e-3 7.274528359471908e-3 7.365807170404488e-3
          7.458227715242133e-3 7.551804193738941e-3 7.646550980189080e-3 7.742482625519643e-3
          7.839613859407289e-3 7.937959592418840e-3 8.037534918176119e-3 8.138355115545238e-3
          8.240435650850573e-3 8.343792180113690e-3 8.448440551317439e-3 8.554396806695458e-3
          8.661677185047337e-3 8.770298124079712e-3 8.880276262773469e-3 8.991628443777380e-3
          9.104371715828350e-3 9.218523336198581e-3 9.334100773169867e-3 9.451121708535272e-3
          9.569604040128477e-3 9.689565884380983e-3 9.811025578907490e-3 9.934001685119680e-3
          1.005851299086863e-2 1.018457851311615e-2 1.031221750063530e-2 1.044144943674032e-2
          1.057229404204618e-2 1.070477127725823e-2 1.083890134599180e-2 1.097470469762249e-2
          1.111220203016703e-2 1.125141429319510e-2 1.139236269077248e-2 1.153506868443557e-2
          1.167955399619770e-2 1.182584061158749e-2 1.197395078271932e-2 1.212390703139650e-2
          1.227573215224705e-2 1.242944921589262e-2 1.258508157215060e-2 1.274265285326988e-2
          1.290218697720025e-2 1.306370815089602e-2 1.322724087365378e-2 1.339280994048481e-2
          1.356044044552225e-2 1.373015778546332e-2 1.390198766304681e-2 1.407595609056620e-2
          1.425208939341839e-2 1.443041421368868e-2 1.461095751377177e-2 1.479374658002947e-2
          1.497880902648502e-2 1.516617279855438e-2 1.535586617681482e-2 1.554791778081078e-2
          1.574235657289750e-2 1.593921186212247e-2 1.613851330814496e-2 1.634029092519381e-2
          1.654457508606385e-2 1.675139652615086e-2 1.696078634752558e-2 1.717277602304679e-2
          1.738739740051361e-2 1.760468270685743e-2 1.782466455237340e-2 1.804737593499184e-2
          1.827285024458955e-2 1.850112126734149e-2 1.873222319011262e-2 1.896619060489034e-2
          1.920305851325754e-2 1.944286233090642e-2 1.968563789219324e-2 1.993142145473407e-2
          2.018024970404176e-2 2.043215975820409e-2 2.068718917260330e-2 2.094537594467709e-2
          2.120675851872118e-2 2.147137579073333e-2 2.173926711329924e-2 2.201047230051990e-2
          2.228503163298098e-2 2.256298586276376e-2 2.284437621849795e-2 2.312924441045639e-2
          2.341763263569144e-2 2.370958358321316e-2 2.400514043920931e-2 2.430434689230700e-2
          2.460724713887589e-2 2.491388588837319e-2 2.522430836872983e-2 2.553856033177822e-2
          2.585668805872114e-2 2.617873836564179e-2 2.650475860905467e-2 2.683479669149737e-2
          2.716890106716281e-2 2.750712074757189e-2 2.784950530728628e-2 2.819610488966096e-2
          2.854697021263652e-2 2.890215257457060e-2 2.926170386010838e-2 2.962567654609170e-2
          2.999412370750636e-2 3.036709902346741e-2 3.074465678324170e-2 3.112685189230771e-2
          3.151373987845161e-2 3.190537689789954e-2 3.230181974148533e-2 3.270312584085318e-2
          3.310935327469466e-2 3.352056077501949e-2 3.393680773345933e-2 3.435815420760405e-2
          3.478466092736960e-2 3.521638930139681e-2 3.565340142348034e-2 3.609576007902690e-2
          3.654352875154184e-2 3.699677162914340e-2 3.745555361110332e-2 3.791994031441321e-2
          3.838999808037533e-2 3.886579398121687e-2 3.934739582672658e-2 3.983487217091253e-2
          4.032829231867986e-2 4.082772633252708e-2 4.133324503925995e-2 4.184492003672103e-2
          4.236282370053408e-2 4.288702919086134e-2 4.341761045917241e-2 4.395464225502305e-2
          4.449820013284234e-2 4.504836045872626e-2 4.560520041723617e-2 4.616879801820015e-2
          4.673923210351551e-2 4.731658235395015e-2 4.790092929594111e-2 4.849235430838786e-2
          4.909093962943839e-2 4.969676836326561e-2 5.030992448683197e-2 5.093049285663960e-2
          5.155855921546363e-2 5.219421019906614e-2 5.283753334288787e-2 5.348861708871512e-2
          5.414755079131895e-2 5.481442472506362e-2 5.548933009048143e-2 5.617235902081051e-2
          5.686360458849280e-2 5.756316081162844e-2 5.827112266038334e-2 5.898758606334641e-2
          5.971264791383264e-2 6.044640607612854e-2 6.118895939167579e-2 6.194040768518912e-2
          6.270085177070461e-2 6.347039345755391e-2 6.424913555625991e-2 6.503718188434977e-2
          6.583463727208034e-2 6.664160756807135e-2 6.745819964484151e-2 6.828452140424246e-2
          6.912068178278540e-2 6.996679075685501e-2 7.082295934780537e-2 7.168929962693210e-2
          7.256592472031503e-2 7.345294881352538e-2 7.435048715619155e-2 7.525865606641688e-2
          7.617757293504351e-2 7.710735622975504e-2 7.804812549901192e-2 7.900000137581210e-2
          7.996310558126975e-2 8.093756092800540e-2 8.192349132333890e-2 8.292102177227861e-2
          8.393027838029781e-2 8.495138835589112e-2 8.598448001290194e-2 8.702968277261279e-2
          8.808712716558931e-2 8.915694483326956e-2 9.023926852928867e-2 9.133423212053010e-2
          9.244197058789329e-2 9.356262002676802e-2 9.469631764720527e-2 9.584320177377416e-2
          9.700341184509440e-2 9.817708841303315e-2 9.936437314155510e-2 1.005654088052147e-1
          1.017803392872782e-1 1.030093095774640e-1 1.042524657692890e-1 1.055099550570078e-1
          1.067819257321330e-1 1.080685271795222e-1 1.093699098730190e-1 1.106862253706344e-1
          1.120176263092537e-1 1.133642663988559e-1 1.147263004162286e-1 1.161038841981666e-1
          1.174971746341358e-1 1.189063296583885e-1 1.203315082415132e-1 1.217728703814038e-1
          1.232305770936293e-1 1.247047904011893e-1 1.261956733236365e-1 1.277033898655482e-1
          1.292281050043300e-1 1.307699846773315e-1 1.323291957682568e-1 1.339059060928486e-1
          1.355002843838286e-1 1.371125002750711e-1 1.387427242849931e-1 1.403911277991360e-1
          1.420578830519213e-1 1.437431631075562e-1 1.454471418400677e-1 1.471699939124437e-1
          1.489118947548565e-1 1.506730205419471e-1 1.524535481691449e-1 1.542536552280005e-1
          1.560735199805053e-1 1.579133213323736e-1 1.597732388052626e-1 1.616534525079028e-1
          1.635541431061135e-1 1.654754917916769e-1 1.674176802500427e-1 1.693808906268364e-1
          1.713653054931430e-1 1.733711078095371e-1 1.753984808888316e-1 1.774476083575146e-1
          1.795186741158450e-1 1.816118622965772e-1 1.837273572222831e-1 1.858653433612411e-1
          1.880260052818610e-1 1.902095276056117e-1 1.924160949584198e-1 1.946458919205076e-1
          1.968991029746349e-1 1.991759124527134e-1 2.014765044807588e-1 2.038010629221450e-1
          2.061497713191290e-1 2.085228128326074e-1 2.109203701800725e-1 2.133426255717296e-1
          2.157897606447419e-1 2.182619563955635e-1 2.207593931103276e-1 2.232822502932491e-1
          2.258307065930065e-1 2.284049397270655e-1 2.310051264039053e-1 2.336314422431109e-1
          2.362840616932921e-1 2.389631579477909e-1 2.416689028581407e-1 2.444014668452346e-1
          2.471610188081682e-1 2.499477260307151e-1 2.527617540853977e-1 2.556032667351134e-1
          2.584724258322780e-1 2.613693912154462e-1 2.642943206033725e-1 2.672473694864704e-1
          2.702286910156352e-1 2.732384358883886e-1 2.762767522323089e-1 2.793437854857085e-1
          2.824396782755203e-1 2.855645702923573e-1 2.887185981627064e-1 2.919018953182229e-1
          2.951145918620874e-1 2.983568144323902e-1 3.016286860625112e-1 3.049303260384570e-1
          3.082618497531268e-1 3.116233685574707e-1 3.150149896085115e-1 3.184368157141995e-1
          3.218889451750689e-1 3.253714716226705e-1 3.288844838547513e-1 3.324280656671554e-1
          3.360022956824242e-1 3.396072471750697e-1 3.432429878935013e-1 3.469095798785870e-1
          3.506070792788289e-1 3.543355361621389e-1 3.580949943241989e-1 3.618854910933945e-1
          3.657070571323117e-1 3.695597162357882e-1 3.734434851255155e-1 3.773583732411876e-1
          3.813043825281964e-1 3.852815072218783e-1 3.892897336283133e-1 3.933290399016897e-1
          3.973993958182434e-1 4.015007625467868e-1 4.056330924158475e-1 4.097963286774363e-1
          4.139904052674734e-1 4.182152465628981e-1 4.224707671355008e-1 4.267568715025108e-1
          4.310734538739853e-1 4.354203978970444e-1 4.397975763970047e-1 4.442048511154667e-1
          4.486420724454205e-1 4.531090791634316e-1 4.576056981589836e-1 4.621317441610527e-1
          4.666870194619981e-1 4.712713136388578e-1 4.758844032721461e-1 4.805260516622530e-1
          4.851960085435548e-1 4.898940097963522e-1 4.946197771567549e-1 4.993730179246451e-1
          5.041534246698546e-1 5.089606749366988e-1 5.137944309470207e-1 5.186543393019035e-1
          5.235400306822196e-1 5.284511195481910e-1 5.333872038381466e-1 5.383478646666681e-1
          5.433326660223266e-1 5.483411544652213e-1 5.533728588245379e-1 5.584272898963597e-1
          5.635039401419654e-1 5.686022833868662e-1 5.737217745208387e-1 5.788618491992206e-1
          5.840219235457510e-1 5.892013938572403e-1 5.943996363103723e-1 5.996160066709454e-1
          6.048498400058752e-1 6.101004503982893e-1 6.153671306660558e-1 6.206491520840998e-1
          6.259457641108694e-1 6.312561941193312e-1 6.365796471328760e-1 6.419153055665367e-1
          6.472623289739241e-1 6.526198538003033e-1 6.579869931422397e-1 6.633628365142573e-1
          6.687464496229642e-1 6.741368741491073e-1 6.795331275380338e-1 6.849342027990448e-1
          6.903390683141374e-1 6.957466676566443e-1 7.011559194202869e-1 7.065657170591720e-1
          7.119749287392690e-1 7.173823972019133e-1 7.227869396398986e-1 7.281873475867178e-1
          7.335823868195326e-1 7.389707972764519e-1 7.443512929887119e-1 7.497225620283579e-1
          7.550832664720321e-1 7.604320423814810e-1 7.657674998014019e-1 7.710882227752531e-1
          7.763927693796573e-1 7.816796717780313e-1 7.869474362940831e-1 7.921945435058118e-1
          7.974194483606608e-1 8.026205803124631e-1 8.077963434808277e-1 8.129451168336137e-1
          8.180652543931350e-1 8.231550854667397e-1 8.282129149024078e-1 8.332370233700019e-1
          8.382256676688046e-1 8.431770810619701e-1 8.480894736385139e-1 8.529610327034490e-1
          8.577899231966787e-1 8.625742881412394e-1 8.673122491214766e-1 8.720019067917288e-1
          8.766413414160784e-1 8.812286134397132e-1 8.857617640924289e-1 8.902388160247872e-1
          8.946577739774201e-1 8.990166254839613e-1 9.033133416080529e-1 9.075458777148688e-1
          9.117121742775579e-1 9.158101577189958e-1 9.198377412892066e-1 9.237928259787864e-1
          9.276733014686330e-1 9.314770471162607e-1 9.352019329789421e-1 9.388458208738935e-1
          9.424065654756804e-1 9.458820154509940e-1 9.492700146309044e-1 9.525684032206668e-1
          9.557750190471179e-1 9.588876988436567e-1 9.619042795727683e-1 9.648225997860097e-1
          9.676405010213243e-1 9.703558292375238e-1 9.729664362857202e-1 9.754701814174485e-1
          9.778649328291793e-1 9.801485692428658e-1 9.823189815221303e-1 9.843740743236379e-1
          9.863117677831632e-1 9.881299992358006e-1 9.898267249697184e-1 9.913999220128062e-1
          9.928475899515110e-1 9.941677527811027e-1 9.953584607865562e-1 9.964177924531793e-1
          9.973438564060634e-1 9.981347933773709e-1 9.987887782004108e-1 9.993040218294100e-1
          9.996787733837998e-1 9.999113222158009e-1 1.000000000000000e0 9.999431828435645e-1
          9.997392934156563e-1 9.993868030945441e-1 9.988842341308306e-1 9.982301618251427e-1
          9.974232167185393e-1 9.964620867938205e-1 9.953455196858128e-1 9.940723248986384e-1
          9.926413760278457e-1 9.910516129852036e-1 9.893020442238241e-1 9.873917489611832e-1
          9.853198793974677e-1 9.830856629265529e-1 9.806884043367690e-1 9.781274879984679e-1
          9.754023800352378e-1 9.725126304754493e-1 9.694578753806253e-1 9.662378389469502e-1
          9.628523355760164e-1 9.593012719107064e-1 9.555846488318657e-1 9.517025634112086e-1
          9.476552108156289e-1 9.434428861578443e-1 9.390659862880323e-1 9.345250115208430e-1
          9.298205672918883e-1 9.249533657375324e-1 9.199242271915097e-1 9.147340815916227e-1
          9.093839697894877e-1 9.038750447560203e-1 8.982085726751057e-1 8.923859339176536e-1
          8.864086238880207e-1 8.802782537346081e-1 8.739965509162888e-1 8.675653596162192e-1
          8.609866409945443e-1 8.542624732715053e-1 8.473950516325484e-1 8.403866879471760e-1
          8.332398102935201e-1 8.259569622809430e-1 8.185408021633897e-1 8.109941017367357e-1
          8.033197450140094e-1 7.955207266730982e-1 7.876001502724001e-1 7.795612262308421e-1
          7.714072695697554e-1 7.631416974152718e-1 7.547680262611768e-1 7.462898689935270e-1
          7.377109316797645e-1 7.290350101265824e-1 7.202659862123888e-1 7.114078240017683e-1
          7.024645656509730e-1 6.934403271150972e-1 6.843392936691704e-1 6.751657152569424e-1
          6.659239016826111e-1 6.566182176621195e-1 6.472530777519192e-1 6.378329411742194e-1
          6.283623065587294e-1 6.188457066216873e-1 6.092877028035896e-1 5.996928798874325e-1
          5.900658406194616e-1 5.804112003543861e-1 5.707335817467309e-1 5.610376095094821e-1
          5.513279052604252e-1 5.416090824755731e-1 5.318857415678471e-1 5.221624651077184e-1
          5.124438132008324e-1 5.027343190357641e-1 4.930384846129820e-1 4.833607766638659e-1
          4.737056227662372e-1 4.640774076603730e-1 4.544804697668734e-1 4.449190979051080e-1
          4.353975282082923e-1 4.259199412285795e-1 4.164904592229453e-1 4.071131436081274e-1
          3.977919925705030e-1 3.885309388145984e-1 3.793338474319635e-1 3.702045138704641e-1
          3.611466619826847e-1 3.521639421311456e-1 3.432599293274494e-1 3.344381213823275e-1
          3.257019370438759e-1 3.170547141020743e-1 3.084997074389814e-1 3.000400870057913e-1
          2.916789357102040e-1 2.834192472002855e-1 2.752639235341283e-1 2.672157727281150e-1
          2.592775061803901e-1 2.514517359701518e-1 2.437409720375477e-1 2.361476192531643e-1
          2.286739743902784e-1 2.213222230170800e-1 2.140944363298943e-1 2.069925679519359e-1
          2.000184507252460e-1 1.931737935261182e-1 1.864601781364608e-1 1.798790562051187e-1
          1.734317463341735e-1 1.671194313256231e-1 1.609431556236306e-1 1.549038229867308e-1
          1.490021944230236e-1 1.432388864195078e-1 1.376143694943660e-1 1.321289670982546e-1
          1.267828548875547e-1 1.215760603891565e-1 1.165084630727554e-1 1.115797948429042e-1
          1.067896409592433e-1 1.021374413895044e-1 9.762249259608760e-2 9.324394975331845e-2
          8.900082938893245e-2 8.489201243996092e-2 8.091624771002783e-2 7.707215571214824e-2
          7.335823287845828e-2 6.977285611592448e-2 6.631428768498448e-2 6.298068037626503e-2
          5.977008295900969e-2 5.668044587362047e-2 5.370962713977283e-2 5.085539845088630e-2
          4.811545142531728e-2 4.548740398446829e-2 4.296880682806739e-2 4.055714997714383e-2
          3.824986935569683e-2 3.604435338270537e-2 3.393794954694207e-2 3.192797093801516e-2
          3.001170270815444e-2 2.818640844046223e-2 2.644933640065324e-2 2.479772565069396e-2
          2.322881200420576e-2 2.173983380500601e-2 2.032803751171107e-2 1.899068307290555e-2
          1.772504907897945e-2 1.652843767833900e-2 1.539817924729822e-2 1.433163680454630e-2
          1.332621016265320e-2 1.237933981061328e-2 1.148851052292793e-2 1.065125469218597e-2
          9.865155383508773e-3 9.127849110581121e-3 8.437028334282408e-3 7.790443686163573e-3
          7.185905920177602e-3 6.621287597163839e-3 6.094524507605149e-3 5.603616839120578e-3
          5.146630096022779e-3 4.721695779057900e-3 4.327011834155223e-3 3.960842879644416e-3
          3.621520221949715e-3 3.307441670243506e-3 3.017071160937245e-3 2.748938203206871e-3
          2.501637156994240e-3 2.273826355097544e-3 2.064227081075737e-3 1.871622414713446e-3
          1.694855956669588e-3 1.532830444000275e-3 1.384506268164767e-3 1.248899906444888e-3
          1.125082277960994e-3 1.012177034850641e-3 9.093587988970958e-4 8.158513534556668e-4
          7.309258000323306e-4 6.538986880182929e-4 5.841335091696116e-4 5.210458686112944e-4
          4.640863830339892e-4 4.127241134498471e-4 3.664757862753614e-4 3.248894272907990e-4
          2.875464804273512e-4 2.540593542118803e-4 2.240696495576572e-4 1.972463727382335e-4
          1.732841928224055e-4 0.000000000000000e0 0.000000000000000e0 0.000000000000000e0
          0.000000000000000e0 0.000000000000000e0 0.000000000000000e0 0.000000000000000e0
          0.000000000000000e0 0.000000000000000e0 0.000000000000000e0 0.000000000000000e0
          0.000000000000000e0 0.000000000000000e0 0.000000000000000e0 0.000000000000000e0
          0.000000000000000e0 0.000000000000000e0 0.000000000000000e0 0.000000000000000e0
          0.000000000000000e0 0.000000000000000e0 0.000000000000000e0 0.000000000000000e0
          0.000000000000000e0 0.000000000000000e0 0.000000000000000e0 0.000000000000000e0
          0.000000000000000e0 0.000000000000000e0 0.000000000000000e0 0.000000000000000e0
          0.000000000000000e0 0.000000000000000e0 0.000000000000000e0 0.000000000000000e0
          0.000000000000000e0 0.000000000000000e0 0.000000000000000e0 0.000000000000000e0
          0.000000000000000e0 0.000000000000000e0 0.000000000000000e0 0.000000000000000e0
          0.000000000000000e0 0.000000000000000e0 0.000000000000000e0 0.000000000000000e0
          0.000000000000000e0 0.000000000000000e0 0.000000000000000e0 0.000000000000000e0
          0.000000000000000e0 0.000000000000000e0 0.000000000000000e0 0.000000000000000e0
          0.000000000000000e0 0.000000000000000e0 0.000000000000000e0 0.000000000000000e0
          0.000000000000000e0 0.000000000000000e0 0.000000000000000e0 0.000000000000000e0
          0.000000000000000e0 0.000000000000000e0 0.000000000000000e0 0.000000000000000e0
          0.000000000000000e0 0.000000000000000e0 0.000000000000000e0 0.000000000000000e0
          0.000000000000000e0 0.000000000000000e0 0.000000000000000e0 0.000000000000000e0
          0.000000000000000e0 0.000000000000000e0 0.000000000000000e0 0.000000000000000e0
          0.000000000000000e0 0.000000000000000e0 0.000000000000000e0 0.000000000000000e0
          0.000000000000000e0 0.000000000000000e0 0.000000000000000e0 0.000000000000000e0
          0.000000000000000e0 0.000000000000000e0 0.000000000000000e0 0.000000000000000e0
          0.000000000000000e0 0.000000000000000e0 0.000000000000000e0 0.000000000000000e0
          0.000000000000000e0 0.000000000000000e0 0.000000000000000e0 0.000000000000000e0
          0.000000000000000e0 0.000000000000000e0 0.000000000000000e0 0.000000000000000e0
          0.000000000000000e0 0.000000000000000e0 0.000000000000000e0 0.000000000000000e0
          0.000000000000000e0 0.000000000000000e0 0.000000000000000e0 0.000000000000000e0
          0.000000000000000e0 0.000000000000000e0 0.000000000000000e0 0.000000000000000e0
          0.000000000000000e0 0.000000000000000e0 0.000000000000000e0 0.000000000000000e0
          0.000000000000000e0 0.000000000000000e0 0.000000000000000e0 0.000000000000000e0
          0.000000000000000e0 0.000000000000000e0 0.000000000000000e0 0.000000000000000e0
          0.000000000000000e0 0.000000000000000e0 0.000000000000000e0 0.000000000000000e0
          0.000000000000000e0 0.000000000000000e0 0.000000000000000e0 0.000000000000000e0
          0.000000000000000e0 0.000000000000000e0 0.000000000000000e0 0.000000000000000e0
          0.000000000000000e0 0.000000000000000e0 0.000000000000000e0 0.000000000000000e0
          0.000000000000000e0 0.000000000000000e0 0.000000000000000e0 0.000000000000000e0
          0.000000000000000e0 0.000000000000000e0 0.000000000000000e0 0.000000000000000e0
          0.000000000000000e0
          </PP_GIPAW_WFS_AE>
        <PP_GIPAW_WFS_PS>
          1.846537257033773e-3 1.869769191102837e-3 1.893293345458305e-3 1.917113395722852e-3
          1.941233063750494e-3 1.965656118208183e-3 1.990386375164552e-3 2.015427698686059e-3
          2.040784001440642e-3 2.066459245308953e-3 2.092457442003279e-3 2.118782653694248e-3
          2.145438993645397e-3 2.172430626855743e-3 2.199761770710425e-3 2.227436695639502e-3
          2.255459725785069e-3 2.283835239676742e-3 2.312567670915618e-3 2.341661508866867e-3
          2.371121299361015e-3 2.400951645404023e-3 2.431157207896328e-3 2.461742706360903e-3
          2.492712919680465e-3 2.524072686843946e-3 2.555826907702377e-3 2.587980543734234e-3
          2.620538618820433e-3 2.653506220029051e-3 2.686888498409909e-3 2.720690669799145e-3
          2.754918015633907e-3 2.789575883777272e-3 2.824669689353549e-3 2.860204915594043e-3
          2.896187114693495e-3 2.932621908677265e-3 2.969514990279389e-3 3.006872123831720e-3
          3.044699146164187e-3 3.083001967516399e-3 3.121786572460699e-3 3.161059020836822e-3
          3.200825448698281e-3 3.241092069270644e-3 3.281865173921856e-3 3.323151133144775e-3
          3.364956397552002e-3 3.407287498883255e-3 3.450151051025367e-3 3.493553751045114e-3
          3.537502380235021e-3 3.582003805172267e-3 3.627064978790962e-3 3.672692941467809e-3
          3.718894822121463e-3 3.765677839325654e-3 3.813049302436333e-3 3.861016612732941e-3
          3.909587264574017e-3 3.958768846567320e-3 4.008569042754655e-3 4.058995633811527e-3
          4.110056498261942e-3 4.161759613708372e-3 4.214113058077223e-3 4.267125010879908e-3
          4.320803754489750e-3 4.375157675434941e-3 4.430195265707695e-3 4.485925124089847e-3
          4.542355957495089e-3 4.599496582328056e-3 4.657355925860474e-3 4.715943027624529e-3
          4.775267040823779e-3 4.835337233761755e-3 4.896162991288433e-3 4.957753816264923e-3
          5.020119331046499e-3 5.083269278984202e-3 5.147213525945351e-3 5.211962061853050e-3
          5.277525002245057e-3 5.343912589852122e-3 5.411135196196216e-3 5.479203323208730e-3
          5.548127604868979e-3 5.617918808863248e-3 5.688587838264640e-3 5.760145733233957e-3
          5.832603672741903e-3 5.905972976312887e-3 5.980265105790671e-3 6.055491667126090e-3
          6.131664412187234e-3 6.208795240592274e-3 6.286896201565252e-3 6.365979495815117e-3
          6.446057477438218e-3 6.527142655844753e-3 6.609247697709195e-3 6.692385428945235e-3
          6.776568836705419e-3 6.861811071405763e-3 6.948125448775731e-3 7.035525451933877e-3
          7.124024733489421e-3 7.213637117670162e-3 7.304376602476909e-3 7.396257361864976e-3
          7.489293747952818e-3 7.583500293258356e-3 7.678891712963274e-3 7.775482907205509e-3
          7.873288963400483e-3 7.972325158591275e-3 8.072606961828175e-3 8.174150036577975e-3
          8.276970243163246e-3 8.381083641232136e-3 8.486506492258973e-3 8.593255262076102e-3
          8.701346623437283e-3 8.810797458613012e-3 8.921624862018282e-3 9.033846142873065e-3
          9.147478827895961e-3 9.262540664031437e-3 9.379049621211001e-3 9.497023895148764e-3
          9.616481910171853e-3 9.737442322086045e-3 9.859924021077074e-3 9.983946134647981e-3
          1.010952803059309e-2 1.023668932000890e-2 1.036544986034242e-2 1.049582975847738e-2
          1.062784937385884e-2 1.076152932165655e-2 1.089689047596759e-2 1.103395397305875e-2
          1.117274121464927e-2 1.131327387123400e-2 1.145557388544813e-2 1.159966347547334e-2
          1.174556513848629e-2 1.189330165414985e-2 1.204289608814736e-2 1.219437179576081e-2
          1.234775242549323e-2 1.250306192273587e-2 1.266032453348064e-2 1.281956480807849e-2
          1.298080760504414e-2 1.314407809490785e-2 1.330940176411457e-2 1.347680441897131e-2
          1.364631218964296e-2 1.381795153419760e-2 1.399174924270135e-2 1.416773244136365e-2
          1.434592859673371e-2 1.452636551994823e-2 1.470907137103153e-2 1.489407466324824e-2
          1.508140426750960e-2 1.527108941683362e-2 1.546315971085986e-2 1.565764512041965e-2
          1.585457599216202e-2 1.605398305323626e-2 1.625589741603170e-2 1.646035058297517e-2
          1.666737445138740e-2 1.687700131839791e-2 1.708926388592035e-2 1.730419526568822e-2
          1.752182898435141e-2 1.774219898863534e-2 1.796533965056192e-2 1.819128577273436e-2
          1.842007259368583e-2 1.865173579329254e-2 1.888631149825270e-2 1.912383628763125e-2
          1.936434719847162e-2 1.960788173147512e-2 1.985447785674838e-2 2.010417401962037e-2
          2.035700914652875e-2 2.061302265097699e-2 2.087225443956291e-2 2.113474491807903e-2
          2.140053499768611e-2 2.166966610116005e-2 2.194218016921323e-2 2.221811966689114e-2
          2.249752759004465e-2 2.278044747187949e-2 2.306692338958273e-2 2.335699997102778e-2
          2.365072240155877e-2 2.394813643085411e-2 2.424928837987153e-2 2.455422514787394e-2
          2.486299421953811e-2 2.517564367214606e-2 2.549222218286044e-2 2.581277903608477e-2
          2.613736413090901e-2 2.646602798864132e-2 2.679882176042734e-2 2.713579723495692e-2
          2.747700684625998e-2 2.782250368159151e-2 2.817234148940717e-2 2.852657468742992e-2
          2.888525837080845e-2 2.924844832036881e-2 2.961620101095880e-2 2.998857361988711e-2
          3.036562403545755e-2 3.074741086559869e-2 3.113399344659088e-2 3.152543185188975e-2
          3.192178690104832e-2 3.232312016873808e-2 3.272949399386902e-2 3.314097148881094e-2
          3.355761654871489e-2 3.397949386093679e-2 3.440666891456356e-2 3.483920801004187e-2
          3.527717826891131e-2 3.572064764364125e-2 3.616968492757324e-2 3.662435976496903e-2
          3.708474266116427e-2 3.755090499282970e-2 3.802291901833916e-2 3.850085788824585e-2
          3.898479565586678e-2 3.947480728797587e-2 3.997096867560668e-2 4.047335664496456e-2
          4.098204896844885e-2 4.149712437578604e-2 4.201866256527284e-2 4.254674421513103e-2
          4.308145099497301e-2 4.362286557737921e-2 4.417107164958705e-2 4.472615392529145e-2
          4.528819815655738e-2 4.585729114584394e-2 4.643352075814057e-2 4.701697593321494e-2
          4.760774669797184e-2 4.820592417892419e-2 4.881160061477452e-2 4.942486936910723e-2
          5.004582494319163e-2 5.067456298889431e-2 5.131118032170098e-2 5.195577493384677e-2
          5.260844600755478e-2 5.326929392838121e-2 5.393842029866724e-2 5.461592795109578e-2
          5.530192096235218e-2 5.599650466688816e-2 5.669978567078704e-2 5.741187186572938e-2
          5.813287244305695e-2 5.886289790793358e-2 5.960206009360118e-2 6.035047217572959e-2
          6.110824868685603e-2 6.187550553091505e-2 6.265235999785372e-2 6.343893077833135e-2
          6.423533797850051e-2 6.504170313486584e-2 6.585814922921855e-2 6.668480070364301e-2
          6.752178347559080e-2 6.836922495302176e-2 6.922725404960367e-2 7.009600119997023e-2
          7.097559837503113e-2 7.186617909733011e-2 7.276787845644625e-2 7.368083312443321e-2
          7.460518137129086e-2 7.554106308046435e-2 7.648861976436411e-2 7.744799457990049e-2
          7.841933234402666e-2 7.940277954928293e-2 8.039848437933495e-2 8.140659672449834e-2
          8.242726819724204e-2 8.346065214766137e-2 8.450690367891250e-2 8.556617966259907e-2
          8.663863875410128e-2 8.772444140783712e-2 8.882374989244537e-2 8.993672830587956e-2
          9.106354259040108e-2 9.220436054745909e-2 9.335935185244505e-2 9.452868806930852e-2
          9.571254266502111e-2 9.691109102387180e-2 9.812451046158220e-2 9.935298023922316e-2
          1.005966815769169e-1 1.018557976673098e-1 1.031305136887942e-1 1.044210168184645e-1
          1.057274962447851e-1 1.070501431799522e-1 1.083891508719266e-1 1.097447146161180e-1
          1.111170317666950e-1 1.125063017474994e-1 1.139127260625395e-1 1.153365083060349e-1
          1.167778541719897e-1 1.182369714632626e-1 1.197140701001058e-1 1.212093621281447e-1
          1.227230617257637e-1 1.242553852108679e-1 1.258065510469861e-1 1.273767798486797e-1
          1.289662943862205e-1 1.305753195894998e-1 1.322040825511301e-1 1.338528125286964e-1
          1.355217409461164e-1 1.372111013940642e-1 1.389211296294113e-1 1.406520635736380e-1
          1.424041433101664e-1 1.441776110805617e-1 1.459727112795497e-1 1.477896904487948e-1
          1.496287972693820e-1 1.514902825529431e-1 1.533743992313651e-1 1.552814023450176e-1
          1.572115490294324e-1 1.591650985003676e-1 1.611423120371848e-1 1.631434529644651e-1
          1.651687866317915e-1 1.672185803916113e-1 1.692931035751061e-1 1.713926274659792e-1
          1.735174252720733e-1 1.756677720947318e-1 1.778439448958053e-1 1.800462224622119e-1
          1.822748853679475e-1 1.845302159334446e-1 1.868124981821730e-1 1.891220177943709e-1
          1.914590620577963e-1 1.938239198153750e-1 1.962168814096306e-1 1.986382386237675e-1
          2.010882846192774e-1 2.035673138699395e-1 2.060756220920715e-1 2.086135061708971e-1
          2.111812640828775e-1 2.137791948138593e-1 2.164075982728837e-1 2.190667752014981e-1
          2.217570270784053e-1 2.244786560192803e-1 2.272319646715843e-1 2.300172561041905e-1
          2.328348336916473e-1 2.356850009928817e-1 2.385680616241551e-1 2.414843191260696e-1
          2.444340768244194e-1 2.474176376846811e-1 2.504353041599281e-1 2.534873780319437e-1
          2.565741602453148e-1 2.596959507342720e-1 2.628530482420386e-1 2.660457501324502e-1
          2.692743521935977e-1 2.725391484332396e-1 2.758404308657301e-1 2.791784892901987e-1
          2.825536110597145e-1 2.859660808411650e-1 2.894161803655723e-1 2.929041881685625e-1
          2.964303793207090e-1 2.999950251474526e-1 3.035983929383131e-1 3.072407456450911e-1
          3.109223415687556e-1 3.146434340347251e-1 3.184042710562268e-1 3.222050949854280e-1
          3.260461421520367e-1 3.299276424890508e-1 3.338498191453513e-1 3.378128880848303e-1
          3.418170576717372e-1 3.458625282419413e-1 3.499494916597981e-1 3.540781308603221e-1
          3.582486193763657e-1 3.624611208505072e-1 3.667157885313696e-1 3.710127647540775e-1
          3.753521804045972e-1 3.797341543676833e-1 3.841587929581979e-1 3.886261893355575e-1
          3.931364229010919e-1 3.976895586781070e-1 4.022856466744757e-1 4.069247212275818e-1
          4.116068003314872e-1 4.163318849461973e-1 4.210999582889461e-1 4.259109851074403e-1
          4.307649109350394e-1 4.356616613278803e-1 4.406011410840122e-1 4.455832334446247e-1
          4.506077992775138e-1 4.556746762429839e-1 4.607836779424249e-1 4.659345930498676e-1
          4.711271844268908e-1 4.763611882213070e-1 4.816363129501354e-1 4.869522385674394e-1
          4.923086155176905e-1 4.977050637754160e-1 5.031411718719614e-1 5.086164959103180e-1
          5.141305585690549e-1 5.196828480965076e-1 5.252728172965052e-1 5.308998825070280e-1
          5.365634225733118e-1 5.422627778170858e-1 5.479972490037222e-1 5.537660963092882e-1
          5.595685382895983e-1 5.654037508535669e-1 5.712708662433151e-1 5.771689720236759e-1
          5.830971100839417e-1 5.890542756548658e-1 5.950394163441729e-1 6.010514311940137e-1
          6.070891697640412e-1 6.131514312439973e-1 6.192369635999401e-1 6.253444627584751e-1
          6.314725718336140e-1 6.376198804011040e-1 6.437849238253630e-1 6.499661826443818e-1
          6.561620820182298e-1 6.623709912470649e-1 6.685912233647954e-1 6.748210348148122e-1
          6.810586252144621e-1 6.873021372151845e-1 6.935496564654791e-1 6.997992116841010e-1
          7.060487748511044e-1 7.122962615245606e-1 7.185395312909647e-1 7.247763883575168e-1
          7.310045822945735e-1 7.372218089367260e-1 7.434257114509845e-1 7.496138815806061e-1
          7.557838610730878e-1 7.619331433007841e-1 7.680591750824700e-1 7.741593587140144e-1
          7.802310542160304e-1 7.862715818060483e-1 7.922782246023321e-1 7.982482315659101e-1
          8.041788206867631e-1 8.100671824193501e-1 8.159104833717812e-1 8.217058702518834e-1
          8.274504740722522e-1 8.331414146150212e-1 8.387758051555494e-1 8.443507574425011e-1
          8.498633869298677e-1 8.553108182543262e-1 8.606901909489293e-1 8.659986653814936e-1
          8.712334289031181e-1 8.763917021891011e-1 8.814707457510000e-1 8.864678665947881e-1
          8.913804249959473e-1 8.962058413578122e-1 9.009416031147321e-1 9.055852716363525e-1
          9.101344890838195e-1 9.145869851627399e-1 9.189405837114219e-1 9.231932090562232e-1
          9.273428920587465e-1 9.313877757721457e-1 9.353261206160310e-1 9.391563089712637e-1
          9.428768490874482e-1 9.464863781871943e-1 9.499836646421713e-1 9.533676090867685e-1
          9.566372443258286e-1 9.597917338834890e-1 9.628303690307584e-1 9.657525641200955e-1
          9.685578500462700e-1 9.712458656440504e-1 9.738163468250193e-1 9.762691132482987e-1
          9.786040523132497e-1 9.808211002565955e-1 9.829202201320506e-1 9.849013764477741e-1
          9.867645062360134e-1 9.885094863304611e-1 9.901360966305017e-1 9.916439791380107e-1
          9.930325925620597e-1 9.943011623001999e-1 9.954486256223948e-1 9.964735719055817e-1
          9.973741777937786e-1 9.981481371910760e-1 9.987925860333366e-1 9.993040218294100e-1
          9.996782180147324e-1 9.999108040581486e-1 9.999995201639662e-1 9.999427424622979e-1
          9.997388936456876e-1 9.993864451162271e-1 9.988839191487971e-1 9.982298910687785e-1
          9.974229914424683e-1 9.964619082784758e-1 9.953453892386880e-1 9.940722436513269e-1
          9.926413430597879e-1 9.910516271442418e-1 9.893021043283060e-1 9.873918538003499e-1
          9.853200277325881e-1 9.830858534921752e-1 9.806886358420273e-1 9.781277591284340e-1
          9.754026894523211e-1 9.725129768208451e-1 9.694582572758074e-1 9.662382549952079e-1
          9.628527843640386e-1 9.593017520102091e-1 9.555851588012667e-1 9.517031017973411e-1
          9.476557761554997e-1 9.434434769804369e-1 9.390666011161509e-1 9.345256488730016e-1
          9.298212256842339e-1 9.249540436858140e-1 9.199249232130841e-1 9.147347942075017e-1
          9.093846975264258e-1 9.038757861486369e-1 8.982093262680461e-1 8.923866982677849e-1
          8.864093975666629e-1 8.802790353298043e-1 8.739973390351022e-1 8.675661528870631e-1
          8.609874380695432e-1 8.542632728288851e-1 8.473958523790513e-1 8.403874886204969e-1
          8.332406096647688e-1 8.259577591571219e-1 8.185415953898893e-1 8.109948901998381e-1
          8.033205276434042e-1 7.955215024444026e-1 7.876009182096749e-1 7.795619854091067e-1
          7.714080191174929e-1 7.631424365169171e-1 7.547687541595870e-1 7.462905849924260e-1
          7.377116351461501e-1 7.290357004930993e-1 7.202666629796574e-1 7.114084867406573e-1
          7.024652140048189e-1 6.934409608018567e-1 6.843399124835065e-1 6.751663190722298e-1
          6.659244904528640e-1 6.566187914238276e-1 6.472536366257936e-1 6.378334853668438e-1
          6.283628363641065e-1 6.188462224226868e-1 6.092882050732880e-1 5.996933691903466e-1
          5.900663176126790e-1 5.804116657885863e-1 5.707340364671026e-1 5.610380544565428e-1
          5.513283414707441e-1 5.416095110824060e-1 5.318861638016834e-1 5.221628822967582e-1
          5.124442267713977e-1 5.027347305126528e-1 4.930388956197866e-1 4.833611889232578e-1
          4.737060381002437e-1 4.640778279906545e-1 4.544808971150191e-1 4.449195343929762e-1
          4.353979760584036e-1 4.259204027645938e-1 4.164909368702405e-1 4.071136398945020e-1
          3.977925101270299e-1 3.885314803766544e-1 3.793344158404634e-1 3.702051120733275e-1
          3.611472930365642e-1 3.521646092034527e-1 3.432606356987069e-1 3.344388704488906e-1
          3.257027323210565e-1 3.170555592277084e-1 3.085006061774870e-1 3.000410432527599e-1
          2.916799534975783e-1 2.834203307021725e-1 2.752650770733073e-1 2.672170007833020e-1
          2.592788133943186e-1 2.514531271585466e-1 2.437424521990605e-1 2.361491935803523e-1
          2.286756482817159e-1 2.213240020906894e-1 2.140963264376007e-1 2.069945751957504e-1
          2.000205814748927e-1 1.931760544383352e-1 1.864625761761049e-1 1.798815986682282e-1
          1.734344408731455e-1 1.671222859766845e-1 1.609461788367953e-1 1.549070236584521e-1
          1.490055819317772e-1 1.432424706645557e-1 1.376181609379856e-1 1.321329768117388e-1
          1.267870946013232e-1 1.215805425473548e-1 1.165132008927553e-1 1.115848023801611e-1
          1.067949331780195e-1 1.021430342400147e-1 9.762840309868785e-2 9.325019609042117e-2
          8.900743100540854e-2 8.489899015287030e-2 8.092362382861019e-2 7.707995416911174e-2
          7.336647937371543e-2 6.978157827405539e-2 6.632351522784895e-2 6.299044531234856e-2
          5.978041979126435e-2 5.669139182777302e-2 5.372122241528800e-2 5.086768649704089e-2
          4.812847924512189e-2 4.550122246949942e-2 4.298347112764260e-2 4.057271990567648e-2
          3.826640984254725e-2 3.606193496935656e-2 3.395664893694158e-2 3.194787160578186e-2
          3.003289557353028e-2 2.820899261674909e-2 2.647342002485917e-2 2.482342680583814e-2
          2.325625974480809e-2 2.176916929832104e-2 2.035941530894350e-2 1.902427252651106e-2
          1.776103592430783e-2 1.656702580035317e-2 1.543959265589491e-2 1.437612184523847e-2
          1.337403799307870e-2 1.243080917753981e-2 1.154395087934228e-2 1.071102969960135e-2
          9.929666851108921e-3 9.197541430236017e-3 8.512393479027331e-3 7.872026849637869e-3
          7.274311885953484e-3 6.717187940144510e-3 6.198665744994825e-3 5.716829666279079e-3
          5.269839863175667e-3 4.855934388900591e-3 4.473431268301819e-3 4.120730594545771e-3
          3.796316692889582e-3 3.498760406577471e-3 3.226721567617751e-3 2.978951724643493e-3
          2.754297210696889e-3 2.551702646414612e-3 2.370214989002733e-3 2.208988254804504e-3
          2.067289063843751e-3 1.944503179877255e-3 1.840143248112553e-3 1.753857967895397e-3
          1.685442979026185e-3 1.634853790534683e-3 1.602221139794101e-3 1.587869241600710e-3
          1.592337472647302e-3 1.616406139262386e-3 1.661132768054392e-3 1.727934279404423e-3
          1.818528017398129e-3 1.935029959444115e-3 2.080021927341828e-3 2.256624711573029e-3
          2.468585268063944e-3 2.720380782341247e-3 3.017342979327127e-3 3.365806776774450e-3
          3.773288253146623e-3 0.000000000000000e0 0.000000000000000e0 0.000000000000000e0
          0.000000000000000e0 0.000000000000000e0 0.000000000000000e0 0.000000000000000e0
          0.000000000000000e0 0.000000000000000e0 0.000000000000000e0 0.000000000000000e0
          0.000000000000000e0 0.000000000000000e0 0.000000000000000e0 0.000000000000000e0
          0.000000000000000e0 0.000000000000000e0 0.000000000000000e0 0.000000000000000e0
          0.000000000000000e0 0.000000000000000e0 0.000000000000000e0 0.000000000000000e0
          0.000000000000000e0 0.000000000000000e0 0.000000000000000e0 0.000000000000000e0
          0.000000000000000e0 0.000000000000000e0 0.000000000000000e0 0.000000000000000e0
          0.000000000000000e0 0.000000000000000e0 0.000000000000000e0 0.000000000000000e0
          0.000000000000000e0 0.000000000000000e0 0.000000000000000e0 0.000000000000000e0
          0.000000000000000e0 0.000000000000000e0 0.000000000000000e0 0.000000000000000e0
          0.000000000000000e0 0.000000000000000e0 0.000000000000000e0 0.000000000000000e0
          0.000000000000000e0 0.000000000000000e0 0.000000000000000e0 0.000000000000000e0
          0.000000000000000e0 0.000000000000000e0 0.000000000000000e0 0.000000000000000e0
          0.000000000000000e0 0.000000000000000e0 0.000000000000000e0 0.000000000000000e0
          0.000000000000000e0 0.000000000000000e0 0.000000000000000e0 0.000000000000000e0
          0.000000000000000e0 0.000000000000000e0 0.000000000000000e0 0.000000000000000e0
          0.000000000000000e0 0.000000000000000e0 0.000000000000000e0 0.000000000000000e0
          0.000000000000000e0 0.000000000000000e0 0.000000000000000e0 0.000000000000000e0
          0.000000000000000e0 0.000000000000000e0 0.000000000000000e0 0.000000000000000e0
          0.000000000000000e0 0.000000000000000e0 0.000000000000000e0 0.000000000000000e0
          0.000000000000000e0 0.000000000000000e0 0.000000000000000e0 0.000000000000000e0
          0.000000000000000e0 0.000000000000000e0 0.000000000000000e0 0.000000000000000e0
          0.000000000000000e0 0.000000000000000e0 0.000000000000000e0 0.000000000000000e0
          0.000000000000000e0 0.000000000000000e0 0.000000000000000e0 0.000000000000000e0
          0.000000000000000e0 0.000000000000000e0 0.000000000000000e0 0.000000000000000e0
          0.000000000000000e0 0.000000000000000e0 0.000000000000000e0 0.000000000000000e0
          0.000000000000000e0 0.000000000000000e0 0.000000000000000e0 0.000000000000000e0
          0.000000000000000e0 0.000000000000000e0 0.000000000000000e0 0.000000000000000e0
          0.000000000000000e0 0.000000000000000e0 0.000000000000000e0 0.000000000000000e0
          0.000000000000000e0 0.000000000000000e0 0.000000000000000e0 0.000000000000000e0
          0.000000000000000e0 0.000000000000000e0 0.000000000000000e0 0.000000000000000e0
          0.000000000000000e0 0.000000000000000e0 0.000000000000000e0 0.000000000000000e0
          0.000000000000000e0 0.000000000000000e0 0.000000000000000e0 0.000000000000000e0
          0.000000000000000e0 0.000000000000000e0 0.000000000000000e0 0.000000000000000e0
          0.000000000000000e0 0.000000000000000e0 0.000000000000000e0 0.000000000000000e0
          0.000000000000000e0 0.000000000000000e0 0.000000000000000e0 0.000000000000000e0
          0.000000000000000e0 0.000000000000000e0 0.000000000000000e0 0.000000000000000e0
          0.000000000000000e0
          </PP_GIPAW_WFS_PS>
      </PP_GIPAW_ORBITAL.1>
    </PP_GIPAW_ORBITALS>
    <PP_GIPAW_VLOCAL>
      <PP_GIPAW_VLOCAL_AE>
        -1.999622155308026e0 -1.999546972893740e0 -1.999603535953464e0 -1.999744843760390e0
        -2.000184001491838e0 -2.000816975297951e0 -2.001585360357260e0 -2.002538952486679e0
        -2.003600225696010e0 -2.004755308547045e0 -2.005981006520735e0 -2.007256580435567e0
        -2.008563787935129e0 -2.009886768589932e0 -2.011211888715521e0 -2.012527579643930e0
        -2.013824162141888e0 -2.015093667617136e0 -2.016329660499296e0 -2.017527065730460e0
        -2.018682004569194e0 -2.019791640317225e0 -2.020854035442250e0 -2.021868020806266e0
        -2.022833077135019e0 -2.023749228770280e0 -2.024616948963732e0 -2.025437076440214e0
        -2.026210742261427e0 -2.026939306250360e0 -2.027624302433761e0 -2.028267392098710e0
        -2.028870324127800e0 -2.029434901540430e0 -2.029962953491051e0 -2.030456312527754e0
        -2.030916795794522e0 -2.031346189913338e0 -2.031746239024523e0 -2.032118635560944e0
        -2.032465013546207e0 -2.032786943423999e0 -2.033085928707524e0 -2.033363403989301e0
        -2.033620733850964e0 -2.033859213070186e0 -2.034080067255823e0 -2.034284454066715e0
        -2.034473464915337e0 -2.034648126969305e0 -2.034809405727938e0 -2.034958207306302e0
        -2.035095381085342e0 -2.035221722453971e0 -2.035337975293237e0 -2.035444834963277e0
        -2.035542950829189e0 -2.035632928819285e0 -2.035715334022176e0 -2.035790692953989e0
        -2.035859496157332e0 -2.035922200314983e0 -2.035979230382820e0 -2.036030981693564e0
        -2.036077821710171e0 -2.036120092102993e0 -2.036158110348199e0 -2.036192171347083e0
        -2.036222549035323e0 -2.036249497628421e0 -2.036273253181059e0 -2.036294034786664e0
        -2.036312045731847e0 -2.036327474635521e0 -2.036340496317709e0 -2.036351273004473e0
        -2.036359955165300e0 -2.036366682237738e0 -2.036371583480423e0 -2.036374778640093e0
        -2.036376378730334e0 -2.036376486603099e0 -2.036375197548359e0 -2.036372599789913e0
        -2.036368774949359e0 -2.036363798697402e0 -2.036357741036745e0 -2.036350666729957e0
        -2.036342635730829e0 -2.036333703382674e0 -2.036323920894028e0 -2.036313335644435e0
        -2.036301991387652e0 -2.036289928498482e0 -2.036277184193392e0 -2.036263792864688e0
        -2.036249786216139e0 -2.036235193465867e0 -2.036220041509993e0 -2.036204355017385e0
        -2.036188156716098e0 -2.036171467473385e0 -2.036154306449862e0 -2.036136691186742e0
        -2.036118637627608e0 -2.036100160402595e0 -2.036081272873095e0 -2.036061987171959e0
        -2.036042314295015e0 -2.036022264140327e0 -2.036001845679638e0 -2.035981066986825e0
        -2.035959935287200e0 -2.035938456995094e0 -2.035916637734153e0 -2.035894482497266e0
        -2.035871995634260e0 -2.035849180878827e0 -2.035826041410156e0 -2.035802579826048e0
        -2.035778798254510e0 -2.035754698387559e0 -2.035730281496082e0 -2.035705548400125e0
        -2.035680499487542e0 -2.035655134867781e0 -2.035629454296005e0 -2.035603457195299e0
        -2.035577142696150e0 -2.035550509590225e0 -2.035523556438688e0 -2.035496281555805e0
        -2.035468683032189e0 -2.035440758710786e0 -2.035412506149347e0 -2.035383922766225e0
        -2.035355005785362e0 -2.035325752231388e0 -2.035296158951293e0 -2.035266222567873e0
        -2.035235939586823e0 -2.035205306363642e0 -2.035174319078169e0 -2.035142973769939e0
        -2.035111266306438e0 -2.035079192442216e0 -2.035046747802091e0 -2.035013927873138e0
        -2.034980728025489e0 -2.034947143466651e0 -2.034913169302712e0 -2.034878800535854e0
        -2.034844032056435e0 -2.034808858629750e0 -2.034773274865874e0 -2.034737275307869e0
        -2.034700854400191e0 -2.034664006462236e0 -2.034626725701190e0 -2.034589006197463e0
        -2.034550841953235e0 -2.034512226860934e0 -2.034473154721478e0 -2.034433619203634e0
        -2.034393613857655e0 -2.034353132193353e0 -2.034312167546076e0 -2.034270713180939e0
        -2.034228762263990e0 -2.034186307810306e0 -2.034143342801136e0 -2.034099860046469e0
        -2.034055852273640e0 -2.034011312108940e0 -2.033966232038753e0 -2.033920604496736e0
        -2.033874421741867e0 -2.033827675959720e0 -2.033780359216846e0 -2.033732463435215e0
        -2.033683980483653e0 -2.033634902051064e0 -2.033585219745187e0 -2.033534925045380e0
        -2.033484009277984e0 -2.033432463720731e0 -2.033380279461932e0 -2.033327447481027e0
        -2.033273958644201e0 -2.033219803659564e0 -2.033164973151530e0 -2.033109457562223e0
        -2.033053247227842e0 -2.032996332349589e0 -2.032938702956713e0 -2.032880348991827e0
        -2.032821260210747e0 -2.032761426243704e0 -2.032700836576490e0 -2.032639480519588e0
        -2.032577347282215e0 -2.032514425874075e0 -2.032450705170405e0 -2.032386173892236e0
        -2.032320820567897e0 -2.032254633612513e0 -2.032187601240688e0 -2.032119711509938e0
        -2.032050952307438e0 -2.031981311328340e0 -2.031910776134723e0 -2.031839334068281e0
        -2.031766972304037e0 -2.031693677837720e0 -2.031619437458827e0 -2.031544237800564e0
        -2.031468065266373e0 -2.031390906081463e0 -2.031312746270790e0 -2.031233571641398e0
        -2.031153367825445e0 -2.031072120209505e0 -2.030989813989871e0 -2.030906434142243e0
        -2.030821965401776e0 -2.030736392321556e0 -2.030649699191961e0 -2.030561870081455e0
        -2.030472888832437e0 -2.030382739030818e0 -2.030291404048641e0 -2.030198866982286e0
        -2.030105110690161e0 -2.030010117780846e0 -2.029913870586186e0 -2.029816351202879e0
        -2.029717541435799e0 -2.029617422829197e0 -2.029515976648038e0 -2.029413183865162e0
        -2.029309025198677e0 -2.029203481047769e0 -2.029096531520105e0 -2.028988156437130e0
        -2.028878335303451e0 -2.028767047317992e0 -2.028654271358105e0 -2.028539985990018e0
        -2.028424169453545e0 -2.028306799647417e0 -2.028187854141879e0 -2.028067310160328e0
        -2.027945144581301e0 -2.027821333930937e0 -2.027695854369606e0 -2.027568681694664e0
        -2.027439791328363e0 -2.027309158321413e0 -2.027176757336906e0 -2.027042562642009e0
        -2.026906548111889e0 -2.026768687211735e0 -2.026628953001099e0 -2.026487318121844e0
        -2.026343754785289e0 -2.026198234773250e0 -2.026050729425315e0 -2.025901209638528e0
        -2.025749645853713e0 -2.025596008047313e0 -2.025440265730164e0 -2.025282387927787e0
        -2.025122343184081e0 -2.024960099551866e0 -2.024795624576454e0 -2.024628885294738e0
        -2.024459848218183e0 -2.024288479336455e0 -2.024114744103126e0 -2.023938607416989e0
        -2.023760033627599e0 -2.023578986515890e0 -2.023395429289839e0 -2.023209324574744e0
        -2.023020634397520e0 -2.022829320183484e0 -2.022635342740259e0 -2.022438662255573e0
        -2.022239238280757e0 -2.022037029716028e0 -2.021831994809095e0 -2.021624091136093e0
        -2.021413275598404e0 -2.021199504405761e0 -2.020982733059962e0 -2.020762916355047e0
        -2.020540008354156e0 -2.020313962384291e0 -2.020084731023584e0 -2.019852266081877e0
        -2.019616518596049e0 -2.019377438812111e0 -2.019134976175856e0 -2.018889079315852e0
        -2.018639696030172e0 -2.018386773276504e0 -2.018130257151507e0 -2.017870092883220e0
        -2.017606224813040e0 -2.017338596380107e0 -2.017067150110886e0 -2.016791827597334e0
        -2.016512569487921e0 -2.016229315469510e0 -2.015942004249159e0 -2.015650573543317e0
        -2.015354960054795e0 -2.015055099462778e0 -2.014750926404423e0 -2.014442374452932e0
        -2.014129376105896e0 -2.013811862765940e0 -2.013489764722527e0 -2.013163011137457e0
        -2.012831530021749e0 -2.012495248214286e0 -2.012154091374163e0 -2.011807983954769e0
        -2.011456849184274e0 -2.011100609048885e0 -2.010739184266176e0 -2.010372494274868e0
        -2.010000457210488e0 -2.009622989884512e0 -2.009240007764143e0 -2.008851424946737e0
        -2.008457154146668e0 -2.008057106670230e0 -2.007651192395592e0 -2.007239319747499e0
        -2.006821395672078e0 -2.006397325625235e0 -2.005967013543369e0 -2.005530361820385e0
        -2.005087271285775e0 -2.004637641177327e0 -2.004181369124517e0 -2.003718351121662e0
        -2.003248481503550e0 -2.002771652920286e0 -2.002287756311294e0 -2.001796680887689e0
        -2.001298314101974e0 -2.000792541622877e0 -2.000279247313493e0 -1.999758313200845e0
        -1.999229619454425e0 -1.998693044361368e0 -1.998148464298216e0 -1.997595753704403e0
        -1.997034785055046e0 -1.996465428839517e0 -1.995887553532523e0 -1.995301025567086e0
        -1.994705709308016e0 -1.994101467023169e0 -1.993488158861674e0 -1.992865642824357e0
        -1.992233774737171e0 -1.991592408223999e0 -1.990941394678077e0 -1.990280583239640e0
        -1.989609820765220e0 -1.988928951803237e0 -1.988237818566889e0 -1.987536260902906e0
        -1.986824116271682e0 -1.986101219718527e0 -1.985367403846388e0 -1.984622498790266e0
        -1.983866332189201e0 -1.983098729164179e0 -1.982319512291597e0 -1.981528501576195e0
        -1.980725514428382e0 -1.979910365638416e0 -1.979082867350377e0 -1.978242829041849e0
        -1.977390057499231e0 -1.976524356794378e0 -1.975645528261790e0 -1.974753370475320e0
        -1.973847679229859e0 -1.972928247519223e0 -1.971994865515988e0 -1.971047320551064e0
        -1.970085397094207e0 -1.969108876739149e0 -1.968117538184483e0 -1.967111157217375e0
        -1.966089506698140e0 -1.965052356544482e0 -1.963999473720752e0 -1.962930622224079e0
        -1.961845563073084e0 -1.960744054297680e0 -1.959625850929136e0 -1.958490704994905e0
        -1.957338365510562e0 -1.956168578475853e0 -1.954981086870984e0 -1.953775630652732e0
        -1.952551946757633e0 -1.951309769101663e0 -1.950048828583672e0 -1.948768853090282e0
        -1.947469567500973e0 -1.946150693699455e0 -1.944811950583953e0 -1.943453054079825e0
        -1.942073717153682e0 -1.940673649830695e0 -1.939252559216419e0 -1.937810149517066e0
        -1.936346122064838e0 -1.934860175344966e0 -1.933352005024076e0 -1.931821303985650e0
        -1.930267762364008e0 -1.928691067582525e0 -1.927090904395657e0 -1.925466954932391e0
        -1.923818898745381e0 -1.922146412861324e0 -1.920449171836383e0 -1.918726847813058e0
        -1.916979110580439e0 -1.915205627642243e0 -1.913406064284821e0 -1.911580083649524e0
        -1.909727346808919e0 -1.907847512847680e0 -1.905940238949441e0 -1.904005180483807e0
        -1.902041991101026e0 -1.900050322829420e0 -1.898029826176376e0 -1.895980150237957e0
        -1.893900942808880e0 -1.891791850498996e0 -1.889652518854912e0 -1.887482592484269e0
        -1.885281715188855e0 -1.883049530100444e0 -1.880785679820916e0 -1.878489806568793e0
        -1.876161552330561e0 -1.873800559018624e0 -1.871406468632426e0 -1.868978923426420e0
        -1.866517566082922e0 -1.864022039889575e0 -1.861491988924941e0 -1.858927058246788e0
        -1.856326894087232e0 -1.853691144053128e0 -1.851019457330998e0 -1.848311484899956e0
        -1.845566879748095e0 -1.842785297094493e0 -1.839966394616844e0 -1.837109832684349e0
        -1.834215274596745e0 -1.831282386827547e0 -1.828310839272942e0 -1.825300305504926e0
        -1.822250463029821e0 -1.819160993552811e0 -1.816031583245038e0 -1.812861923016312e0
        -1.809651708792261e0 -1.806400641794479e0 -1.803108428826109e0 -1.799774782560144e0
        -1.796399421831773e0 -1.792982071933059e0 -1.789522464910221e0 -1.786020339865895e0
        -1.782475443261112e0 -1.778887529219990e0 -1.775256359836227e0 -1.771581705480061e0
        -1.767863345107429e0 -1.764101066567742e0 -1.760294666912351e0 -1.756443952702160e0
        -1.752548740313526e0 -1.748608856243943e0 -1.744624137413887e0 -1.740594431466233e0
        -1.736519597062492e0 -1.732399504173822e0 -1.728234034368878e0 -1.724023081094898e0
        -1.719766549952325e0 -1.715464358962916e0 -1.711116438829377e0 -1.706722733187216e0
        -1.702283198846131e0 -1.697797806021135e0 -1.693266538552231e0 -1.688689394111674e0
        -1.684066384398622e0 -1.679397535318274e0 -1.674682887146377e0 -1.669922494677143e0
        -1.665116427353196e0 -1.660264769377646e0 -1.655367619805725e0 -1.650425092615625e0
        -1.645437316757071e0 -1.640404436176344e0 -1.635326609817372e0 -1.630204011596238e0
        -1.625036830348630e0 -1.619825269749019e0 -1.614569548200112e0 -1.609269898691364e0
        -1.603926568624790e0 -1.598539819607540e0 -1.593109927209391e0 -1.587637180683797e0
        -1.582121882651814e0 -1.576564348747199e0 -1.570964907221075e0 -1.565323898505662e0
        -1.559641674735860e0 -1.553918599227002e0 -1.548155045907957e0 -1.542351398708970e0
        -1.536508050902863e0 -1.530625404398591e0 -1.524703868987157e0 -1.518743861538768e0
        -1.512745805150499e0 -1.506710128244463e0 -1.500637263616458e0 -1.494527647434923e0
        -1.488381718190186e0 -1.482199915594582e0 -1.475982679434534e0 -1.469730448375184e0
        -1.463443658718918e0 -1.457122743119771e0 -1.450768129255357e0 -1.444380238459254e0
        -1.437959484316728e0 -1.431506271227106e0 -1.425020992937200e0 -1.418504031050452e0
        -1.411955753517207e0 -1.405376513112194e0 -1.398766645906640e0 -1.392126469742728e0
        -1.385456282719054e0 -1.378756361697432e0 -1.372026960842133e0 -1.365268310203581e0
        -1.358480614360282e0 -1.351664051133888e0 -1.344818770393928e0 -1.337944892970075e0
        -1.331042509691472e0 -1.324111680574417e0 -1.317152434181331e0 -1.310164767175858e0
        -1.303148644100368e0 -1.296103997404110e0 -1.289030727752462e0 -1.281928704648577e0
        -1.274797767400953e0 -1.267637726471837e0 -1.260448365242162e0 -1.253229442230557e0
        -1.245980693804081e0 -1.238701837418657e0 -1.231392575427502e0 -1.224052599494565e0
        -1.216681595649349e0 -1.209279250016736e0 -1.201845255253082e0 -1.194379317715938e0
        -1.186881165389326e0 -1.179350556581721e0 -1.171787289405543e0 -1.164191212039040e0
        -1.156562233762023e0 -1.148900336744496e0 -1.141205588556321e0 -1.133478155350990e0
        -1.125718315661577e0 -1.117926474730838e0 -1.110103179279360e0 -1.102249132598038e0
        -1.094365209831479e0 -1.086452473300008e0 -1.078512187688507e0 -1.070545834911206e0
        -1.062555128444191e0 -1.054542026899989e0 -1.046508746604018e0 -1.038457772920211e0
        -1.030391870063367e0 -1.022314089129607e0 -1.014227774073701e0 -1.006136565363832e0
        -9.980444010505932e-1 -9.899555149985414e-1 -9.818744320083692e-1 -9.738059597894409e-1
        -9.657551772850615e-1 -9.577274193535208e-1 -9.497282578680087e-1 -9.417634788362527e-1
        -9.338390556674835e-1 -9.259611185580665e-1 -9.181359200462385e-1 -9.103697968355213e-1
        -9.026691280352846e-1 -8.950402900167450e-1 -8.874896081306826e-1 -8.800233055800716e-1
        -8.726474497865471e-1 -8.653678966310753e-1 -8.581902329898613e-1 -8.511197180229962e-1
        -8.441612237067991e-1 -8.373191751316885e-1 -8.305974911134740e-1 -8.239995256912728e-1
        -8.175280111052681e-1 -8.111850028658141e-1 -8.049718275408734e-1 -7.988890338985291e-1
        -7.929363480534630e-1 -7.871126332682509e-1 -7.814158550613274e-1 -7.758430522718490e-1
        -7.703903147173698e-1 -7.650527680676047e-1 -7.598245665288921e-1 -7.546988938983294e-1
        -7.496679735035410e-1 -7.447230874791496e-1 -7.398546057622974e-1 -7.350520250974054e-1
        -7.303040182343176e-1 -7.255984933860130e-1 -7.209226638684330e-1 -7.162631276963848e-1
        -7.116059567397262e-1 -7.069367948656216e-1 -7.022409643115525e-1 -6.975035793414702e-1
        -6.927096660569340e-1 -6.878442870564924e-1 -6.828926694749225e-1 -6.778403347973479e-1
        -6.726732287272796e-1 -6.673778493132710e-1 -6.619413714973106e-1 -6.563517662508778e-1
        -6.505979125152849e-1 -6.446697002529543e-1 -6.385581230573305e-1 -6.322553589467542e-1
        -6.257548381830346e-1 -6.190512972037823e-1 -6.121408180232207e-1 -6.050208527413732e-1
        -5.976902330874330e-1 -5.901491652061324e-1 -5.823992101680134e-1 -5.744432509313714e-1
        -5.662854467072529e-1 -5.579311758663779e-1 -5.493869686779121e-1 -5.406604312835229e-1
        -5.317601623809477e-1 -5.226956641258430e-1 -5.134772487566956e-1 -5.041159424104603e-1
        -4.946233875312033e-1 -4.850117451822308e-1 -4.752935984625771e-1 -4.654818581033759e-1
        -4.555896711851261e-1 -4.456303337780260e-1 -4.356172081667029e-1 -4.255636451840062e-1
        -4.154829120468507e-1 -4.053881259639410e-1 -3.952921936726908e-1 -3.852077569605488e-1
        -3.751471441368645e-1 -3.651223273440940e-1 -3.551448855322488e-1 -3.452259728677114e-1
        -3.353762923054536e-1 -3.256060740224387e-1 -3.159250583878491e-1 -3.063424831320577e-1
        -2.968670743701037e-1 -2.875070411351698e-1 -2.782700730829819e-1 -2.691633410375533e-1
        -2.601935000617014e-1 -2.513666947516098e-1 -2.426885664721839e-1 -2.341642622690853e-1
        -2.257984452129689e-1 -2.175953059515324e-1 -2.095585752650267e-1 -2.016915374403582e-1
        -1.939970442979806e-1 -1.864775297237691e-1 -1.791350245752122e-1 -1.719711718472901e-1
        -1.649872419981851e-1 -1.581841483486857e-1 -1.515624624815201e-1 -1.451224295781085e-1
        -1.388639836403401e-1 -1.327867625538348e-1 -1.268901229571477e-1 -1.211731548881485e-1
        -1.156346961848024e-1 -1.102733466226376e-1 -1.050874817754278e-1 -1.000752665892073e-1
        -9.523466866259936e-2 -9.056347122872609e-2 -8.605928583582717e-2 -8.171956472493722e-2
        -7.754161290401308e-2 -7.352259991841557e-2 -6.965957131794791e-2 -6.594945982076430e-2
        -6.238909617419143e-2 -5.897521971226714e-2 -5.570448860923552e-2 -5.257348982784404e-2
        -4.957874877360769e-2 -4.671673856955091e-2 -4.398386692407352e-2 -4.137657536764648e-2
        -3.889120914124343e-2 -3.652411938716357e-2 -3.427164683750896e-2 -3.213012916657311e-2
        -3.009590798092607e-2 -2.816533541091002e-2 -2.633478133067864e-2 -2.460062823121574e-2
        -2.295935223191409e-2 -2.141002101634980e-2 3.256849662203540e-8 -2.975287179378923e-7
        -7.286367250994786e-10 9.058994922258099e-10 2.203461348568819e-9 3.226367346360467e-9
        4.030319298297401e-9 4.660254390942573e-9 5.152306110544899e-9 5.535444665268249e-9
        5.832825622410684e-9 6.062891359551834e-9 6.240292492032373e-9 6.376620812201372e-9
        6.481027148077984e-9 6.560705212073557e-9 6.621289333768027e-9 6.667186560377227e-9
        6.701820413467874e-9 6.727850742134789e-9 6.747334351754502e-9 6.761849501690715e-9
        6.772614272750049e-9 6.780553740143734e-9 6.786376127883436e-9 6.790620390448474e-9
        6.793688969289392e-9 6.795890952516714e-9 6.797451437859737e-9 6.798544375192980e-9
        6.799298837523025e-9 6.799805469892783e-9 6.800137911073215e-9 6.800344893922496e-9
        6.800464860025313e-9 6.800526956553437e-9 6.800547732682077e-9 6.800547143526679e-9
        6.800542124045794e-9 6.800537107882498e-9 6.800534483568725e-9 6.800529617986890e-9
        6.800526705944923e-9 6.800521965645759e-9 6.800517236824040e-9 6.800513900656426e-9
        6.800509133251968e-9 6.800506563515017e-9 6.800501763190279e-9 6.800496994156660e-9
        6.800493506864412e-9 6.800489155203576e-9 6.800486471325975e-9 6.800481819370319e-9
        6.800476882453797e-9 6.800474325800419e-9 6.800469463639038e-9 6.800466492480682e-9
        6.800462172801272e-9 6.800457507578662e-9 6.800454646914532e-9 6.800450093356291e-9
        6.800447584514890e-9 6.800443098002908e-9 6.800438395800090e-9 6.800435868796939e-9
        6.800431635270716e-9 6.800428614918540e-9 6.800424313835927e-9 6.800419661106192e-9
        6.800417026280405e-9 6.800413218431236e-9 6.800410230340437e-9 6.800405694671213e-9
        6.800401550085916e-9 6.800398760137000e-9 6.800394285557822e-9 6.800391699857567e-9
        6.800387803525433e-9 6.800383112894625e-9 6.800380637516199e-9 6.800376513710593e-9
        6.800374067820364e-9 6.800370112919380e-9 6.800365917929570e-9 6.800363239708130e-9
        6.800359134526092e-9 6.800356614397520e-9 6.800352408635217e-9 6.800348270514176e-9
        6.800346306312688e-9 6.800342273648563e-9 6.800340000329629e-9 6.800335937452915e-9
        6.800332141153648e-9 6.800329848979324e-9 6.800326023693593e-9 6.800323833723293e-9
        6.800320134252303e-9 6.800316425335248e-9 6.800314137515198e-9 6.800309835801208e-9
        6.800307765509594e-9 6.800303756767079e-9 6.800300171769656e-9 6.800298458801826e-9
        6.800294370239572e-9 6.800292934313391e-9 6.800289537121451e-9 6.800285604683474e-9
        6.800283948435682e-9 6.800279883241117e-9 6.800278202480857e-9 6.800274540515741e-9
        6.800270557137358e-9 6.800269130836272e-9 6.800266029037230e-9 6.800264220204766e-9
        6.800260499313618e-9 6.800257308877327e-9 6.800255977151571e-9 6.800252893574704e-9
        6.800250689499231e-9 6.800247659651793e-9 6.800244317045381e-9 6.800242463865852e-9
        6.800239148916205e-9 6.800238009406112e-9 6.800234793787364e-9 6.800231907367662e-9
        6.800230728988316e-9 6.800227921408158e-9 6.800226820023457e-9 6.800223482198097e-9
        6.800220589979121e-9 6.800219405553348e-9 6.800216889803968e-9 6.800215854048195e-9
        6.800213046319872e-9 6.800210350555992e-9 6.800209338980656e-9 6.800206489253856e-9
        6.800206038841930e-9 6.800203103812753e-9 6.800200578751150e-9 6.800200246771024e-9
        6.800197515253417e-9 6.800196935740033e-9 6.800194836011286e-9 6.800192206760068e-9
        6.800191395881459e-9 6.800189552172880e-9 6.800189171947957e-9 6.800186727033074e-9
        6.800184627909742e-9 6.800184558190553e-9 6.800182240587629e-9 6.800182097925913e-9
        6.800180424381330e-9 6.800178611126455e-9 6.800178401077822e-9 6.800176375023116e-9
        6.800177113783566e-9
        </PP_GIPAW_VLOCAL_AE>
      <PP_GIPAW_VLOCAL_PS>
        -6.232229691336971e-3 -6.310621490470743e-3 -6.389999337066042e-3 -6.470375634065023e-3
        -6.551762940426986e-3 -6.634173973074296e-3 -6.717621608897693e-3 -6.802118886763310e-3
        -6.887679009546435e-3 -6.974315346189081e-3 -7.062041433792949e-3 -7.150870979736913e-3
        -7.240817863814407e-3 -7.331896140417159e-3 -7.424120040712328e-3 -7.517503974864370e-3
        -7.612062534306228e-3 -7.707810494003901e-3 -7.804762814769860e-3 -7.902934645605633e-3
        -8.002341326058826e-3 -8.102998388623289e-3 -8.204921561169447e-3 -8.308126769401667e-3
        -8.412630139343268e-3 -8.518447999857653e-3 -8.625596885201348e-3 -8.734093537603870e-3
        -8.843954909889097e-3 -8.955198168123463e-3 -9.067840694287732e-3 -9.181900089003619e-3
        -9.297394174289973e-3 -9.414340996326757e-3 -9.532758828294712e-3 -9.652666173226079e-3
        -9.774081766878737e-3 -9.897024580690900e-3 -1.002151382472542e-2 -1.014756895067505e-2
        -1.027520965491690e-2 -1.040445588156933e-2 -1.053532782561748e-2 -1.066784593606911e-2
        -1.080203091914165e-2 -1.093790374152546e-2 -1.107548563362335e-2 -1.121479809285759e-2
        -1.135586288710211e-2 -1.149870205802714e-2 -1.164333792453007e-2 -1.178979308627036e-2
        -1.193809042716573e-2 -1.208825311896514e-2 -1.224030462489230e-2 -1.239426870331083e-2
        -1.255016941142250e-2 -1.270803110902424e-2 -1.286787846232602e-2 -1.302973644780636e-2
        -1.319363035610004e-2 -1.335958579596170e-2 -1.352762869827735e-2 -1.369778532008435e-2
        -1.387008224867976e-2 -1.404454640582573e-2 -1.422120505190996e-2 -1.440008579019785e-2
        -1.458121657116460e-2 -1.476462569684378e-2 -1.495034182530154e-2 -1.513839397506835e-2
        -1.532881152966085e-2 -1.552162424221074e-2 -1.571686224009070e-2 -1.591455602963549e-2
        -1.611473650090442e-2 -1.631743493248510e-2 -1.652268299641787e-2 -1.673051276315055e-2
        -1.694095670649869e-2 -1.715404770874417e-2 -1.736981906577888e-2 -1.758830449231323e-2
        -1.780953812715456e-2 -1.803355453849269e-2 -1.826038872932520e-2 -1.849007614297386e-2
        -1.872265266857081e-2 -1.895815464663758e-2 -1.919661887484039e-2 -1.943808261372486e-2
        -1.968258359244933e-2 -1.993016001475663e-2 -2.018085056499519e-2 -2.043469441407834e-2
        -2.069173122560396e-2 -2.095200116209837e-2 -2.121554489124200e-2 -2.148240359224600e-2
        -2.175261896234323e-2 -2.202623322323452e-2 -2.230328912767233e-2 -2.258382996619944e-2
        -2.286789957389534e-2 -2.315554233716845e-2 -2.344680320077578e-2 -2.374172767482689e-2
        -2.404036184184558e-2 -2.434275236401424e-2 -2.464894649042469e-2 -2.495899206451081e-2
        -2.527293753149386e-2 -2.559083194595548e-2 -2.591272497957888e-2 -2.623866692877561e-2
        -2.656870872255246e-2 -2.690290193062215e-2 -2.724129877133488e-2 -2.758395211980496e-2
        -2.793091551627264e-2 -2.828224317445006e-2 -2.863798998997305e-2 -2.899821154895442e-2
        -2.936296413670271e-2 -2.973230474649284e-2 -3.010629108849244e-2 -3.048498159875992e-2
        -3.086843544839453e-2 -3.125671255279814e-2 -3.164987358097340e-2 -3.204797996507071e-2
        -3.245109390992208e-2 -3.285927840280228e-2 -3.327259722332820e-2 -3.369111495329634e-2
        -3.411489698682940e-2 -3.454400954063808e-2 -3.497851966429892e-2 -3.541849525077136e-2
        -3.586400504705277e-2 -3.631511866480819e-2 -3.677190659127571e-2 -3.723444020035780e-2
        -3.770279176370605e-2 -3.817703446201062e-2 -3.865724239647401e-2 -3.914349060042672e-2
        -3.963585505087148e-2 -4.013441268044168e-2 -4.063924138961036e-2 -4.115042005867689e-2
        -4.166802856006468e-2 -4.219214777082897e-2 -4.272285958530443e-2 -4.326024692799484e-2
        -4.380439376643344e-2 -4.435538512427637e-2 -4.491330709464707e-2 -4.547824685354746e-2
        -4.605029267349686e-2 -4.662953393732424e-2 -4.721606115216151e-2 -4.780996596359071e-2
        -4.841134116982940e-2 -4.902028073628165e-2 -4.963687981035353e-2 -5.026123473625683e-2
        -5.089344306994295e-2 -5.153360359438722e-2 -5.218181633515781e-2 -5.283818257594160e-2
        -5.350280487428513e-2 -5.417578707779088e-2 -5.485723434025650e-2 -5.554725313792234e-2
        -5.624595128637467e-2 -5.695343795739156e-2 -5.766982369580179e-2 -5.839522043681312e-2
        -5.912974152350258e-2 -5.987350172461947e-2 -6.062661725248488e-2 -6.138920578091391e-2
        -6.216138646383877e-2 -6.294327995399835e-2 -6.373500842150142e-2 -6.453669557304147e-2
        -6.534846667122790e-2 -6.617044855415609e-2 -6.700276965524918e-2 -6.784556002315616e-2
        -6.869895134219326e-2 -6.956307695292057e-2 -7.043807187292201e-2 -7.132407281788805e-2
        -7.222121822292030e-2 -7.312964826423636e-2 -7.404950488095416e-2 -7.498093179726345e-2
        -7.592407454503501e-2 -7.687908048638464e-2 -7.784609883658345e-2 -7.882528068750116e-2
        -7.981677903118658e-2 -8.082074878370012e-2 -8.183734680926237e-2 -8.286673194471378e-2
        -8.390906502443569e-2 -8.496450890544605e-2 -8.603322849263279e-2 -8.711539076448512e-2
        -8.821116479924809e-2 -8.932072180149094e-2 -9.044423512847160e-2 -9.158188031712124e-2
        -9.273383511180123e-2 -9.390027949168106e-2 -9.508139569885131e-2 -9.627736826709976e-2
        -9.748838405035315e-2 -9.871463225148654e-2 -9.995630445234379e-2 -1.012135946434142e-1
        -1.024866992538891e-1 -1.037758171826333e-1 -1.050811498287058e-1 -1.064029011229847e-1
        -1.077412775599322e-1 -1.090964882296001e-1 -1.104687448503138e-1 -1.118582618013383e-1
        -1.132652561566052e-1 -1.146899477183721e-1 -1.161325590511179e-1 -1.175933155162774e-1
        -1.190724453075195e-1 -1.205701794860523e-1 -1.220867520161717e-1 -1.236223998019681e-1
        -1.251773627240575e-1 -1.267518836766436e-1 -1.283462086055288e-1 -1.299605865458573e-1
        -1.315952696607064e-1 -1.332505132804923e-1 -1.349265759420817e-1 -1.366237194292766e-1
        -1.383422088132006e-1 -1.400823124928333e-1 -1.418443022368740e-1 -1.436284532257452e-1
        -1.454350440940632e-1 -1.472643569735254e-1 -1.491166775361249e-1 -1.509922950385492e-1
        -1.528915023669425e-1 -1.548145960812781e-1 -1.567618764612760e-1 -1.587336475527047e-1
        -1.607302172138393e-1 -1.627518971626499e-1 -1.647990030242427e-1 -1.668718543797873e-1
        -1.689707748151885e-1 -1.710960919698405e-1 -1.732481375872911e-1 -1.754272475654203e-1
        -1.776337620072792e-1 -1.798680252736989e-1 -1.821303860345686e-1 -1.844211973214355e-1
        -1.867408165818754e-1 -1.890896057328975e-1 -1.914679312150691e-1 -1.938761640479332e-1
        -1.963146798857598e-1 -1.987838590737354e-1 -2.012840867045940e-1 -2.038157526758714e-1
        -2.063792517484611e-1 -2.089749836048928e-1 -2.116033529079675e-1 -2.142647693606726e-1
        -2.169596477664461e-1 -2.196884080900467e-1 -2.224514755188158e-1 -2.252492805243328e-1
        -2.280822589250038e-1 -2.309508519488630e-1 -2.338555062969107e-1 -2.367966742070124e-1
        -2.397748135185138e-1 -2.427903877374388e-1 -2.458438661011153e-1 -2.489357236442217e-1
        -2.520664412653559e-1 -2.552365057929994e-1 -2.584464100529591e-1 -2.616966529362287e-1
        -2.649877394657108e-1 -2.683201808642284e-1 -2.716944946241445e-1 -2.751112045749506e-1
        -2.785708409512965e-1 -2.820739404628907e-1 -2.856210463637746e-1 -2.892127085206456e-1
        -2.928494834816934e-1 -2.965319345468592e-1 -3.002606318365367e-1 -3.040361523600247e-1
        -3.078590800841798e-1 -3.117300060020132e-1 -3.156495282013687e-1 -3.196182519320297e-1
        -3.236367896727810e-1 -3.277057611980753e-1 -3.318257936432790e-1 -3.359975215708841e-1
        -3.402215870343603e-1 -3.444986396401182e-1 -3.488293366102807e-1 -3.532143428431555e-1
        -3.576543309726548e-1 -3.621499814253351e-1 -3.667019824762594e-1 -3.713110303027997e-1
        -3.759778290362341e-1 -3.807030908114603e-1 -3.854875358134024e-1 -3.903318923210728e-1
        -3.952368967483035e-1 -4.002032936820667e-1 -4.052318359155878e-1 -4.103232844792482e-1
        -4.154784086667728e-1 -4.206979860559398e-1 -4.259828025269382e-1 -4.313336522722421e-1
        -4.367513378023605e-1 -4.422366699474339e-1 -4.477904678492240e-1 -4.534135589473268e-1
        -4.591067789591940e-1 -4.648709718500600e-1 -4.707069897947492e-1 -4.766156931316821e-1
        -4.825979503068601e-1 -4.886546378054073e-1 -4.947866400726155e-1 -5.009948494249262e-1
        -5.072801659463946e-1 -5.136434973712639e-1 -5.200857589526438e-1 -5.266078733153265e-1
        -5.332107702927106e-1 -5.398953867461388e-1 -5.466626663647219e-1 -5.535135594446911e-1
        -5.604490226481006e-1 -5.674700187409626e-1 -5.745775163055628e-1 -5.817724894259141e-1
        -5.890559173486066e-1 -5.964287841134053e-1 -6.038920781531622e-1 -6.114467918639105e-1
        -6.190939211381565e-1 -6.268344648607311e-1 -6.346694243689271e-1 -6.425998028708422e-1
        -6.506266048182768e-1 -6.587508352364192e-1 -6.669734990039964e-1 -6.752956000809181e-1
        -6.837181406831522e-1 -6.922421203987658e-1 -7.008685352443264e-1 -7.095983766559092e-1
        -7.184326304121224e-1 -7.273722754865282e-1 -7.364182828228330e-1 -7.455716140306929e-1
        -7.548332199991385e-1 -7.642040394182921e-1 -7.736849972062014e-1 -7.832770028415029e-1
        -7.929809485895897e-1 -8.027977076175707e-1 -8.127281319963036e-1 -8.227730505814813e-1
        -8.329332667651915e-1 -8.432095560930577e-1 -8.536026637445783e-1 -8.641133018647277e-1
        -8.747421467360365e-1 -8.854898357923371e-1 -8.963569644640931e-1 -9.073440828401541e-1
        -9.184516921469001e-1 -9.296802410310320e-1 -9.410301216374307e-1 -9.525016654775863e-1
        -9.640951390712933e-1 -9.758107393569205e-1 -9.876485888640460e-1 -9.996087306322185e-1
        -1.011691122866337e0 -1.023895633323461e0 -1.036222033415584e0 -1.048669992021654e0
        -1.061239068997253e0 -1.073928708367326e0 -1.086738231198802e0 -1.099666828140765e0
        -1.112713551618991e0 -1.125877307677834e0 -1.139156847459193e0 -1.152550758311297e0
        -1.166057454519504e0 -1.179675167645667e0 -1.193401936477669e0 -1.207235596578650e0
        -1.221173769431666e0 -1.235213851177911e0 -1.249353000940656e0 -1.263588128747924e0
        -1.277915883044418e0 -1.292332637792858e0 -1.306834479185216e0 -1.321417191967657e0
        -1.336076245381843e0 -1.350806778746671e0 -1.365603586705175e0 -1.380461104147226e0
        -1.395373390841790e0 -1.410334115814246e0 -1.425336541502156e0 -1.440373507739872e0
        -1.455437415617085e0 -1.470520211272155e0 -1.485613369686842e0 -1.500707878550938e0
        -1.515794222288392e0 -1.530862366333598e0 -1.545901741759710e0 -1.560901230375715e0
        -1.575849150416986e0 -1.590733242972106e0 -1.605540659295849e0 -1.620257949174368e0
        -1.634871050531968e0 -1.649365280474845e0 -1.663725327980757e0 -1.677935248478435e0
        -1.691978460568317e0 -1.705837745149338e0 -1.719495247245702e0 -1.732932480848608e0
        -1.746130337104179e0 -1.759069096197223e0 -1.771728443310284e0 -1.784087489055249e0
        -1.796124794790830e0 -1.807818403262859e0 -1.819145875029522e0 -1.830084331142982e0
        -1.840610502575061e0 -1.850700786899333e0 -1.860331312740996e0 -1.869478012515443e0
        -1.878116703990434e0 -1.886223181191736e0 -1.893773315166167e0 -1.900743165109824e0
        -1.907109100337781e0 -1.912847933536765e0 -1.917937065701837e0 -1.922354643103600e0
        -1.926079726554166e0 -1.929092473149676e0 -1.931374330566665e0 -1.932908243860616e0
        -1.933678874557683e0 -1.933672831654817e0 -1.932878913937440e0 -1.931288362783114e0
        -1.928895124347079e0 -1.925696119710437e0 -1.921691521219828e0 -1.916885032848634e0
        -1.911284171959569e0 -1.904900549355241e0 -1.897750143951919e0 -1.889853567805199e0
        -1.881236316556018e0 -1.871928999641418e0 -1.861967543849723e0 -1.851393362973872e0
        -1.840253485435940e0 -1.828600630863022e0 -1.816493225652772e0 -1.803995346627249e0
        -1.791176580967619e0 -1.778111789735790e0 -1.764880761510446e0 -1.751567742038761e0
        -1.738260825361980e0 -1.725051191740770e0 -1.712032177976268e0 -1.699298166492227e0
        -1.686943281015962e0 -1.675059879039588e0 -1.663736834684548e0 -1.653057610432609e0
        -1.643098122755435e0 -1.633924415384000e0 -1.625590165298039e0 -1.618134061062685e0
        -1.611577111595445e0 -1.605919966627105e0 -1.601140358994920e0 -1.597190814633003e0
        -1.593996820040049e0 -1.591455690716767e0 -1.589436449437520e0 -1.587781102471320e0
        -1.586307797598201e0 -1.584816463022487e0 -1.583097664707496e0 -1.580945585505518e0
        -1.578176227768521e0 -1.574652177848123e0 -1.570315553061375e0 -1.565231087539730e0
        -1.559641712465690e0 -1.553918637474517e0 -1.548155084661923e0 -1.542351437954976e0
        -1.536508090623702e0 -1.530625444573526e0 -1.524703909583638e0 -1.518743902487069e0
        -1.512745846345734e0 -1.506710169594296e0 -1.500637305053957e0 -1.494527688895585e0
        -1.488381759603749e0 -1.482199956885207e0 -1.475982720519826e0 -1.469730489165640e0
        -1.463443699118364e0 -1.457122783024868e0 -1.450768168554835e0 -1.444380277033737e0
        -1.437959522038263e0 -1.431506307958836e0 -1.425021028533723e0 -1.418504065364224e0
        -1.411955786428583e0 -1.405376544529873e0 -1.398766675713096e0 -1.392126497780209e0
        -1.385456308813351e0 -1.378756385664492e0 -1.372026982487938e0 -1.365268329314879e0
        -1.358480630531410e0 -1.351664061199324e0 -1.344818753597307e0 -1.337944831061853e0
        -1.331042420990490e0 -1.324111586598646e0 -1.317152338151684e0 -1.310164669456028e0
        -1.303148544867169e0 -1.296103896829102e0 -1.289030626011259e0 -1.281928601921506e0
        -1.274797663872438e0 -1.267637622329833e0 -1.260448260679180e0 -1.253229337443655e0
        -1.245980588993976e0 -1.238701732789680e0 -1.231392471187529e0 -1.224052495854832e0
        -1.216681492824261e0 -1.209279148223256e0 -1.201845154710355e0 -1.194379218645185e0
        -1.186881068013039e0 -1.179350461122565e0 -1.171787196086099e0 -1.164191121081395e0
        -1.156562145386465e0 -1.148900251168522e0 -1.141205505993664e0 -1.133478076010448e0
        -1.125718239746114e0 -1.117926402436333e0 -1.110103110792964e0 -1.102249068096952e0
        -1.094365149481789e0 -1.086452417255222e0 -1.078512136088059e0 -1.070545787879130e0
        -1.062555086087803e0 -1.054541989308564e0 -1.046508713847656e0 -1.038457745047477e0
        -1.030391847103223e0 -1.022314071091423e0 -1.014227760941323e0 -1.006136557097161e0
        -9.980443975878231e-1 -9.899555162550053e-1 -9.818744378725082e-1 -9.738059701322117e-1
        -9.657551919611945e-1 -9.577274381936803e-1 -9.497282806844602e-1 -9.417635054246187e-1
        -9.338390858086564e-1 -9.259611520203228e-1 -9.181359565874335e-1 -9.103698362054693e-1
        -9.026691699782612e-1 -8.950403342738715e-1 -8.874896544423896e-1 -8.800233536885644e-1
        -8.726474994380334e-1 -8.653679475779091e-1 -8.581902849924347e-1 -8.511197708513903e-1
        -8.441612771424277e-1 -8.373192289685562e-1 -8.305975451590282e-1 -8.239995797672275e-1
        -8.175280650483176e-1 -8.111850565278754e-1 -8.049718807892226e-1 -7.988890866160824e-1
        -7.929364001388770e-1 -7.871126846358861e-1 -7.814159056414774e-1 -7.758431020110976e-1
        -7.703903635788566e-1 -7.650528160316743e-1 -7.598246135940859e-1 -7.546989400823657e-1
        -7.496680188445291e-1 -7.447231320372859e-1 -7.398546496215736e-1 -7.350520683672610e-1
        -7.303040610516055e-1 -7.255985359170490e-1 -7.209227063107198e-1 -7.162631702801169e-1
        -7.116059997290989e-1 -7.069368385596217e-1 -7.022410090443579e-1 -6.975036254823113e-1
        -6.927097140092350e-1 -6.878443372562825e-1 -6.828927223884985e-1 -6.778403909182149e-1
        -6.726732885724670e-1 -6.673779134187984e-1 -6.619414404131070e-1 -6.563518405353248e-1
        -6.505979927290801e-1 -6.446697869527488e-1 -6.385582167893126e-1 -6.322554602400957e-1
        -6.257549475434464e-1 -6.190514151073359e-1 -6.121409449105320e-1 -6.050209890122442e-1
        -5.976903790959974e-1 -5.901493212567295e-1 -5.823993765117970e-1 -5.744434277635785e-1
        -5.662856341653004e-1 -5.579313740287427e-1 -5.493871775637111e-1 -5.406606508528565e-1
        -5.317603925359427e-1 -5.226959047122953e-1 -5.134774995662807e-1 -5.041162031834495e-1
        -4.946236579595845e-1 -4.850120249131786e-1 -4.752938871022009e-1 -4.654821552206607e-1
        -4.555899763160019e-1 -4.456306464295182e-1 -4.356175278210701e-1 -4.255639713028553e-1
        -4.154832440751562e-1 -4.053884633339233e-1 -3.952925358075565e-1 -3.852081032780300e-1
        -3.751474940525612e-1 -3.651226802745832e-1 -3.551452408979749e-1 -3.452263300956329e-1
        -3.353766508314497e-1 -3.256064332934910e-1 -3.159254178639757e-1 -3.063428422880360e-1
        -2.968674326969616e-1 -2.875073981414890e-1 -2.782704282959862e-1 -2.691636940040327e-1
        -2.601938503487497e-1 -2.513670419472063e-1 -2.426889101856356e-1 -2.341646021313254e-1
        -2.257987808767387e-1 -2.175956370914415e-1 -2.095589015775265e-1 -2.016918586436109e-1
        -1.939973601316493e-1 -1.864778399487380e-1 -1.791353289732414e-1 -1.719714702206045e-1
        -1.649875341690206e-1 -1.581844341587869e-1 -1.515627417915964e-1 -1.451227022672577e-1
        -1.388642496054398e-1 -1.327870217089038e-1 -1.268903752326908e-1 -1.211734002304713e-1
        -1.156349345553146e-1 -1.102735779971323e-1 -1.050877061433482e-1 -1.000754839528963e-1
        -9.523487903653015e-2 -9.056367463872464e-2 -8.605948231826622e-2 -8.171975432591967e-2
        -7.754179567852772e-2 -7.352277592946487e-2 -6.965974063565225e-2 -6.594962252142449e-2
        -6.238925233929876e-2 -5.897536942747664e-2 -5.570463196325549e-2 -5.257362691124799e-2
        -4.957887967757985e-2 -4.671686338441051e-2 -4.398398573783882e-2 -4.137668826421132e-2
        -3.889131619847851e-2 -3.652422067469885e-2 -3.427174241419675e-2 -3.213021907761062e-2
        -3.009599225452054e-2 -2.816541405169501e-2 -2.633485443731423e-2 -2.460069473725909e-2
        -2.295941819986489e-2 -2.141007228634559e-2 3.256935401161316e-8 -2.975269678063615e-7
        -7.269289837797171e-10 9.075597811149560e-10 2.205073699059404e-9 3.227929255667575e-9
        4.031829045539411e-9 4.661710821742296e-9 5.153709297087287e-9 5.536795463130768e-9
        5.834121728222282e-9 6.064135382468423e-9 6.241484957028885e-9 6.377761427635686e-9
        6.482117578323544e-9 6.561745898601119e-9 6.622280180372022e-9 6.668131936340080e-9
        6.702719048439267e-9 6.728704639227795e-9 6.748144195649413e-9 6.762617296907236e-9
        6.773342766109758e-9 6.781241535940000e-9 6.787026827453407e-9 6.791236383041616e-9
        6.794270689661513e-9 6.796441172823526e-9 6.797971172579155e-9 6.799035975537033e-9
        6.799764726845286e-9 6.800246636961531e-9 6.800556803797132e-9 6.800744168111223e-9
        6.800845356345498e-9 6.800893141595036e-9 6.800898423419560e-9 6.800887000743949e-9
        6.800872361443924e-9 6.800861693111900e-9 6.800854565928640e-9 6.800847007769235e-9
        6.800841142192557e-9 6.800834974576192e-9 6.800829396599559e-9 6.800825494631914e-9
        6.800819704907862e-9 6.800817294418923e-9 6.800813001033911e-9 6.800807176470741e-9
        6.800804107155561e-9 6.800800197344563e-9 6.800796035460907e-9 6.800792423530810e-9
        6.800786454770140e-9 6.800785052961320e-9 6.800779542355187e-9 6.800776986002050e-9
        6.800773348064509e-9 6.800766502533663e-9 6.800766006643867e-9 6.800759464714114e-9
        6.800757809913448e-9 6.800753536067051e-9 6.800748723612746e-9 6.800745389894431e-9
        6.800742157308392e-9 6.800739091518713e-9 6.800735664766848e-9 6.800729425413955e-9
        6.800727245973554e-9 6.800724225471328e-9 6.800721541426364e-9 6.800715495609488e-9
        6.800713062796339e-9 6.800709767872030e-9 6.800705684477080e-9 6.800701913341223e-9
        6.800698233228136e-9 6.800692773574163e-9 6.800690829779227e-9 6.800687010839429e-9
        6.800683353376914e-9 6.800681056571751e-9 6.800677043434456e-9 6.800673711015244e-9
        6.800670471652312e-9 6.800668159176721e-9 6.800662551877319e-9 6.800659299893669e-9
        6.800656592707258e-9 6.800652924565044e-9 6.800651147403203e-9 6.800646511314037e-9
        6.800642116720178e-9 6.800640454977986e-9 6.800636711844545e-9 6.800633928725732e-9
        6.800630168947473e-9 6.800626367997527e-9 6.800625565300498e-9 6.800620478040441e-9
        6.800618609614608e-9 6.800615458053159e-9 6.800609130552175e-9 6.800608641859911e-9
        6.800605124729774e-9 6.800603668568417e-9 6.800600664574496e-9 6.800597488612146e-9
        6.800595416990305e-9 6.800590146531100e-9 6.800589179634093e-9 6.800586759749550e-9
        6.800581212538082e-9 6.800579817339029e-9 6.800576845446602e-9 6.800574758902036e-9
        6.800571593846037e-9 6.800568746069611e-9 6.800567512361343e-9 6.800564122267706e-9
        6.800561980344726e-9 6.800558982746780e-9 6.800555324091933e-9 6.800552778124665e-9
        6.800551277552918e-9 6.800548351885039e-9 6.800545973777908e-9 6.800543304357052e-9
        6.800540911314207e-9 6.800539689474716e-9 6.800538273170571e-9 6.800535296860120e-9
        6.800532074958832e-9 6.800530804394510e-9 6.800528634917322e-9 6.800527198659125e-9
        6.800524972107345e-9 6.800521478715367e-9 6.800520505361663e-9 6.800517365422262e-9
        6.800518253726862e-9 6.800514810419469e-9 6.800513515232442e-9 6.800511798191700e-9
        6.800508765841856e-9 6.800507888233032e-9 6.800505976911225e-9 6.800505085061731e-9
        6.800503040818278e-9 6.800500399970448e-9 6.800500927708997e-9 6.800499156077726e-9
        6.800495727245350e-9 6.800495574974724e-9 6.800494106114273e-9 6.800493132156927e-9
        6.800491760175156e-9 6.800489878953929e-9 6.800489221619327e-9 6.800487348319390e-9
        6.800486702365403e-9
        </PP_GIPAW_VLOCAL_PS>
    </PP_GIPAW_VLOCAL>
  </PP_GIPAW>

  <PP_FULL_WFC number_of_wfc="2">
    <PP_AEWFC.1 index="1" label="1S" l="0">
      1.749126805657208e-3 1.771127522944278e-3 1.793404967773103e-3 1.815962620854394e-3
      1.838803799017441e-3 1.861931624393621e-3 1.885349800665529e-3 1.909061943283333e-3
      1.933071734713274e-3 1.957382903417649e-3 1.981999224320191e-3 2.006924519386536e-3
      2.032162658215253e-3 2.057717558630420e-3 2.083593187282257e-3 2.109793560254479e-3
      2.136322743678635e-3 2.163184854355529e-3 2.190384060383810e-3 2.217924581795812e-3
      2.245810691200791e-3 2.274046714435621e-3 2.302637031223092e-3 2.331586075837904e-3
      2.360898337780474e-3 2.390578362458672e-3 2.420630751877587e-3 2.451060165337450e-3
      2.481871320139819e-3 2.513068992302135e-3 2.544658017280769e-3 2.576643290702665e-3
      2.609029769105700e-3 2.641822470687851e-3 2.675026476065308e-3 2.708646929039623e-3
      2.742689037374022e-3 2.777158073578968e-3 2.812059375707117e-3 2.847398348157753e-3
      2.883180462490826e-3 2.919411258250712e-3 2.956096343799781e-3 2.993241397161925e-3
      3.030852166876128e-3 3.068934472860211e-3 3.107494207284859e-3 3.146537335458050e-3
      3.186069896720003e-3 3.226098005348764e-3 3.266627851476543e-3 3.307665702016930e-3
      3.349217901603110e-3 3.391290873537188e-3 3.433891120750766e-3 3.477025226776873e-3
      3.520699856733391e-3 3.564921758318101e-3 3.609697762815460e-3 3.655034786115258e-3
      3.700939829743272e-3 3.747419981904048e-3 3.794482418535945e-3 3.842134404378576e-3
      3.890383294052770e-3 3.939236533153200e-3 3.988701659353806e-3 4.038786303526157e-3
      4.089498190870876e-3 4.140845142062286e-3 4.192835074406399e-3 4.245476003012412e-3
      4.298776041977813e-3 4.352743405587295e-3 4.407386409525572e-3 4.462713472104278e-3
      4.518733115503068e-3 4.575453967025100e-3 4.632884760367018e-3 4.691034336903606e-3
      4.749911646987251e-3 4.809525751262375e-3 4.869885821994991e-3 4.931001144417534e-3
      4.992881118089119e-3 5.055535258271389e-3 5.118973197320111e-3 5.183204686092679e-3
      5.248239595371659e-3 5.314087917304593e-3 5.380759766860167e-3 5.448265383300932e-3
      5.516615131672740e-3 5.585819504311060e-3 5.655889122364339e-3 5.726834737334558e-3
      5.798667232635193e-3 5.871397625166695e-3 5.945037066909706e-3 6.019596846536139e-3
      6.095088391038345e-3 6.171523267376476e-3 6.248913184144272e-3 6.327269993253410e-3
      6.406605691636611e-3 6.486932422969648e-3 6.568262479412499e-3 6.650608303369713e-3
      6.733982489270288e-3 6.818397785367125e-3 6.903867095556333e-3 6.990403481216488e-3
      7.078020163068073e-3 7.166730523053262e-3 7.256548106236217e-3 7.347486622724091e-3
      7.439559949608928e-3 7.532782132930615e-3 7.627167389661088e-3 7.722730109709958e-3
      7.819484857951752e-3 7.917446376274942e-3 8.016629585652957e-3 8.117049588237334e-3
      8.218721669473194e-3 8.321661300237288e-3 8.425884138998674e-3 8.531406034002307e-3
      8.638243025475701e-3 8.746411347858805e-3 8.855927432057321e-3 8.966807907719595e-3
      9.079069605537324e-3 9.192729559570187e-3 9.307805009594626e-3 9.424313403476926e-3
      9.542272399570823e-3 9.661699869139701e-3 9.782613898803692e-3 9.905032793011742e-3
      1.002897507653888e-2 1.015445949700883e-2 1.028150502744211e-2 1.041013086882989e-2
      1.054035645273361e-2 1.067220144391068e-2 1.080568574296629e-2 1.094082948903164e-2
      1.107765306246857e-2 1.121617708760090e-2 1.135642243547254e-2 1.149841022663254e-2
      1.164216183394728e-2 1.178769888543984e-2 1.193504326715680e-2 1.208421712606253e-2
      1.223524287296117e-2 1.238814318544634e-2 1.254294101087884e-2 1.269965956939232e-2
      1.285832235692714e-2 1.301895314829254e-2 1.318157600025713e-2 1.334621525466789e-2
      1.351289554159786e-2 1.368164178252238e-2 1.385247919352421e-2 1.402543328852752e-2
      1.420052988256082e-2 1.437779509504890e-2 1.455725535313394e-2 1.473893739502570e-2
      1.492286827338100e-2 1.510907535871245e-2 1.529758634282648e-2 1.548842924229076e-2
      1.568163240193099e-2 1.587722449835702e-2 1.607523454351853e-2 1.627569188828997e-2
      1.647862622608505e-2 1.668406759650049e-2 1.689204638898929e-2 1.710259334656324e-2
      1.731573956952476e-2 1.753151651922798e-2 1.774995602186903e-2 1.797109027230540e-2
      1.819495183790433e-2 1.842157366242014e-2 1.865098906990031e-2 1.888323176862033e-2
      1.911833585504703e-2 1.935633581783032e-2 1.959726654182318e-2 1.984116331212969e-2
      2.008806181818093e-2 2.033799815783847e-2 2.059100884152540e-2 2.084713079638440e-2
      2.110640137046286e-2 2.136885833692456e-2 2.163453989828769e-2 2.190348469068901e-2
      2.217573178817363e-2 2.245132070701013e-2 2.273029141003071e-2 2.301268431099594e-2
      2.329854027898362e-2 2.358790064280143e-2 2.388080719542284e-2 2.417730219844580e-2
      2.447742838657371e-2 2.478122897211824e-2 2.508874764952319e-2 2.540002859990906e-2
      2.571511649563760e-2 2.603405650489576e-2 2.635689429629818e-2 2.668367604350794e-2
      2.701444842987430e-2 2.734925865308710e-2 2.768815442984685e-2 2.803118400054971e-2
      2.837839613398651e-2 2.872984013205480e-2 2.908556583448333e-2 2.944562362356758e-2
      2.981006442891559e-2 3.017893973220303e-2 3.055230157193632e-2 3.093020254822281e-2
      3.131269582754671e-2 3.169983514754974e-2 3.209167482181502e-2 3.248826974465315e-2
      3.288967539588895e-2 3.329594784564755e-2 3.370714375913834e-2 3.412332040143538e-2
      3.454453564225263e-2 3.497084796071242e-2 3.540231645010556e-2 3.583900082264136e-2
      3.628096141418575e-2 3.672825918898577e-2 3.718095574437842e-2 3.763911331548210e-2
      3.810279477986844e-2 3.857206366221263e-2 3.904698413891994e-2 3.952762104272639e-2
      4.001403986727117e-2 4.050630677163853e-2 4.100448858486672e-2 4.150865281042138e-2
      4.201886763063109e-2 4.253520191108200e-2 4.305772520496926e-2 4.358650775740209e-2
      4.412162050965989e-2 4.466313510339611e-2 4.521112388478706e-2 4.576565990862234e-2
      4.632681694233382e-2 4.689466946995958e-2 4.746929269603961e-2 4.805076254943956e-2
      4.863915568709901e-2 4.923454949770046e-2 4.983702210525525e-2 5.044665237260229e-2
      5.106351990481592e-2 5.168770505251815e-2 5.231928891509156e-2 5.295835334378813e-2
      5.360498094472945e-2 5.425925508179390e-2 5.492125987938578e-2 5.559108022508161e-2
      5.626880177214861e-2 5.695451094193005e-2 5.764829492609226e-2 5.835024168872797e-2
      5.906043996831013e-2 5.977897927949068e-2 6.050594991473847e-2 6.124144294581015e-2
      6.198555022504775e-2 6.273836438649699e-2 6.349997884683961e-2 6.427048780613291e-2
      6.504998624835006e-2 6.583856994171377e-2 6.663633543881675e-2 6.744338007652083e-2
      6.825980197562805e-2 6.908570004031538e-2 6.992117395732579e-2 7.076632419490703e-2
      7.162125200149015e-2 7.248605940409964e-2 7.336084920648576e-2 7.424572498697102e-2
      7.514079109600135e-2 7.604615265339262e-2 7.696191554526345e-2 7.788818642064419e-2
      7.882507268775253e-2 7.977268250992529e-2 8.073112480119644e-2 8.170050922151034e-2
      8.268094617155979e-2 8.367254678723762e-2 8.467542293369064e-2 8.568968719896422e-2
      8.671545288722633e-2 8.775283401155814e-2 8.880194528629971e-2 8.986290211893794e-2
      9.093582060152375e-2 9.202081750160602e-2 9.311801025266845e-2 9.422751694405616e-2
      9.534945631037788e-2 9.648394772036990e-2 9.763111116520717e-2 9.879106724624696e-2
      9.996393716219023e-2 1.011498426956452e-1 1.023489061990781e-1 1.035612505801343e-1
      1.047869992863154e-1 1.060262762889939e-1 1.072792060667500e-1 1.085459135880136e-1
      1.098265242929935e-1 1.111211640748764e-1 1.124299592602782e-1 1.137530365889296e-1
      1.150905231925759e-1 1.164425465730744e-1 1.178092345796685e-1 1.191907153854204e-1
      1.205871174627812e-1 1.219985695582803e-1 1.234252006663114e-1 1.248671400019966e-1
      1.263245169731066e-1 1.277974611510153e-1 1.292861022406681e-1 1.307905700495423e-1
      1.323109944555758e-1 1.338475053740433e-1 1.354002327233565e-1 1.369693063897655e-1
      1.385548561909378e-1 1.401570118383913e-1 1.417759028987579e-1 1.434116587538528e-1
      1.450644085595260e-1 1.467342812032703e-1 1.484214052605615e-1 1.501259089499054e-1
      1.518479200865671e-1 1.535875660349545e-1 1.553449736596336e-1 1.571202692749468e-1
      1.589135785932084e-1 1.607250266714531e-1 1.625547378567069e-1 1.644028357297581e-1
      1.662694430473977e-1 1.681546816831044e-1 1.700586725661466e-1 1.719815356190733e-1
      1.739233896935681e-1 1.758843525046377e-1 1.778645405631076e-1 1.798640691063983e-1
      1.818830520275534e-1 1.839216018024943e-1 1.859798294154711e-1 1.880578442826854e-1
      1.901557541740555e-1 1.922736651330986e-1 1.944116813949030e-1 1.965699053021615e-1
      1.987484372192429e-1 2.009473754442729e-1 2.031668161191993e-1 2.054068531378161e-1
      2.076675780517209e-1 2.099490799741811e-1 2.122514454818849e-1 2.145747585145520e-1
      2.169191002723823e-1 2.192845491113189e-1 2.216711804361028e-1 2.240790665911000e-1
      2.265082767488775e-1 2.289588767965108e-1 2.314309292196021e-1 2.339244929839923e-1
      2.364396234151487e-1 2.389763720752132e-1 2.415347866376945e-1 2.441149107597929e-1
      2.467167839523417e-1 2.493404414473566e-1 2.519859140631825e-1 2.546532280672273e-1
      2.573424050362791e-1 2.600534617143975e-1 2.627864098683783e-1 2.655412561407883e-1
      2.683180019005699e-1 2.711166430912182e-1 2.739371700765335e-1 2.767795674839555e-1
      2.796438140454885e-1 2.825298824362259e-1 2.854377391104889e-1 2.883673441355949e-1
      2.913186510232714e-1 2.942916065587393e-1 2.972861506274875e-1 3.003022160397658e-1
      3.033397283528262e-1 3.063986056909449e-1 3.094787585632624e-1 3.125800896794795e-1
      3.157024937634549e-1 3.188458573647493e-1 3.220100586681673e-1 3.251949673013519e-1
      3.284004441404918e-1 3.316263411142002e-1 3.348725010056371e-1 3.381387572529447e-1
      3.414249337480708e-1 3.447308446340642e-1 3.480562941009252e-1 3.514010761801040e-1
      3.547649745377416e-1 3.581477622667555e-1 3.615492016778761e-1 3.649690440897468e-1
      3.684070296182039e-1 3.718628869648636e-1 3.753363332051405e-1 3.788270735758388e-1
      3.823348012624531e-1 3.858591971863321e-1 3.893999297918547e-1 3.929566548337838e-1
      3.965290151649641e-1 4.001166405245387e-1 4.037191473268663e-1 4.073361384513289e-1
      4.109672030332238e-1 4.146119162559452e-1 4.182698391446650e-1 4.219405183617307e-1
      4.256234860040056e-1 4.293182594023857e-1 4.330243409237324e-1 4.367412177754710e-1
      4.404683618131095e-1 4.442052293509431e-1 4.479512609762164e-1 4.517058813670216e-1
      4.554684991142216e-1 4.592385065476937e-1 4.630152795671956e-1 4.667981774781671e-1
      4.705865428327854e-1 4.743797012766004e-1 4.781769614010861e-1 4.819776146024479e-1
      4.857809349470382e-1 4.895861790437356e-1 4.933925859236524e-1 4.971993769275422e-1
      5.010057556012871e-1 5.048109075998477e-1 5.086140006000700e-1 5.124141842227466e-1
      5.162105899643383e-1 5.200023311387627e-1 5.237885028296728e-1 5.275681818536391e-1
      5.313404267346687e-1 5.351042776904890e-1 5.388587566310317e-1 5.426028671695584e-1
      5.463355946468695e-1 5.500559061690435e-1 5.537627506591542e-1 5.574550589234187e-1
      5.611317437322275e-1 5.647916999165119e-1 5.684338044799009e-1 5.720569167271260e-1
      5.756598784091233e-1 5.792415138852905e-1 5.828006303033454e-1 5.863360177972378e-1
      5.898464497035599e-1 5.933306827968937e-1 5.967874575445375e-1 6.002154983810398e-1
      6.036135140029669e-1 6.069801976843241e-1 6.103142276130415e-1 6.136142672489266e-1
      6.168789657034790e-1 6.201069581419478e-1 6.232968662080084e-1 6.264472984714157e-1
      6.295568508989845e-1 6.326241073492296e-1 6.356476400909887e-1 6.386260103463290e-1
      6.415577688580299e-1 6.444414564819113e-1 6.472756048042601e-1 6.500587367845936e-1
      6.527893674239696e-1 6.554660044590394e-1 6.580871490820192e-1 6.606512966867236e-1
      6.631569376407954e-1 6.656025580842285e-1 6.679866407542646e-1 6.703076658367163e-1
      6.725641118437393e-1 6.747544565180540e-1 6.768771777635861e-1 6.789307546024649e-1
      6.809136681582954e-1 6.828244026655785e-1 6.846614465051360e-1 6.864232932653524e-1
      6.881084428290256e-1 6.897154024855737e-1 6.912426880683183e-1 6.926888251165334e-1
      6.940523500619022e-1 6.953318114390039e-1 6.965257711194028e-1 6.976328055688850e-1
      6.986515071273441e-1 6.995804853107862e-1 7.004183681348751e-1 7.011638034594147e-1
      7.018154603531082e-1 7.023720304779082e-1 7.028322294922178e-1 7.031947984721711e-1
      7.034585053501681e-1 7.036221463697995e-1 7.036845475562520e-1 7.036445662012322e-1
      7.035010923614032e-1 7.032530503692733e-1 7.028994003554266e-1 7.024391397809295e-1
      7.018713049786868e-1 7.011949727024682e-1 7.004092616822537e-1 6.995133341844898e-1
      6.985063975757701e-1 6.973877058883867e-1 6.961565613861168e-1 6.948123161285265e-1
      6.933543735319877e-1 6.917821899255094e-1 6.900952760993820e-1 6.882931988445350e-1
      6.863755824803876e-1 6.843421103688570e-1 6.821925264120605e-1 6.799266365311151e-1
      6.775443101232897e-1 6.750454814946224e-1 6.724301512649512e-1 6.696983877421414e-1
      6.668503282621203e-1 6.638861804911471e-1 6.608062236865595e-1 6.576108099120455e-1
      6.543003652032899e-1 6.508753906796479e-1 6.473364635972922e-1 6.436842383390847e-1
      6.399194473362240e-1 6.360429019165270e-1 6.320554930740285e-1 6.279581921544074e-1
      6.237520514506016e-1 6.194382047028453e-1 6.150178674972532e-1 6.104923375570163e-1
      6.058629949202230e-1 6.011313019983441e-1 5.962988035094567e-1 5.913671262804057e-1
      5.863379789122528e-1 5.812131513036016e-1 5.759945140266764e-1 5.706840175514037e-1
      5.652836913131868e-1 5.597956426205799e-1 5.542220553996699e-1 5.485651887726469e-1
      5.428273754687970e-1 5.370110200669757e-1 5.311185970695215e-1 5.251526488018943e-1
      5.191157831735048e-1 5.130106712349651e-1 5.068400446042255e-1 5.006066927323769e-1
      4.943134600224088e-1 4.879632428084132e-1 4.815589862038444e-1 4.751036808285312e-1
      4.686003594251675e-1 4.620520933769861e-1 4.554619891392059e-1 4.488331845976395e-1
      4.421688453685372e-1 4.354721610543005e-1 4.287463414701358e-1 4.219946128569914e-1
      4.152202140962645e-1 4.084263929417189e-1 4.016164022838718e-1 3.947934964617346e-1
      3.879609276362604e-1 3.811219422391499e-1 3.742797775097962e-1 3.674376581321245e-1
      3.605987929818986e-1 3.537663719937470e-1 3.469435631557023e-1 3.401335096374771e-1
      3.333393270570267e-1 3.265641008881851e-1 3.198108840103451e-1 3.130826943992820e-1
      3.063825129563425e-1 2.997132814713457e-1 2.930779007127044e-1 2.864792286365081e-1
      2.799200787046339e-1 2.734032183004096e-1 2.669313672289772e-1 2.605071962883167e-1
      2.541333258959406e-1 2.478123247555657e-1 2.415467085476612e-1 2.353389386276654e-1
      2.291914207158924e-1 2.231065035637104e-1 2.170864775814936e-1 2.111335734151069e-1
      2.052499604592780e-1 1.994377452981318e-1 1.936989700653620e-1 1.880356107189787e-1
      1.824495752282398e-1 1.769427016732004e-1 1.715167562602432e-1 1.661734312599189e-1
      1.609143428763612e-1 1.557410290603879e-1 1.506549472810843e-1 1.456574722731325e-1
      1.407498937793449e-1 1.359334143097270e-1 1.312091469399025e-1 1.265781131728429e-1
      1.220412408885428e-1 1.175993624065529e-1 1.132532126861327e-1 1.090034276882216e-1
      1.048505429224702e-1 1.007949922012544e-1 9.683710662094496e-2 9.297711378876766e-2
      8.921513731140575e-2 8.555119655911893e-2 8.198520671662235e-2 7.851697912934043e-2
      7.514622195096359e-2 7.187254109554033e-2 6.869544149466833e-2 6.561432865774779e-2
      6.262851053075734e-2 5.973719964663704e-2 5.693951555813880e-2 5.423448754194747e-2
      5.162105756100633e-2 4.909808347030314e-2 4.666434244989786e-2 4.431853464770320e-2
      4.205928701346323e-2 3.988515730451180e-2 3.779463824322689e-2 3.578616180562133e-2
      3.385810362021697e-2 3.200878745622898e-2 3.023648978012820e-2 2.853944435984123e-2
      2.691584689617960e-2 2.536385966154712e-2 2.388161612654807e-2 2.246722555579573e-2
      2.111877755498837e-2 1.983434655216823e-2 1.861199619699597e-2 1.744978366284864e-2
      1.634576383757249e-2 1.529799338978398e-2 1.430453469870372e-2 1.336345963661948e-2
      1.247285319419893e-2 1.163081694000155e-2 1.083547230666588e-2 1.008496369736623e-2
      9.377461407235520e-3 8.711164355533349e-3 8.084302625394640e-3 7.495139809020310e-3
      6.941975157162701e-3 6.423145532711256e-3 5.937027169095010e-3 5.482037235084425e-3
      5.056635208393883e-3 4.659324061255139e-3 4.288651261849596e-3 3.943209596151980e-3
      3.621637815348508e-3 3.322621114548463e-3 3.044891449008426e-3 2.787227694533462e-3
      2.548455659109065e-3 2.327447953152372e-3 2.123123726051642e-3 1.934448276888445e-3
      1.760432547424637e-3 1.600132505498360e-3 1.452648427242375e-3 1.317124086204208e-3
      1.192745857770825e-3 1.078741747160513e-3 9.743803490220399e-4 8.789697466420348e-4
      7.918563585049865e-4 7.124237392273589e-4 6.400913782050086e-4 5.743130507542205e-4
      5.145781152022712e-4 4.604007251674895e-4 4.113395371003703e-4 3.669835291790075e-4
      3.269408686391162e-4 2.908442499755216e-4 2.583523272273430e-4 2.291483710571127e-4
      2.029389539125996e-4 1.794526659903142e-4 1.584388645947780e-4 1.396664591458814e-4
      1.229227337908260e-4 1.080122092854493e-4 9.475554552374405e-5 8.298848581557381e-5
      7.256084374224697e-5 6.333553315885671e-5 5.518764166206394e-5 4.800354760300878e-5
      4.168008049777249e-5 3.612372447250925e-5 3.124986417696978e-5 2.698207240827946e-5
      2.325143850576887e-5 1.999593640623372e-5 1.715983108557211e-5 1.469312195507382e-5
      1.255102162577667e-5 1.069346829843361e-5 9.084669874809903e-6 7.692677713222573e-6
      6.488987746403943e-6 5.448166653206411e-6 4.547497814863485e-6 3.766667701902962e-6
      3.087344442421319e-6 2.495580275023208e-6 1.964025905796909e-6 0.000000000000000e0
      0.000000000000000e0 0.000000000000000e0 0.000000000000000e0 0.000000000000000e0
      0.000000000000000e0 0.000000000000000e0 0.000000000000000e0 0.000000000000000e0
      0.000000000000000e0 0.000000000000000e0 0.000000000000000e0 0.000000000000000e0
      0.000000000000000e0 0.000000000000000e0 0.000000000000000e0 0.000000000000000e0
      0.000000000000000e0 0.000000000000000e0 0.000000000000000e0 0.000000000000000e0
      0.000000000000000e0 0.000000000000000e0 0.000000000000000e0 0.000000000000000e0
      0.000000000000000e0 0.000000000000000e0 0.000000000000000e0 0.000000000000000e0
      0.000000000000000e0 0.000000000000000e0 0.000000000000000e0 0.000000000000000e0
      0.000000000000000e0 0.000000000000000e0 0.000000000000000e0 0.000000000000000e0
      0.000000000000000e0 0.000000000000000e0 0.000000000000000e0 0.000000000000000e0
      0.000000000000000e0 0.000000000000000e0 0.000000000000000e0 0.000000000000000e0
      0.000000000000000e0 0.000000000000000e0 0.000000000000000e0 0.000000000000000e0
      0.000000000000000e0 0.000000000000000e0 0.000000000000000e0 0.000000000000000e0
      0.000000000000000e0 0.000000000000000e0 0.000000000000000e0 0.000000000000000e0
      0.000000000000000e0 0.000000000000000e0 0.000000000000000e0 0.000000000000000e0
      0.000000000000000e0 0.000000000000000e0 0.000000000000000e0 0.000000000000000e0
      0.000000000000000e0 0.000000000000000e0 0.000000000000000e0 0.000000000000000e0
      0.000000000000000e0 0.000000000000000e0 0.000000000000000e0 0.000000000000000e0
      0.000000000000000e0 0.000000000000000e0 0.000000000000000e0 0.000000000000000e0
      0.000000000000000e0 0.000000000000000e0 0.000000000000000e0 0.000000000000000e0
      0.000000000000000e0 0.000000000000000e0 0.000000000000000e0 0.000000000000000e0
      0.000000000000000e0 0.000000000000000e0 0.000000000000000e0 0.000000000000000e0
      0.000000000000000e0 0.000000000000000e0 0.000000000000000e0 0.000000000000000e0
      0.000000000000000e0 0.000000000000000e0 0.000000000000000e0 0.000000000000000e0
      0.000000000000000e0 0.000000000000000e0 0.000000000000000e0 0.000000000000000e0
      0.000000000000000e0 0.000000000000000e0 0.000000000000000e0 0.000000000000000e0
      0.000000000000000e0 0.000000000000000e0 0.000000000000000e0 0.000000000000000e0
      0.000000000000000e0 0.000000000000000e0 0.000000000000000e0 0.000000000000000e0
      0.000000000000000e0 0.000000000000000e0 0.000000000000000e0 0.000000000000000e0
      0.000000000000000e0 0.000000000000000e0 0.000000000000000e0 0.000000000000000e0
      0.000000000000000e0 0.000000000000000e0 0.000000000000000e0 0.000000000000000e0
      0.000000000000000e0
      </PP_AEWFC.1>
    <PP_AEWFC.2 index="2" label="1S" l="0">
      1.701599759285407e-3 1.723002675939994e-3 1.744674800931515e-3 1.766619520393261e-3
      1.788840060977200e-3 1.811339459866207e-3 1.834121320127760e-3 1.857189158960534e-3
      1.880546558763472e-3 1.904197146681488e-3 1.928144595058153e-3 1.952392622000384e-3
      1.976944991953399e-3 2.001805516277178e-3 2.026978053830764e-3 2.052466511563096e-3
      2.078274845110640e-3 2.104407059401913e-3 2.130867209268966e-3 2.157659400065946e-3
      2.184787788294821e-3 2.212256582238386e-3 2.240070042600656e-3 2.268232483154734e-3
      2.296748271398303e-3 2.325621829216801e-3 2.354857633554433e-3 2.384460217093105e-3
      2.414434168939391e-3 2.444784135319657e-3 2.475514820283430e-3 2.506630986415131e-3
      2.538137455554298e-3 2.570039109524360e-3 2.602340890870126e-3 2.635047803604058e-3
      2.668164913961447e-3 2.701697351164611e-3 2.735650308196205e-3 2.770029042581767e-3
      2.804838877181598e-3 2.840085200992095e-3 2.875773469956638e-3 2.911909207786150e-3
      2.948498006789425e-3 2.985545528713370e-3 3.023057505593224e-3 3.061039740612914e-3
      3.099498108975631e-3 3.138438558784756e-3 3.177867111935248e-3 3.217789865015602e-3
      3.258212990220517e-3 3.299142736274367e-3 3.340585429365601e-3 3.382547474092213e-3
      3.425035354418370e-3 3.468055634642345e-3 3.511614960375875e-3 3.555720059535053e-3
      3.600377743342902e-3 3.645594907343738e-3 3.691378532429461e-3 3.737735685877900e-3
      3.784673522403341e-3 3.832199285219370e-3 3.880320307114156e-3 3.929044011538325e-3
      3.978377913705532e-3 4.028329621705892e-3 4.078906837632398e-3 4.130117358720442e-3
      4.181969078500626e-3 4.234469987964939e-3 4.287628176746506e-3 4.341451834312993e-3
      4.395949251173858e-3 4.451128820101552e-3 4.506999037366841e-3 4.563568503988400e-3
      4.620845926996786e-3 4.678840120712993e-3 4.737560008041688e-3 4.797014621779317e-3
      4.857213105937202e-3 4.918164717079812e-3 4.979878825678324e-3 5.042364917479659e-3
      5.105632594891142e-3 5.169691578380923e-3 5.234551707894342e-3 5.300222944286381e-3
      5.366715370770367e-3 5.434039194383077e-3 5.502204747466424e-3 5.571222489165867e-3
      5.641103006945716e-3 5.711857018121500e-3 5.783495371409549e-3 5.856029048493973e-3
      5.929469165611181e-3 6.003826975152135e-3 6.079113867282472e-3 6.155341371580705e-3
      6.232521158694622e-3 6.310665042016100e-3 6.389784979374467e-3 6.469893074748603e-3
      6.551001579997963e-3 6.633122896612637e-3 6.716269577482706e-3 6.800454328686990e-3
      6.885690011301403e-3 6.971989643227082e-3 7.059366401038445e-3 7.147833621851380e-3
      7.237404805211732e-3 7.328093615004238e-3 7.419913881382128e-3 7.512879602717531e-3
      7.607004947572876e-3 7.702304256693473e-3 7.798792045021429e-3 7.896483003731087e-3
      7.995392002286174e-3 8.095534090518791e-3 8.196924500730502e-3 8.299578649815579e-3
      8.403512141406701e-3 8.508740768043186e-3 8.615280513361993e-3 8.723147554311620e-3
      8.832358263389107e-3 8.942929210900285e-3 9.054877167243486e-3 9.168219105216814e-3
      9.282972202349214e-3 9.399153843255487e-3 9.516781622015401e-3 9.635873344577050e-3
      9.756447031184702e-3 9.878520918831203e-3 1.000211346373518e-2 1.012724334384309e-2
      1.025392946135648e-2 1.038219094528435e-2 1.051204715402096e-2 1.064351767794923e-2
      1.077662234206974e-2 1.091138120865563e-2 1.104781457993346e-2 1.118594300079025e-2
      1.132578726150670e-2 1.146736840051690e-2 1.161070770719453e-2 1.175582672466575e-2
      1.190274725264890e-2 1.205149135032108e-2 1.220208133921184e-2 1.235453980612395e-2
      1.250888960608151e-2 1.266515386530543e-2 1.282335598421636e-2 1.298351964046522e-2
      1.314566879199143e-2 1.330982768010889e-2 1.347602083261980e-2 1.364427306695648e-2
      1.381460949335107e-2 1.398705551803344e-2 1.416163684645714e-2 1.433837948655360e-2
      1.451730975201451e-2 1.469845426560252e-2 1.488183996249028e-2 1.506749409362774e-2
      1.525544422913789e-2 1.544571826174083e-2 1.563834441020625e-2 1.583335122283422e-2
      1.603076758096444e-2 1.623062270251368e-2 1.643294614554167e-2 1.663776781184517e-2
      1.684511795058020e-2 1.705502716191256e-2 1.726752640069626e-2 1.748264698018001e-2
      1.770042057574159e-2 1.792087922865001e-2 1.814405534985527e-2 1.836998172380570e-2
      1.859869151229261e-2 1.883021825832223e-2 1.906459589001460e-2 1.930185872452937e-2
      1.954204147201818e-2 1.978517923960348e-2 2.003130753538357e-2 2.028046227246350e-2
      2.053267977301163e-2 2.078799677234158e-2 2.104645042301923e-2 2.130807829899448e-2
      2.157291839975726e-2 2.184100915451776e-2 2.211238942641011e-2 2.238709851671941e-2
      2.266517616913147e-2 2.294666257400494e-2 2.323159837266528e-2 2.352002466172013e-2
      2.381198299739547e-2 2.410751539989212e-2 2.440666435776196e-2 2.470947283230320e-2
      2.501598426197424e-2 2.532624256682525e-2 2.564029215294696e-2 2.595817791693587e-2
      2.627994525037506e-2 2.660564004432998e-2 2.693530869385828e-2 2.726899810253285e-2
      2.760675568697721e-2 2.794862938141240e-2 2.829466764221426e-2 2.864491945248017e-2
      2.899943432660441e-2 2.935826231486068e-2 2.972145400799107e-2 3.008906054180003e-2
      3.046113360175231e-2 3.083772542757362e-2 3.121888881785259e-2 3.160467713464283e-2
      3.199514430806375e-2 3.239034484089845e-2 3.279033381318761e-2 3.319516688681738e-2
      3.360490031010012e-2 3.401959092234600e-2 3.443929615842403e-2 3.486407405331055e-2
      3.529398324662353e-2 3.572908298714077e-2 3.616943313729990e-2 3.661509417767849e-2
      3.706612721145193e-2 3.752259396882706e-2 3.798455681144937e-2 3.845207873678147e-2
      3.892522338245042e-2 3.940405503056165e-2 3.988863861197692e-2 4.037903971055360e-2
      4.087532456734283e-2 4.137756008474376e-2 4.188581383061103e-2 4.240015404231251e-2
      4.292064963073455e-2 4.344737018423133e-2 4.398038597251552e-2 4.451976795048659e-2
      4.506558776199376e-2 4.561791774352980e-2 4.617683092785251e-2 4.674240104752977e-2
      4.731470253840476e-2 4.789381054297726e-2 4.847980091369713e-2 4.907275021616581e-2
      4.967273573224164e-2 5.027983546304475e-2 5.089412813185684e-2 5.151569318691147e-2
      5.214461080407019e-2 5.278096188937928e-2 5.342482808150269e-2 5.407629175402557e-2
      5.473543601762345e-2 5.540234472209158e-2 5.607710245822878e-2 5.675979455957032e-2
      5.745050710396389e-2 5.814932691498258e-2 5.885634156316890e-2 5.957163936710338e-2
      6.029530939429134e-2 6.102744146186118e-2 6.176812613706729e-2 6.251745473759081e-2
      6.327551933163073e-2 6.404241273777828e-2 6.481822852466691e-2 6.560306101039015e-2
      6.639700526167940e-2 6.720015709283360e-2 6.801261306439246e-2 6.883447048154451e-2
      6.966582739226147e-2 7.050678258514989e-2 7.135743558701085e-2 7.221788666009833e-2
      7.308823679906672e-2 7.396858772759732e-2 7.485904189469426e-2 7.575970247063887e-2
      7.667067334259244e-2 7.759205910983619e-2 7.852396507863769e-2 7.946649725673206e-2
      8.041976234740657e-2 8.138386774317668e-2 8.235892151904141e-2 8.334503242530563e-2
      8.434230987995656e-2 8.535086396058144e-2 8.637080539581323e-2 8.740224555629062e-2
      8.844529644511859e-2 8.950007068781531e-2 9.056668152173096e-2 9.164524278492328e-2
      9.273586890447575e-2 9.383867488424150e-2 9.495377629199847e-2 9.608128924599912e-2
      9.722133040089812e-2 9.837401693304187e-2 9.953946652510199e-2 1.007177973500357e-1
      1.019091280543555e-1 1.031135777406890e-1 1.043312659496118e-1 1.055623126407332e-1
      1.068068381730159e-1 1.080649632843106e-1 1.093368090700838e-1 1.106224969613208e-1
      1.119221487015809e-1 1.132358863231843e-1 1.145638321225097e-1 1.159061086343796e-1
      1.172628386055119e-1 1.186341449670131e-1 1.200201508058934e-1 1.214209793355750e-1
      1.228367538653747e-1 1.242675977689329e-1 1.257136344515647e-1 1.271749873165094e-1
      1.286517797300502e-1 1.301441349854801e-1 1.316521762658859e-1 1.331760266057244e-1
      1.347158088511616e-1 1.362716456191499e-1 1.378436592552118e-1 1.394319717899034e-1
      1.410367048939282e-1 1.426579798318709e-1 1.442959174145219e-1 1.459506379497617e-1
      1.476222611919747e-1 1.493109062899605e-1 1.510166917333116e-1 1.527397352972255e-1
      1.544801539857175e-1 1.562380639732036e-1 1.580135805444175e-1 1.598068180326304e-1
      1.616178897561377e-1 1.634469079529796e-1 1.652939837138603e-1 1.671592269132298e-1
      1.690427461384951e-1 1.709446486173220e-1 1.728650401429940e-1 1.748040249977903e-1
      1.767617058743476e-1 1.787381837949663e-1 1.807335580288272e-1 1.827479260070782e-1
      1.847813832357548e-1 1.868340232064967e-1 1.889059373050213e-1 1.909972147173168e-1
      1.931079423335163e-1 1.952382046494137e-1 1.973880836655839e-1 1.995576587840679e-1
      2.017470067025837e-1 2.039562013062259e-1 2.061853135566134e-1 2.084344113784474e-1
      2.107035595434415e-1 2.129928195515852e-1 2.153022495097015e-1 2.176319040072631e-1
      2.199818339894263e-1 2.223520866272473e-1 2.247427051850430e-1 2.271537288848588e-1
      2.295851927680086e-1 2.320371275536495e-1 2.345095594943565e-1 2.370025102286625e-1
      2.395159966305294e-1 2.420500306557168e-1 2.446046191850149e-1 2.471797638643113e-1
      2.497754609414590e-1 2.523917010999174e-1 2.550284692891349e-1 2.576857445516477e-1
      2.603634998468666e-1 2.630617018715272e-1 2.657803108767779e-1 2.685192804818852e-1
      2.712785574845334e-1 2.740580816676995e-1 2.768577856030862e-1 2.796775944510954e-1
      2.825174257573301e-1 2.853771892456093e-1 2.882567866074897e-1 2.911561112882819e-1
      2.940750482695596e-1 2.970134738481543e-1 2.999712554116393e-1 3.029482512102994e-1
      3.059443101255971e-1 3.089592714351364e-1 3.119929645741401e-1 3.150452088934505e-1
      3.181158134140719e-1 3.212045765782755e-1 3.243112859972884e-1 3.274357181955966e-1
      3.305776383518917e-1 3.337368000366963e-1 3.369129449467077e-1 3.401058026359040e-1
      3.433150902434584e-1 3.465405122185166e-1 3.497817600418913e-1 3.530385119447391e-1
      3.563104326242828e-1 3.595971729566541e-1 3.628983697069325e-1 3.662136452364630e-1
      3.695426072075417e-1 3.728848482855626e-1 3.762399458387260e-1 3.796074616354145e-1
      3.829869415393496e-1 3.863779152026465e-1 3.897798957568938e-1 3.931923795023897e-1
      3.966148455956738e-1 4.000467557355004e-1 4.034875538474083e-1 4.069366657670446e-1
      4.103934989224157e-1 4.138574420152364e-1 4.173278647015653e-1 4.208041172719155e-1
      4.242855303310429e-1 4.277714144776183e-1 4.312610599840028e-1 4.347537364763489e-1
      4.382486926152646e-1 4.417451557772802e-1 4.452423317373724e-1 4.487394043528056e-1
      4.522355352485594e-1 4.557298635046241e-1 4.592215053454512e-1 4.627095538318579e-1
      4.661930785556922e-1 4.696711253375786e-1 4.731427159280694e-1 4.766068477125382e-1
      4.800624934201646e-1 4.835086008373639e-1 4.869440925260311e-1 4.903678655469725e-1
      4.937787911889135e-1 4.971757147034782e-1 5.005574550465461e-1 5.039228046264032e-1
      5.072705290591123e-1 5.105993669315389e-1 5.139080295724781e-1 5.171952008323380e-1
      5.204595368718444e-1 5.236996659602406e-1 5.269141882834687e-1 5.301016757628220e-1
      5.332606718845766e-1 5.363896915411076e-1 5.394872208840185e-1 5.425517171898050e-1
      5.455816087386006e-1 5.485752947065442e-1 5.515311450723291e-1 5.544475005384965e-1
      5.573226724680439e-1 5.601549428369315e-1 5.629425642030697e-1 5.656837596923848e-1
      5.683767230025669e-1 5.710196184251041e-1 5.736105808862236e-1 5.761477160073591e-1
      5.786291001857744e-1 5.810527806959774e-1 5.834167758125663e-1 5.857190749551524e-1
      5.879576388560118e-1 5.901303997511238e-1 5.922352615952564e-1 5.942701003017643e-1
      5.962327640077730e-1 5.981210733654203e-1 5.999328218598381e-1 6.016657761545519e-1
      6.033176764649898e-1 6.048862369607861e-1 6.063691461975744e-1 6.077640675789650e-1
      6.090686398494038e-1 6.102804776186153e-1 6.113971719183308e-1 6.124162907920075e-1
      6.133353799182455e-1 6.141519632686104e-1 6.148635438005726e-1 6.154676041862724e-1
      6.159616075778259e-1 6.163429984098809e-1 6.166092032401385e-1 6.167576316285518e-1
      6.167856770559164e-1 6.166907178825628e-1 6.164701183478620e-1 6.161212296112550e-1
      6.156413908355121e-1 6.150279303129246e-1 6.142781666351339e-1 6.133894099072883e-1
      6.123589630072218e-1 6.111841228903376e-1 6.098621819408726e-1 6.083904293702087e-1
      6.067661526628890e-1 6.049866390709798e-1 6.030491771574097e-1 6.009510583888964e-1
      5.986895787790536e-1 5.962620405822499e-1 5.936657540387642e-1 5.908980391717547e-1
      5.879562276365259e-1 5.848376646225427e-1 5.815397108085971e-1 5.780597443714914e-1
      5.743951630485457e-1 5.705433862541858e-1 5.665018572508015e-1 5.622680453739958e-1
      5.578394483122700e-1 5.532135944411067e-1 5.483880452113162e-1 5.433603975914193e-1
      5.381282865637212e-1 5.326893876736229e-1 5.270414196315812e-1 5.211821469670003e-1
      5.151093827331841e-1 5.088209912623319e-1 5.023148909693894e-1 4.955890572033996e-1
      4.886415251448143e-1 4.814703927470411e-1 4.740738237203074e-1 4.664500505557206e-1
      4.585973775872096e-1 4.505141840888188e-1 4.421989274046355e-1 4.336501461084266e-1
      4.248664631898730e-1 4.158465892641106e-1 4.065893258011208e-1 3.970935683713738e-1
      3.873583099039987e-1 3.773826439536725e-1 3.671657679723609e-1 3.567069865820298e-1
      3.460057148444835e-1 3.350614815245728e-1 3.238739323431654e-1 3.124428332164879e-1
      3.007680734787407e-1 2.888496690852508e-1 2.766877657938848e-1 2.642826423229817e-1
      2.516347134846954e-1 2.387445332933624e-1 2.256127980493236e-1 2.122403493995362e-1
      1.986281773773041e-1 1.847774234245288e-1 1.706893834010280e-1 1.563655105866731e-1
      1.418074186833516e-1 1.270168848250377e-1 1.119958526055492e-1 9.674643513484472e-2
      8.127091813595538e-2 6.557176309582101e-2 4.965161048438467e-2 3.351328305724676e-2
      1.715978925797605e-2 5.943267367781054e-4 -1.617971399740749e-2 -3.315874577419741e-2
      -5.033898079144313e-2 -6.771642646080977e-2 -8.528688105363784e-2 -1.030459291327245e-1
      -1.209889367573281e-1 -1.391110464507952e-1 -1.574071719227527e-1 -1.758719925408106e-1
      -1.944999475501857e-1 -2.132852300435825e-1 -2.322217806880546e-1 -2.513032812203857e-1
      -2.705231477277712e-1 -2.898745237361977e-1 -3.093502731348843e-1 -3.289429729713925e-1
      -3.486449061585012e-1 -3.684480541405706e-1 -3.883440895738285e-1 -4.083243690816988e-1
      -4.283799261528474e-1 -4.485014642559332e-1 -4.686793502509991e-1 -4.889036081828744e-1
      -5.091639135467556e-1 -5.294495881201374e-1 -5.497495954583225e-1 -5.700525371527155e-1
      -5.903466499518474e-1 -6.106198038444456e-1 -6.308595012017570e-1 -6.510528770726286e-1
      -6.711867007194790e-1 -6.912473784762145e-1 -7.112209580003290e-1 -7.310931339809161e-1
      -7.508492553521618e-1 -7.704743340482199e-1 -7.899530553203150e-1 -8.092697896207213e-1
      -8.284086060411260e-1 -8.473532872751324e-1 -8.660873460565675e-1 -8.845940430072117e-1
      -9.028564058098812e-1 -9.208572496058673e-1 -9.385791984999042e-1 -9.560047080414337e-1
      -9.731160885383030e-1 -9.898955290483995e-1 -1.006325121886363e0 -1.022386887476554e0
      -1.038062799380050e0 -1.053334809322604e0 -1.068184872052233e0 -1.082594969859391e0
      -1.096547136599269e0 -1.110023481064657e0 -1.123006209568633e0 -1.135477647608949e0
      -1.147420260500069e0 -1.158816672874125e0 -1.169649686968247e0 -1.179902299632574e0
      -1.189557718010453e0 -1.198599373859643e0 -1.207010936500517e0 -1.214776324394090e0
      -1.221879715369041e0 -1.228305555532545e0 -1.234038566914622e0 -1.239063753909699e0
      -1.243366408592154e0 -1.246932114994683e0 -1.249746752449451e0 -1.251796498102039e0
      -1.253067828717372e0 -1.253547521904988e0 -1.253222656898284e0 -1.252080615028853e0
      -1.250109080042672e0 -1.247296038409857e0 -1.243629779783933e0 -1.239098897770268e0
      -1.233692291166405e0 -1.227399165839615e0 -1.220209037409199e0 -1.212111734902736e0
      -1.203097405556917e0 -1.193156520934562e0 -1.182279884530150e0 -1.170458641036570e0
      -1.157684287445881e0 -1.143948686156649e0 -1.129244080259916e0 -1.113563111175000e0
      -1.096898838805123e0 -1.079244764381322e0 -1.060594856161116e0 -1.040943578145979e0
      -1.020285921978771e0 -9.986174421788231e-1 -9.759342948682779e-1 -9.522332801385854e-1
      -9.275118882005298e-1 -9.017683494548690e-1 -8.750016886134450e-1 -8.472117829924025e-1
      -8.183994250898389e-1 -7.885663895497067e-1 -7.577155046019818e-1 -7.258507280558836e-1
      -6.929772279081896e-1 -6.591014676122735e-1 -6.242312960353068e-1 -5.883760421109628e-1
      -5.515466141727892e-1 -5.137556039290711e-1 -4.750173950132862e-1 -4.353482760150677e-1
      -3.947665578647355e-1 -3.532926954098063e-1 -3.109494129842770e-1 -2.677618337307414e-1
      -2.237576123913912e-1 -1.789670712365039e-1 -1.334233387487442e-1 -8.716249062598058e-2
      -4.022369260090565e-2 7.350655474824610e-3 5.551477489710980e-2 1.042193634450015e-1
      1.534114515405911e-1 2.030342600900133e-1 2.530270609391425e-1 3.033250409680754e-1
      3.538591709480972e-1 4.045560799692988e-1 4.553405685479329e-1 5.061415101283128e-1
      5.568814465871937e-1 6.074641266547090e-1 6.577955083862850e-1 7.077742648879266e-1
      7.572942783047485e-1 8.062442747783651e-1 8.545078569659999e-1 9.019635356687957e-1
      9.484847870383950e-1 9.939401390550652e-1 1.038193289765815e0 1.081103260055357e0
      1.122524583801632e0 1.162307538354634e0 1.200298418350471e0 1.236339855930472e0
      1.270271190474689e0 1.301928890977270e0 1.331147034184381e0 1.357757841579873e0
      1.381592278235736e0 1.402480716439131e0 1.420253666860912e0 1.434742579836997e0
      1.445780719088669e0 1.453204109905387e0 1.456852563448255e0 1.456570778398267e0
      1.452209520664690e0 1.443626881279571e0 1.430689611928256e0 1.413274536797139e0
      1.391270038552865e0 1.364577615296486e0 1.333113504256763e0 1.296810366794560e0
      1.255619027981676e0 1.209510262590060e0 1.158476617779993e0 1.102534261108894e0
      1.041724840698043e0 9.761173424971782e-1 9.058099275832458e-1 8.309317303293973e-1
      7.516445960964379e-1 6.681447348479135e-1 5.806642647925298e-1 4.894726178387888e-1
      3.948777763367042e-1 2.972273083157956e-1 1.969091662485835e-1 9.435221232213797e-2
      -9.973568658970908e-3 -1.155572092256677e-1 -2.218472938347173e-1 -3.282529307799591e-1
      -4.341452045357221e-1 -5.388591515077020e-1 -6.416963013708765e-1 -7.419278246167652e-1
      -8.387983245066765e-1 -9.315303082228748e-1 -1.019329367513029e0 -1.101390093421869e0
      -1.176902742686945e0 -1.245060664937155e0 -1.305068489876554e0 -1.356151062077649e0
      -1.397563097781354e0 -1.428599523160929e0 -1.448606436839197e0 -1.456992621071627e0
      -1.453241505984356e0 -1.436923469697053e0 -1.407708334234784e0 -1.365377893075207e0
      -1.309838281296109e0 -1.241131973974027e0 -1.159449173217404e0 -1.065138319573729e0
      -9.587154402071180e-1 -8.408720249839533e-1 -7.124811033189641e-1 -5.746011803169821e-1
      -4.284776814901282e-1 -2.755415523195773e-1 -1.174046634226463e-1 4.414831460995910e-2
      2.071718791904005e-1 3.695757840846156e-1 5.291454780376346e-1 6.835670620140080e-1
      8.304568569502583e-1 9.673955818443883e-1 1.091967033888809e0 1.201801038182747e0
      1.294620294843126e0 1.368290597184501e0 1.420873727886878e0 1.450682163356808e0
      1.456334533360075e0 1.436810597999889e0 1.391504322817557e0 1.320273461870695e0
      1.223483905843216e0 1.102046926336464e0 9.574473581773447e-1 7.917607192973285e-1
      6.076572834159882e-1 4.083912054817015e-1 1.977729643658419e-1 -1.987635837036306e-2
      -2.397900922335583e-1 -4.568409555632186e-1 -6.656461039067177e-1 -8.606916836559606e-1
      -1.036475552124201e0 -1.187665961581130e0 -1.309273068904925e0 -1.396829149848065e0
      -1.446572400808245e0 -1.455628243037062e0 -1.422181154113346e0 -1.345629296471725e0
      -1.226713656338025e0 -1.067613116527732e0 -8.719969329077577e-1 -6.450265348486875e-1
      -3.932994865439401e-1 -1.247298792153858e-1 1.516385926036292e-1 4.258880744024252e-1
      6.875486354911358e-1 9.259815482913400e-1 1.130814368410995e0 1.292414232903266e0
      1.402381562916012e0 1.454042325941699e0 1.442913470112022e0 1.367113412482679e0
      1.227687891411573e0 1.028821429490843e0 7.779064258663807e-1 4.854457810447103e-1
      1.647711427635376e-1 -1.684325864443585e-1 -4.967950170472558e-1 -8.021060529404144e-1
      -1.066311161609329e0 -1.272612648046991e0 -1.406618777409965e0 -1.457469430048616e0
      -1.418856699503818e0 -1.289852927146643e0 -1.075458550000925e0 -7.867890990256643e-1
      -4.408356702251806e-1 -5.975663445947785e-2 3.303100052032636e-1 7.008854696134373e-1
      1.023168398121983e0
      </PP_AEWFC.2>
    <PP_PSWFC.1 index="1" label="1S" l="0">
      1.299683660924261e-3 1.316031641788104e-3 1.332585253902127e-3 1.349347083749497e-3
      1.366319750345830e-3 1.383505905648328e-3 1.400908234970082e-3 1.418529457399571e-3
      1.436372326225442e-3 1.454439629366628e-3 1.472734189807873e-3 1.491258866040730e-3
      1.510016552510113e-3 1.529010180066450e-3 1.548242716423535e-3 1.567717166622120e-3
      1.587436573499347e-3 1.607404018164078e-3 1.627622620478198e-3 1.648095539543973e-3
      1.668825974197530e-3 1.689817163508540e-3 1.711072387286191e-3 1.732594966591506e-3
      1.754388264256121e-3 1.776455685407558e-3 1.798800678001126e-3 1.821426733358494e-3
      1.844337386713031e-3 1.867536217762014e-3 1.891026851225757e-3 1.914812957413788e-3
      1.938898252798124e-3 1.963286500593762e-3 1.987981511346467e-3 2.012987143527932e-3
      2.038307304138433e-3 2.063945949317052e-3 2.089907084959562e-3 2.116194767344097e-3
      2.142813103764654e-3 2.169766253172575e-3 2.197058426826091e-3 2.224693888948013e-3
      2.252676957391707e-3 2.281012004315412e-3 2.309703456865047e-3 2.338755797865595e-3
      2.368173566521166e-3 2.397961359123865e-3 2.428123829771546e-3 2.458665691094607e-3
      2.489591714991895e-3 2.520906733375865e-3 2.552615638927100e-3 2.584723385858292e-3
      2.617234990687838e-3 2.650155533023143e-3 2.683490156353757e-3 2.717244068854483e-3
      2.751422544198556e-3 2.786030922381040e-3 2.821074610552572e-3 2.856559083863558e-3
      2.892489886318987e-3 2.928872631643955e-3 2.965713004160079e-3 3.003016759672893e-3
      3.040789726370392e-3 3.079037805732869e-3 3.117766973454136e-3 3.156983280374345e-3
      3.196692853424491e-3 3.236901896582782e-3 3.277616691843016e-3 3.318843600195076e-3
      3.360589062617767e-3 3.402859601084093e-3 3.445661819579140e-3 3.489002405130747e-3
      3.532888128853078e-3 3.577325847003308e-3 3.622322502051556e-3 3.667885123764228e-3
      3.714020830300963e-3 3.760736829325307e-3 3.808040419129344e-3 3.855938989772406e-3
      3.904440024234063e-3 3.953551099581581e-3 4.003279888151981e-3 4.053634158748948e-3
      4.104621777854716e-3 4.156250710857153e-3 4.208529023292218e-3 4.261464882101970e-3
      4.315066556908357e-3 4.369342421302951e-3 4.424300954152826e-3 4.479950740922827e-3
      4.536300475014335e-3 4.593358959120855e-3 4.651135106600531e-3 4.709637942865866e-3
      4.768876606790837e-3 4.828860352135592e-3 4.889598548988997e-3 4.951100685229228e-3
      5.013376368002630e-3 5.076435325221082e-3 5.140287407078060e-3 5.204942587583689e-3
      5.270410966118976e-3 5.336702769009445e-3 5.403828351118505e-3 5.471798197460645e-3
      5.540622924834836e-3 5.610313283478336e-3 5.680880158741127e-3 5.752334572781296e-3
      5.824687686281527e-3 5.897950800187081e-3 5.972135357465422e-3 6.047252944887820e-3
      6.123315294833189e-3 6.200334287114386e-3 6.278321950827315e-3 6.357290466223073e-3
      6.437252166603441e-3 6.518219540239990e-3 6.600205232317078e-3 6.683222046899062e-3
      6.767282948922021e-3 6.852401066210239e-3 6.938589691517837e-3 7.025862284595735e-3
      7.114232474284385e-3 7.203714060632500e-3 7.294321017042127e-3 7.386067492440398e-3
      7.478967813478210e-3 7.573036486756271e-3 7.668288201078754e-3 7.764737829734923e-3
      7.862400432809098e-3 7.961291259519210e-3 8.061425750584423e-3 8.162819540622040e-3
      8.265488460574144e-3 8.369448540164292e-3 8.474716010384597e-3 8.581307306013585e-3
      8.689239068165238e-3 8.798528146869513e-3 8.909191603684786e-3 9.021246714342512e-3
      9.134710971424600e-3 9.249602087073818e-3 9.365937995737584e-3 9.483736856945674e-3
      9.603017058122047e-3 9.723797217431407e-3 9.846096186660738e-3 9.969933054136304e-3
      1.009532714767657e-2 1.022229803758126e-2 1.035086553965736e-2 1.048104971828199e-2
      1.061287088950309e-2 1.074634962417794e-2 1.088150675115016e-2 1.101836336046572e-2
      1.115694080662812e-2 1.129726071189342e-2 1.143934496960561e-2 1.158321574757251e-2
      1.172889549148302e-2 1.187640692836588e-2 1.202577307009058e-2 1.217701721691095e-2
      1.233016296105159e-2 1.248523419033818e-2 1.264225509187150e-2 1.280125015574620e-2
      1.296224417881460e-2 1.312526226849579e-2 1.329032984663111e-2 1.345747265338590e-2
      1.362671675119836e-2 1.379808852877612e-2 1.397161470514063e-2 1.414732233372046e-2
      1.432523880649346e-2 1.450539185817874e-2 1.468780957047883e-2 1.487252037637240e-2
      1.505955306445856e-2 1.524893678335260e-2 1.544070104613430e-2 1.563487573484914e-2
      1.583149110506274e-2 1.603057779046962e-2 1.623216680755614e-2 1.643628956031880e-2
      1.664297784503818e-2 1.685226385510882e-2 1.706418018592634e-2 1.727875983983144e-2
      1.749603623111209e-2 1.771604319106414e-2 1.793881497311077e-2 1.816438625798190e-2
      1.839279215895340e-2 1.862406822714723e-2 1.885825045689291e-2 1.909537529115065e-2
      1.933547962699720e-2 1.957860082117442e-2 1.982477669570157e-2 2.007404554355178e-2
      2.032644613439288e-2 2.058201772039397e-2 2.084080004209729e-2 2.110283333435674e-2
      2.136815833234327e-2 2.163681627761746e-2 2.190884892427048e-2 2.218429854513320e-2
      2.246320793805449e-2 2.274562043224921e-2 2.303157989471592e-2 2.332113073672567e-2
      2.361431792038141e-2 2.391118696524928e-2 2.421178395506203e-2 2.451615554449448e-2
      2.482434896601279e-2 2.513641203679644e-2 2.545239316573458e-2 2.577234136049657e-2
      2.609630623467708e-2 2.642433801501685e-2 2.675648754869833e-2 2.709280631071773e-2
      2.743334641133309e-2 2.777816060358896e-2 2.812730229091805e-2 2.848082553481998e-2
      2.883878506261750e-2 2.920123627529059e-2 2.956823525538815e-2 2.993983877501820e-2
      3.031610430391606e-2 3.069709001759120e-2 3.108285480555253e-2 3.147345827961225e-2
      3.186896078226863e-2 3.226942339516712e-2 3.267490794764043e-2 3.308547702532708e-2
      3.350119397886841e-2 3.392212293268400e-2 3.434832879382518e-2 3.477987726090650e-2
      3.521683483311488e-2 3.565926881929582e-2 3.610724734711678e-2 3.656083937230683e-2
      3.702011468797224e-2 3.748514393398751e-2 3.795599860646099e-2 3.843275106727467e-2
      3.891547455369715e-2 3.940424318806889e-2 3.989913198755917e-2 4.040021687399328e-2
      4.090757468374930e-2 4.142128317772284e-2 4.194142105135887e-2 4.246806794474921e-2
      4.300130445279372e-2 4.354121213542457e-2 4.408787352789082e-2 4.464137215110241e-2
      4.520179252203126e-2 4.576922016416724e-2 4.634374161802742e-2 4.692544445171573e-2
      4.751441727153090e-2 4.811074973262024e-2 4.871453254967591e-2 4.932585750767171e-2
      4.994481747263634e-2 5.057150640246087e-2 5.120601935773623e-2 5.184845251261750e-2
      5.249890316571140e-2 5.315746975098243e-2 5.382425184867413e-2 5.449935019624065e-2
      5.518286669928393e-2 5.587490444249208e-2 5.657556770057336e-2 5.728496194918065e-2
      5.800319387582094e-2 5.873037139074331e-2 5.946660363780024e-2 6.021200100527464e-2
      6.096667513666675e-2 6.173073894143326e-2 6.250430660567144e-2 6.328749360274043e-2
      6.408041670381160e-2 6.488319398833941e-2 6.569594485444401e-2 6.651879002919609e-2
      6.735185157879465e-2 6.819525291862688e-2 6.904911882320041e-2 6.991357543593644e-2
      7.078875027881180e-2 7.167477226183917e-2 7.257177169237155e-2 7.347988028421854e-2
      7.439923116656116e-2 7.532995889265046e-2 7.627219944827489e-2 7.722609025998199e-2
      7.819177020303744e-2 7.916937960910514e-2 8.015906027363108e-2 8.116095546291200e-2
      8.217520992083138e-2 8.320196987524200e-2 8.424138304397498e-2 8.529359864045460e-2
      8.635876737889559e-2 8.743704147906135e-2 8.852857467055840e-2 8.963352219664213e-2
      9.075204081750933e-2 9.188428881304812e-2 9.303042598502092e-2 9.419061365864854e-2
      9.536501468356700e-2 9.655379343412609e-2 9.775711580899543e-2 9.897514923004740e-2
      1.002080626404793e-1 1.014560265021408e-1 1.027192127920274e-1 1.039977949979026e-1
      1.052919481130071e-1 1.066018486298145e-1 1.079276745327892e-1 1.092696052901019e-1
      1.106278218442563e-1 1.120025066015789e-1 1.133938434205215e-1 1.148020175987253e-1
      1.162272158587925e-1 1.176696263327096e-1 1.191294385448673e-1 1.206068433936140e-1
      1.221020331312846e-1 1.236152013426396e-1 1.251465429216486e-1 1.266962540465514e-1
      1.282645321531249e-1 1.298515759060845e-1 1.314575851685449e-1 1.330827609694610e-1
      1.347273054689717e-1 1.363914219215614e-1 1.380753146369555e-1 1.397791889386612e-1
      1.415032511200621e-1 1.432477083979746e-1 1.450127688635673e-1 1.467986414305457e-1
      1.486055357804983e-1 1.504336623052982e-1 1.522832320464520e-1 1.541544566312833e-1
      1.560475482058353e-1 1.579627193643736e-1 1.599001830753673e-1 1.618601526038213e-1
      1.638428414298327e-1 1.658484631632370e-1 1.678772314542080e-1 1.699293598996717e-1
      1.720050619453895e-1 1.741045507835654e-1 1.762280392458239e-1 1.783757396914048e-1
      1.805478638904170e-1 1.827446229019871e-1 1.849662269471381e-1 1.872128852762289e-1
      1.894848060307802e-1 1.917821960995089e-1 1.941052609683922e-1 1.964542045645750e-1
      1.988292290939351e-1 2.012305348721118e-1 2.036583201488071e-1 2.061127809251573e-1
      2.085941107639790e-1 2.111025005926818e-1 2.136381384986428e-1 2.162012095168358e-1
      2.187918954094991e-1 2.214103744376337e-1 2.240568211241142e-1 2.267314060081952e-1
      2.294342953911983e-1 2.321656510731570e-1 2.349256300802050e-1 2.377143843824866e-1
      2.405320606023706e-1 2.433787997127537e-1 2.462547367252334e-1 2.491600003679409e-1
      2.520947127528231e-1 2.550589890321661e-1 2.580529370441591e-1 2.610766569473010e-1
      2.641302408434621e-1 2.672137723894134e-1 2.703273263966524e-1 2.734709684193582e-1
      2.766447543303193e-1 2.798487298846948e-1 2.830829302714756e-1 2.863473796525324e-1
      2.896420906891512e-1 2.929670640559736e-1 2.963222879422835e-1 2.997077375405986e-1
      3.031233745225499e-1 3.065691465020604e-1 3.100449864858568e-1 3.135508123113866e-1
      3.170865260722343e-1 3.206520135311774e-1 3.242471435210518e-1 3.278717673336398e-1
      3.315257180968431e-1 3.352088101404402e-1 3.389208383507855e-1 3.426615775148613e-1
      3.464307816541425e-1 3.502281833488091e-1 3.540534930528946e-1 3.579063984010315e-1
      3.617865635075328e-1 3.656936282586182e-1 3.696272075986835e-1 3.735868908115942e-1
      3.775722407980772e-1 3.815827933503841e-1 3.856180564254921e-1 3.896775094182308e-1
      3.937606024358210e-1 3.978667555754354e-1 4.019953582065158e-1 4.061457682597021e-1
      4.103173115243736e-1 4.145092809569308e-1 4.187209360020940e-1 4.229515019296525e-1
      4.272001691892335e-1 4.314660927858450e-1 4.357483916790868e-1 4.400461482091074e-1
      4.443584075525536e-1 4.486841772119284e-1 4.530224265419634e-1 4.573720863167845e-1
      4.617320483418342e-1 4.661011651147013e-1 4.704782495391850e-1 4.748620746971144e-1
      4.792513736826117e-1 4.836448395036721e-1 4.880411250561058e-1 4.924388431750423e-1
      4.968365667693650e-1 5.012328290445824e-1 5.056261238197726e-1 5.100149059443585e-1
      5.143975918205661e-1 5.187725600374956e-1 5.231381521227867e-1 5.274926734178812e-1
      5.318343940828817e-1 5.361615502369515e-1 5.404723452401251e-1 5.447649511222577e-1
      5.490375101646626e-1 5.532881366397432e-1 5.575149187136247e-1 5.617159205164137e-1
      5.658891843842703e-1 5.700327332769342e-1 5.741445733737360e-1 5.782226968503805e-1
      5.822650848379771e-1 5.862697105648266e-1 5.902345426804018e-1 5.941575487597540e-1
      5.980366989852005e-1 6.018699700006549e-1 6.056553489322601e-1 6.093908375671349e-1
      6.130744566799921e-1 6.167042504951358e-1 6.202782912688970e-1 6.237946839748741e-1
      6.272515710714534e-1 6.306471373279258e-1 6.339796146821276e-1 6.372472870988789e-1
      6.404484953945905e-1 6.435816419892195e-1 6.466451955423199e-1 6.496376954252070e-1
      6.525577559762814e-1 6.554040704812988e-1 6.581754148148809e-1 6.608706506738119e-1
      6.634887283266984e-1 6.660286887984025e-1 6.684896654013067e-1 6.708708845189857e-1
      6.731716655412772e-1 6.753914198431094e-1 6.775296486928210e-1 6.795859399691693e-1
      6.815599635598338e-1 6.834514653080949e-1 6.852602593685714e-1 6.869862188276118e-1
      6.886292644391931e-1 6.901893513232473e-1 6.916664534702583e-1 6.930605458940258e-1
      6.943715842738096e-1 6.955994819279030e-1 6.967440839632406e-1 6.978051384502198e-1
      6.987822644787252e-1 6.996749169607231e-1 7.004823480570348e-1 7.012035651213183e-1
      7.018372850732355e-1 7.023818851356053e-1 7.028353498974176e-1 7.031952146962357e-1
      7.034585053501682e-1 7.036221463697995e-1 7.036845475562520e-1 7.036445662012322e-1
      7.035010923614032e-1 7.032530503692733e-1 7.028994003554266e-1 7.024391397809295e-1
      7.018713049786868e-1 7.011949727024682e-1 7.004092616822537e-1 6.995133341844898e-1
      6.985063975757701e-1 6.973877058883867e-1 6.961565613861168e-1 6.948123161285265e-1
      6.933543735319877e-1 6.917821899255094e-1 6.900952760993820e-1 6.882931988445350e-1
      6.863755824803876e-1 6.843421103688570e-1 6.821925264120605e-1 6.799266365311151e-1
      6.775443101232897e-1 6.750454814946224e-1 6.724301512649512e-1 6.696983877421414e-1
      6.668503282621203e-1 6.638861804911471e-1 6.608062236865595e-1 6.576108099120455e-1
      6.543003652032899e-1 6.508753906796479e-1 6.473364635972922e-1 6.436842383390847e-1
      6.399194473362240e-1 6.360429019165270e-1 6.320554930740285e-1 6.279581921544074e-1
      6.237520514506016e-1 6.194382047028453e-1 6.150178674972532e-1 6.104923375570163e-1
      6.058629949202230e-1 6.011313019983441e-1 5.962988035094567e-1 5.913671262804057e-1
      5.863379789122528e-1 5.812131513036016e-1 5.759945140266764e-1 5.706840175514037e-1
      5.652836913131868e-1 5.597956426205799e-1 5.542220553996699e-1 5.485651887726469e-1
      5.428273754687970e-1 5.370110200669757e-1 5.311185970695215e-1 5.251526488018943e-1
      5.191157831735048e-1 5.130106712349651e-1 5.068400446042255e-1 5.006066927323769e-1
      4.943134600224088e-1 4.879632428084132e-1 4.815589862038444e-1 4.751036808285312e-1
      4.686003594251675e-1 4.620520933769861e-1 4.554619891392059e-1 4.488331845976395e-1
      4.421688453685372e-1 4.354721610543005e-1 4.287463414701358e-1 4.219946128569914e-1
      4.152202140962645e-1 4.084263929417189e-1 4.016164022838718e-1 3.947934964617346e-1
      3.879609276362604e-1 3.811219422391499e-1 3.742797775097962e-1 3.674376581321245e-1
      3.605987929818986e-1 3.537663719937470e-1 3.469435631557023e-1 3.401335096374771e-1
      3.333393270570267e-1 3.265641008881851e-1 3.198108840103451e-1 3.130826943992820e-1
      3.063825129563425e-1 2.997132814713457e-1 2.930779007127044e-1 2.864792286365081e-1
      2.799200787046339e-1 2.734032183004096e-1 2.669313672289772e-1 2.605071962883167e-1
      2.541333258959406e-1 2.478123247555657e-1 2.415467085476612e-1 2.353389386276654e-1
      2.291914207158924e-1 2.231065035637104e-1 2.170864775814936e-1 2.111335734151069e-1
      2.052499604592780e-1 1.994377452981318e-1 1.936989700653620e-1 1.880356107189787e-1
      1.824495752282398e-1 1.769427016732004e-1 1.715167562602432e-1 1.661734312599189e-1
      1.609143428763612e-1 1.557410290603879e-1 1.506549472810843e-1 1.456574722731325e-1
      1.407498937793449e-1 1.359334143097270e-1 1.312091469399025e-1 1.265781131728429e-1
      1.220412408885428e-1 1.175993624065529e-1 1.132532126861327e-1 1.090034276882216e-1
      1.048505429224702e-1 1.007949922012544e-1 9.683710662094496e-2 9.297711378876766e-2
      8.921513731140575e-2 8.555119655911893e-2 8.198520671662235e-2 7.851697912934043e-2
      7.514622195096359e-2 7.187254109554033e-2 6.869544149466833e-2 6.561432865774779e-2
      6.262851053075734e-2 5.973719964663704e-2 5.693951555813880e-2 5.423448754194747e-2
      5.162105756100633e-2 4.909808347030314e-2 4.666434244989786e-2 4.431853464770320e-2
      4.205928701346323e-2 3.988515730451180e-2 3.779463824322689e-2 3.578616180562133e-2
      3.385810362021697e-2 3.200878745622898e-2 3.023648978012820e-2 2.853944435984123e-2
      2.691584689617960e-2 2.536385966154712e-2 2.388161612654807e-2 2.246722555579573e-2
      2.111877755498837e-2 1.983434655216823e-2 1.861199619699597e-2 1.744978366284864e-2
      1.634576383757249e-2 1.529799338978398e-2 1.430453469870372e-2 1.336345963661948e-2
      1.247285319419893e-2 1.163081694000155e-2 1.083547230666588e-2 1.008496369736623e-2
      9.377461407235520e-3 8.711164355533349e-3 8.084302625394640e-3 7.495139809020310e-3
      6.941975157162701e-3 6.423145532711256e-3 5.937027169095010e-3 5.482037235084425e-3
      5.056635208393883e-3 4.659324061255139e-3 4.288651261849596e-3 3.943209596151980e-3
      3.621637815348508e-3 3.322621114548463e-3 3.044891449008426e-3 2.787227694533462e-3
      2.548455659109065e-3 2.327447953152372e-3 2.123123726051642e-3 1.934448276888445e-3
      1.760432547424637e-3 1.600132505498360e-3 1.452648427242375e-3 1.317124086204208e-3
      1.192745857770825e-3 1.078741747160513e-3 9.743803490220399e-4 8.789697466420348e-4
      7.918563585049865e-4 7.124237392273589e-4 6.400913782050086e-4 5.743130507542205e-4
      5.145781152022712e-4 4.604007251674895e-4 4.113395371003703e-4 3.669835291790075e-4
      3.269408686391162e-4 2.908442499755216e-4 2.583523272273430e-4 2.291483710571127e-4
      2.029389539125996e-4 1.794526659903142e-4 1.584388645947780e-4 1.396664591458814e-4
      1.229227337908260e-4 1.080122092854493e-4 9.475554552374405e-5 8.298848581557381e-5
      7.256084374224697e-5 6.333553315885671e-5 5.518764166206394e-5 4.800354760300878e-5
      4.168008049777249e-5 3.612372447250925e-5 3.124986417696978e-5 2.698207240827946e-5
      2.325143850576887e-5 1.999593640623372e-5 1.715983108557211e-5 1.469312195507382e-5
      1.255102162577667e-5 1.069346829843361e-5 9.084669874809903e-6 7.692677713222573e-6
      6.488987746403943e-6 5.448166653206411e-6 4.547497814863485e-6 3.766667701902962e-6
      3.087344442421319e-6 2.495580275023208e-6 1.964025905796909e-6 0.000000000000000e0
      0.000000000000000e0 0.000000000000000e0 0.000000000000000e0 0.000000000000000e0
      0.000000000000000e0 0.000000000000000e0 0.000000000000000e0 0.000000000000000e0
      0.000000000000000e0 0.000000000000000e0 0.000000000000000e0 0.000000000000000e0
      0.000000000000000e0 0.000000000000000e0 0.000000000000000e0 0.000000000000000e0
      0.000000000000000e0 0.000000000000000e0 0.000000000000000e0 0.000000000000000e0
      0.000000000000000e0 0.000000000000000e0 0.000000000000000e0 0.000000000000000e0
      0.000000000000000e0 0.000000000000000e0 0.000000000000000e0 0.000000000000000e0
      0.000000000000000e0 0.000000000000000e0 0.000000000000000e0 0.000000000000000e0
      0.000000000000000e0 0.000000000000000e0 0.000000000000000e0 0.000000000000000e0
      0.000000000000000e0 0.000000000000000e0 0.000000000000000e0 0.000000000000000e0
      0.000000000000000e0 0.000000000000000e0 0.000000000000000e0 0.000000000000000e0
      0.000000000000000e0 0.000000000000000e0 0.000000000000000e0 0.000000000000000e0
      0.000000000000000e0 0.000000000000000e0 0.000000000000000e0 0.000000000000000e0
      0.000000000000000e0 0.000000000000000e0 0.000000000000000e0 0.000000000000000e0
      0.000000000000000e0 0.000000000000000e0 0.000000000000000e0 0.000000000000000e0
      0.000000000000000e0 0.000000000000000e0 0.000000000000000e0 0.000000000000000e0
      0.000000000000000e0 0.000000000000000e0 0.000000000000000e0 0.000000000000000e0
      0.000000000000000e0 0.000000000000000e0 0.000000000000000e0 0.000000000000000e0
      0.000000000000000e0 0.000000000000000e0 0.000000000000000e0 0.000000000000000e0
      0.000000000000000e0 0.000000000000000e0 0.000000000000000e0 0.000000000000000e0
      0.000000000000000e0 0.000000000000000e0 0.000000000000000e0 0.000000000000000e0
      0.000000000000000e0 0.000000000000000e0 0.000000000000000e0 0.000000000000000e0
      0.000000000000000e0 0.000000000000000e0 0.000000000000000e0 0.000000000000000e0
      0.000000000000000e0 0.000000000000000e0 0.000000000000000e0 0.000000000000000e0
      0.000000000000000e0 0.000000000000000e0 0.000000000000000e0 0.000000000000000e0
      0.000000000000000e0 0.000000000000000e0 0.000000000000000e0 0.000000000000000e0
      0.000000000000000e0 0.000000000000000e0 0.000000000000000e0 0.000000000000000e0
      0.000000000000000e0 0.000000000000000e0 0.000000000000000e0 0.000000000000000e0
      0.000000000000000e0 0.000000000000000e0 0.000000000000000e0 0.000000000000000e0
      0.000000000000000e0 0.000000000000000e0 0.000000000000000e0 0.000000000000000e0
      0.000000000000000e0 0.000000000000000e0 0.000000000000000e0 0.000000000000000e0
      0.000000000000000e0
      </PP_PSWFC.1>
    <PP_PSWFC.2 index="2" label="1S" l="0">
      1.258423765117419e-3 1.274252759002052e-3 1.290280856031593e-3 1.306510560573740e-3
      1.322944408495677e-3 1.339584967560214e-3 1.356434837826935e-3 1.373496652058368e-3
      1.390773076131269e-3 1.408266809453088e-3 1.425980585383644e-3 1.443917171662130e-3
      1.462079370839466e-3 1.480470020716096e-3 1.499091994785296e-3 1.517948202682031e-3
      1.537041590637482e-3 1.556375141939269e-3 1.575951877397465e-3 1.595774855816472e-3
      1.615847174472822e-3 1.636171969598979e-3 1.656752416873242e-3 1.677591731915786e-3
      1.698693170790948e-3 1.720060030515818e-3 1.741695649575236e-3 1.763603408443247e-3
      1.785786730111119e-3 1.808249080621997e-3 1.830993969612270e-3 1.854024950859747e-3
      1.877345622838720e-3 1.900959629282004e-3 1.924870659750042e-3 1.949082450207154e-3
      1.973598783605032e-3 1.998423490473571e-3 2.023560449519112e-3 2.049013588230227e-3
      2.074786883491074e-3 2.100884362202503e-3 2.127310101910938e-3 2.154068231445162e-3
      2.181162931561124e-3 2.208598435594812e-3 2.236379030123356e-3 2.264509055634422e-3
      2.292992907204025e-3 2.321835035182846e-3 2.351039945891169e-3 2.380612202322559e-3
      2.410556424856365e-3 2.440877291979181e-3 2.471579541015363e-3 2.502667968866723e-3
      2.534147432761501e-3 2.566022851012765e-3 2.598299203786310e-3 2.630981533878221e-3
      2.664074947502174e-3 2.697584615086645e-3 2.731515772082116e-3 2.765873719778416e-3
      2.800663826132326e-3 2.835891526605568e-3 2.871562325013315e-3 2.907681794383353e-3
      2.944255577826016e-3 2.981289389415066e-3 3.018789015079588e-3 3.056760313507108e-3
      3.095209217058029e-3 3.134141732691547e-3 3.173563942903188e-3 3.213482006674088e-3
      3.253902160432197e-3 3.294830719025542e-3 3.336274076707688e-3 3.378238708135577e-3
      3.420731169379842e-3 3.463758098947834e-3 3.507326218819462e-3 3.551442335496002e-3
      3.596113341062093e-3 3.641346214260998e-3 3.687148021583392e-3 3.733525918369767e-3
      3.780487149926652e-3 3.828039052656854e-3 3.876189055203815e-3 3.924944679610334e-3
      3.974313542491815e-3 4.024303356224181e-3 4.074921930146705e-3 4.126177171779864e-3
      4.178077088058486e-3 4.230629786580297e-3 4.283843476870132e-3 4.337726471659968e-3
      4.392287188184952e-3 4.447534149495679e-3 4.503475985786881e-3 4.560121435742736e-3
      4.617479347899024e-3 4.675558682022293e-3 4.734368510506305e-3 4.793918019785920e-3
      4.854216511768678e-3 4.915273405284274e-3 4.977098237552124e-3 5.039700665667319e-3
      5.103090468105097e-3 5.167277546244153e-3 5.232271925908961e-3 5.298083758931334e-3
      5.364723324731520e-3 5.432201031919020e-3 5.500527419913379e-3 5.569713160585236e-3
      5.639769059917789e-3 5.710706059689059e-3 5.782535239175068e-3 5.855267816874303e-3
      5.928915152253662e-3 6.003488747516140e-3 6.079000249390566e-3 6.155461450943628e-3
      6.232884293414463e-3 6.311280868072106e-3 6.390663418096020e-3 6.471044340480075e-3
      6.552436187960183e-3 6.634851670965920e-3 6.718303659596443e-3 6.802805185620896e-3
      6.888369444503740e-3 6.975009797455224e-3 7.062739773507315e-3 7.151573071615418e-3
      7.241523562786131e-3 7.332605292231465e-3 7.424832481549731e-3 7.518219530933484e-3
      7.612781021404846e-3 7.708531717078464e-3 7.805486567452558e-3 7.903660709728294e-3
      8.003069471157836e-3 8.103728371421520e-3 8.205653125034290e-3 8.308859643781975e-3
      8.413364039187631e-3 8.519182625008275e-3 8.626331919762560e-3 8.734828649289449e-3
      8.844689749338574e-3 8.955932368192451e-3 9.068573869320979e-3 9.182631834068660e-3
      9.298124064374791e-3 9.415068585527182e-3 9.533483648949643e-3 9.653387735023731e-3
      9.774799555945160e-3 9.897738058615094e-3 1.002222242756710e-2 1.014827208792972e-2
      1.027590670842545e-2 1.040514620440639e-2 1.053601074092682e-2 1.066852073585359e-2
      1.080269686301417e-2 1.093856005538330e-2 1.107613150830835e-2 1.121543268277390e-2
      1.135648530870623e-2 1.149931138831768e-2 1.164393319949186e-2 1.179037329920976e-2
      1.193865452701743e-2 1.208880000853570e-2 1.224083315901220e-2 1.239477768691642e-2
      1.255065759757816e-2 1.270849719686965e-2 1.286832109493232e-2 1.303015420994813e-2
      1.319402177195628e-2 1.335994932671585e-2 1.352796273961445e-2 1.369808819962400e-2
      1.387035222330347e-2 1.404478165884957e-2 1.422140369019578e-2 1.440024584115989e-2
      1.458133597964124e-2 1.476470232186739e-2 1.495037343669133e-2 1.513837824993951e-2
      1.532874604881105e-2 1.552150648632908e-2 1.571668958584425e-2 1.591432574559124e-2
      1.611444574329877e-2 1.631708074085332e-2 1.652226228901774e-2 1.673002233220444e-2
      1.694039321330440e-2 1.715340767857220e-2 1.736909888256740e-2 1.758750039315347e-2
      1.780864619655395e-2 1.803257070246694e-2 1.825930874923846e-2 1.848889560909454e-2
      1.872136699343368e-2 1.895675905817899e-2 1.919510840919146e-2 1.943645210774445e-2
      1.968082767605972e-2 1.992827310290629e-2 2.017882684926155e-2 2.043252785403600e-2
      2.068941553986186e-2 2.094952981894556e-2 2.121291109898560e-2 2.147960028915520e-2
      2.174963880615080e-2 2.202306858030700e-2 2.229993206177763e-2 2.258027222678460e-2
      2.286413258393360e-2 2.315155718059825e-2 2.344259060937253e-2 2.373727801459165e-2
      2.403566509892271e-2 2.433779813002441e-2 2.464372394727687e-2 2.495348996858189e-2
      2.526714419723344e-2 2.558473522885958e-2 2.590631225843524e-2 2.623192508736663e-2
      2.656162413064760e-2 2.689546042408782e-2 2.723348563161341e-2 2.757575205263980e-2
      2.792231262951750e-2 2.827322095505045e-2 2.862853128008736e-2 2.898829852118607e-2
      2.935257826835087e-2 2.972142679284301e-2 3.009490105506434e-2 3.047305871251388e-2
      3.085595812781749e-2 3.124365837683034e-2 3.163621925681212e-2 3.203370129467490e-2
      3.243616575530305e-2 3.284367464994541e-2 3.325629074467891e-2 3.367407756894369e-2
      3.409709942414899e-2 3.452542139234930e-2 3.495910934499051e-2 3.539822995172509e-2
      3.584285068929591e-2 3.629303985048777e-2 3.674886655314591e-2 3.721040074926063e-2
      3.767771323411695e-2 3.815087565550840e-2 3.862996052301384e-2 3.911504121733579e-2
      3.960619199969944e-2 4.010348802131055e-2 4.060700533287091e-2 4.111682089414987e-2
      4.163301258360985e-2 4.215565920808462e-2 4.268484051250773e-2 4.322063718968957e-2
      4.376313089014072e-2 4.431240423193897e-2 4.486854081063823e-2 4.543162520921595e-2
      4.600174300805694e-2 4.657898079497038e-2 4.716342617523685e-2 4.775516778168271e-2
      4.835429528477762e-2 4.896089940275226e-2 4.957507191173235e-2 5.019690565588455e-2
      5.082649455757076e-2 5.146393362750600e-2 5.210931897491509e-2 5.276274781768392e-2
      5.342431849249962e-2 5.409413046497454e-2 5.477228433974835e-2 5.545888187056274e-2
      5.615402597030212e-2 5.685782072099400e-2 5.757037138376271e-2 5.829178440872869e-2
      5.902216744484674e-2 5.976162934967512e-2 6.051028019906715e-2 6.126823129677767e-2
      6.203559518397483e-2 6.281248564864806e-2 6.359901773490356e-2 6.439530775213544e-2
      6.520147328406414e-2 6.601763319762956e-2 6.684390765172825e-2 6.768041810578280e-2
      6.852728732813061e-2 6.938463940421943e-2 7.025259974459612e-2 7.113129509267445e-2
      7.202085353226748e-2 7.292140449486934e-2 7.383307876666972e-2 7.475600849528603e-2
      7.569032719619444e-2 7.663616975884291e-2 7.759367245242733e-2 7.856297293131056e-2
      7.954421024006564e-2 8.053752481812094e-2 8.154305850398568e-2 8.256095453903384e-2
      8.359135757082125e-2 8.463441365591317e-2 8.569027026219546e-2 8.675907627064355e-2
      8.784098197652133e-2 8.893613908998132e-2 9.004470073603660e-2 9.116682145387369e-2
      9.230265719547395e-2 9.345236532351091e-2 9.461610460848791e-2 9.579403522508134e-2
      9.698631874765198e-2 9.819311814488534e-2 9.941459777352193e-2 1.006509233711347e-1
      1.019022620479124e-1 1.031687822774021e-1 1.044506538861670e-1 1.057480480423098e-1
      1.070611372428124e-1 1.083900952996413e-1 1.097350973245648e-1 1.110963197126261e-1
      1.124739401242176e-1 1.138681374656937e-1 1.152790918684645e-1 1.167069846665041e-1
      1.181519983722103e-1 1.196143166505461e-1 1.210941242913935e-1 1.225916071800479e-1
      1.241069522657765e-1 1.256403475283647e-1 1.271919819425696e-1 1.287620454403971e-1
      1.303507288711194e-1 1.319582239589423e-1 1.335847232582317e-1 1.352304201062072e-1
      1.368955085730010e-1 1.385801834089875e-1 1.402846399892765e-1 1.420090742552640e-1
      1.437536826531326e-1 1.455186620691846e-1 1.473042097618951e-1 1.491105232905626e-1
      1.509378004404330e-1 1.527862391441710e-1 1.546560373995477e-1 1.565473931832064e-1
      1.584605043603735e-1 1.603955685903667e-1 1.623527832277558e-1 1.643323452190279e-1
      1.663344509945970e-1 1.683592963560052e-1 1.704070763581492e-1 1.724779851863662e-1
      1.745722160282084e-1 1.766899609397296e-1 1.788314107061073e-1 1.809967546964128e-1
      1.831861807123453e-1 1.853998748307357e-1 1.876380212396240e-1 1.899008020677122e-1
      1.921883972069855e-1 1.945009841282969e-1 1.968387376897003e-1 1.992018299373176e-1
      2.015904298985202e-1 2.040047033672025e-1 2.064448126809182e-1 2.089109164896551e-1
      2.114031695160090e-1 2.139217223065269e-1 2.164667209739791e-1 2.190383069303205e-1
      2.216366166100991e-1 2.242617811840676e-1 2.269139262627540e-1 2.295931715897460e-1
      2.322996307244412e-1 2.350334107140212e-1 2.377946117543998e-1 2.405833268399058e-1
      2.433996414014567e-1 2.462436329329858e-1 2.491153706058852e-1 2.520149148712343e-1
      2.549423170495890e-1 2.578976189081099e-1 2.608808522248165e-1 2.638920383397647e-1
      2.669311876929485e-1 2.699982993487449e-1 2.730933605067268e-1 2.762163459986844e-1
      2.793672177717131e-1 2.825459243572336e-1 2.857524003258424e-1 2.889865657278961e-1
      2.922483255197648e-1 2.955375689757099e-1 2.988541690853680e-1 3.021979819368531e-1
      3.055688460855170e-1 3.089665819084447e-1 3.123909909447951e-1 3.158418552221369e-1
      3.193189365689735e-1 3.228219759136930e-1 3.263506925702289e-1 3.299047835107712e-1
      3.334839226259160e-1 3.370877599727107e-1 3.407159210111070e-1 3.443680058294025e-1
      3.480435883593264e-1 3.517422155814952e-1 3.554634067220483e-1 3.592066524413556e-1
      3.629714140157790e-1 3.667571225135665e-1 3.705631779660478e-1 3.743889485354210e-1
      3.782337696805105e-1 3.820969433220044e-1 3.859777370087958e-1 3.898753830871721e-1
      3.937890778747390e-1 3.977179808410892e-1 4.016612137973757e-1 4.056178600970924e-1
      4.095869638505141e-1 4.135675291554124e-1 4.175585193468131e-1 4.215588562687365e-1
      4.255674195710247e-1 4.295830460345326e-1 4.336045289281408e-1 4.376306174012189e-1
      4.416600159153537e-1 4.456913837193311e-1 4.497233343715473e-1 4.537544353142016e-1
      4.577832075037988e-1 4.618081251026655e-1 4.658276152363542e-1 4.698400578219646e-1
      4.738437854725771e-1 4.778370834831250e-1 4.818181899031668e-1 4.857852957021431e-1
      4.897365450327819e-1 4.936700355984151e-1 4.975838191300054e-1 5.014759019787150e-1
      5.053442458298458e-1 5.091867685439264e-1 5.130013451306612e-1 5.167858088613143e-1
      5.205379525249350e-1 5.242555298336047e-1 5.279362569815852e-1 5.315778143629109e-1
      5.351778484515151e-1 5.387339738474873e-1 5.422437754924587e-1 5.457048110564095e-1
      5.491146134974145e-1 5.524706937949181e-1 5.557705438561177e-1 5.590116395938688e-1
      5.621914441732335e-1 5.653074114223582e-1 5.683569894017574e-1 5.713376241243272e-1
      5.742467634164639e-1 5.770818609085374e-1 5.798403801406594e-1 5.825197987671484e-1
      5.851176128403763e-1 5.876313411517204e-1 5.900585296041693e-1 5.923967555877359e-1
      5.946436323251806e-1 5.967968131516810e-1 5.988539956879793e-1 6.008129258621874e-1
      6.026714017308745e-1 6.044272770452674e-1 6.060784645034037e-1 6.076229386238988e-1
      6.090587381716320e-1 6.103839680601755e-1 6.115968006501779e-1 6.126954763572591e-1
      6.136783034772753e-1 6.145436571311543e-1 6.152899772259543e-1 6.159157653233968e-1
      6.164195803020086e-1 6.168000326942185e-1 6.170557775754424e-1 6.171855058784592e-1
      6.171879340033609e-1 6.170617915912091e-1 6.168058073284347e-1 6.164186926491030e-1
      6.158991232037007e-1 6.152457179662495e-1 6.144570158565571e-1 6.135314497615517e-1
      6.124673178491409e-1 6.112627520801908e-1 6.099156838393395e-1 6.084238066237216e-1
      6.067845357506284e-1 6.049949650709791e-1 6.030518207055618e-1 6.009514118556394e-1
      5.986895787790536e-1 5.962620405822499e-1 5.936657540387642e-1 5.908980391717547e-1
      5.879562276365259e-1 5.848376646225427e-1 5.815397108085971e-1 5.780597443714914e-1
      5.743951630485457e-1 5.705433862541858e-1 5.665018572508015e-1 5.622680453739958e-1
      5.578394483122700e-1 5.532135944411067e-1 5.483880452113162e-1 5.433603975914193e-1
      5.381282865637212e-1 5.326893876736229e-1 5.270414196315812e-1 5.211821469670003e-1
      5.151093827331841e-1 5.088209912623319e-1 5.023148909693894e-1 4.955890572033996e-1
      4.886415251448143e-1 4.814703927470411e-1 4.740738237203074e-1 4.664500505557206e-1
      4.585973775872096e-1 4.505141840888188e-1 4.421989274046355e-1 4.336501461084266e-1
      4.248664631898730e-1 4.158465892641106e-1 4.065893258011208e-1 3.970935683713738e-1
      3.873583099039987e-1 3.773826439536725e-1 3.671657679723609e-1 3.567069865820298e-1
      3.460057148444835e-1 3.350614815245728e-1 3.238739323431654e-1 3.124428332164879e-1
      3.007680734787407e-1 2.888496690852508e-1 2.766877657938848e-1 2.642826423229817e-1
      2.516347134846954e-1 2.387445332933624e-1 2.256127980493236e-1 2.122403493995362e-1
      1.986281773773041e-1 1.847774234245288e-1 1.706893834010280e-1 1.563655105866731e-1
      1.418074186833516e-1 1.270168848250377e-1 1.119958526055492e-1 9.674643513484472e-2
      8.127091813595538e-2 6.557176309582101e-2 4.965161048438467e-2 3.351328305724676e-2
      1.715978925797605e-2 5.943267367781054e-4 -1.617971399740749e-2 -3.315874577419741e-2
      -5.033898079144313e-2 -6.771642646080977e-2 -8.528688105363784e-2 -1.030459291327245e-1
      -1.209889367573281e-1 -1.391110464507952e-1 -1.574071719227527e-1 -1.758719925408106e-1
      -1.944999475501857e-1 -2.132852300435825e-1 -2.322217806880546e-1 -2.513032812203857e-1
      -2.705231477277712e-1 -2.898745237361977e-1 -3.093502731348843e-1 -3.289429729713925e-1
      -3.486449061585012e-1 -3.684480541405706e-1 -3.883440895738285e-1 -4.083243690816988e-1
      -4.283799261528474e-1 -4.485014642559332e-1 -4.686793502509991e-1 -4.889036081828744e-1
      -5.091639135467556e-1 -5.294495881201374e-1 -5.497495954583225e-1 -5.700525371527155e-1
      -5.903466499518474e-1 -6.106198038444456e-1 -6.308595012017570e-1 -6.510528770726286e-1
      -6.711867007194790e-1 -6.912473784762145e-1 -7.112209580003290e-1 -7.310931339809161e-1
      -7.508492553521618e-1 -7.704743340482199e-1 -7.899530553203150e-1 -8.092697896207213e-1
      -8.284086060411260e-1 -8.473532872751324e-1 -8.660873460565675e-1 -8.845940430072117e-1
      -9.028564058098812e-1 -9.208572496058673e-1 -9.385791984999042e-1 -9.560047080414337e-1
      -9.731160885383030e-1 -9.898955290483995e-1 -1.006325121886363e0 -1.022386887476554e0
      -1.038062799380050e0 -1.053334809322604e0 -1.068184872052233e0 -1.082594969859391e0
      -1.096547136599269e0 -1.110023481064657e0 -1.123006209568633e0 -1.135477647608949e0
      -1.147420260500069e0 -1.158816672874125e0 -1.169649686968247e0 -1.179902299632574e0
      -1.189557718010453e0 -1.198599373859643e0 -1.207010936500517e0 -1.214776324394090e0
      -1.221879715369041e0 -1.228305555532545e0 -1.234038566914622e0 -1.239063753909699e0
      -1.243366408592154e0 -1.246932114994683e0 -1.249746752449451e0 -1.251796498102039e0
      -1.253067828717372e0 -1.253547521904988e0 -1.253222656898284e0 -1.252080615028853e0
      -1.250109080042672e0 -1.247296038409857e0 -1.243629779783933e0 -1.239098897770268e0
      -1.233692291166405e0 -1.227399165839615e0 -1.220209037409199e0 -1.212111734902736e0
      -1.203097405556917e0 -1.193156520934562e0 -1.182279884530150e0 -1.170458641036570e0
      -1.157684287445881e0 -1.143948686156649e0 -1.129244080259916e0 -1.113563111175000e0
      -1.096898838805123e0 -1.079244764381322e0 -1.060594856161116e0 -1.040943578145979e0
      -1.020285921978771e0 -9.986174421788231e-1 -9.759342948682779e-1 -9.522332801385854e-1
      -9.275118882005298e-1 -9.017683494548690e-1 -8.750016886134450e-1 -8.472117829924025e-1
      -8.183994250898389e-1 -7.885663895497067e-1 -7.577155046019818e-1 -7.258507280558836e-1
      -6.929772279081896e-1 -6.591014676122735e-1 -6.242312960353068e-1 -5.883760421109628e-1
      -5.515466141727892e-1 -5.137556039290711e-1 -4.750173950132862e-1 -4.353482760150677e-1
      -3.947665578647355e-1 -3.532926954098063e-1 -3.109494129842770e-1 -2.677618337307414e-1
      -2.237576123913912e-1 -1.789670712365039e-1 -1.334233387487442e-1 -8.716249062598058e-2
      -4.022369260090565e-2 7.350655474824610e-3 5.551477489710980e-2 1.042193634450015e-1
      1.534114515405911e-1 2.030342600900133e-1 2.530270609391425e-1 3.033250409680754e-1
      3.538591709480972e-1 4.045560799692988e-1 4.553405685479329e-1 5.061415101283128e-1
      5.568814465871937e-1 6.074641266547090e-1 6.577955083862850e-1 7.077742648879266e-1
      7.572942783047485e-1 8.062442747783651e-1 8.545078569659999e-1 9.019635356687957e-1
      9.484847870383950e-1 9.939401390550652e-1 1.038193289765815e0 1.081103260055357e0
      1.122524583801632e0 1.162307538354634e0 1.200298418350471e0 1.236339855930472e0
      1.270271190474689e0 1.301928890977270e0 1.331147034184381e0 1.357757841579873e0
      1.381592278235736e0 1.402480716439131e0 1.420253666860912e0 1.434742579836997e0
      1.445780719088669e0 1.453204109905387e0 1.456852563448255e0 1.456570778398267e0
      1.452209520664690e0 1.443626881279571e0 1.430689611928256e0 1.413274536797139e0
      1.391270038552865e0 1.364577615296486e0 1.333113504256763e0 1.296810366794560e0
      1.255619027981676e0 1.209510262590060e0 1.158476617779993e0 1.102534261108894e0
      1.041724840698043e0 9.761173424971782e-1 9.058099275832458e-1 8.309317303293973e-1
      7.516445960964379e-1 6.681447348479135e-1 5.806642647925298e-1 4.894726178387888e-1
      3.948777763367042e-1 2.972273083157956e-1 1.969091662485835e-1 9.435221232213797e-2
      -9.973568658970908e-3 -1.155572092256677e-1 -2.218472938347173e-1 -3.282529307799591e-1
      -4.341452045357221e-1 -5.388591515077020e-1 -6.416963013708765e-1 -7.419278246167652e-1
      -8.387983245066765e-1 -9.315303082228748e-1 -1.019329367513029e0 -1.101390093421869e0
      -1.176902742686945e0 -1.245060664937155e0 -1.305068489876554e0 -1.356151062077649e0
      -1.397563097781354e0 -1.428599523160929e0 -1.448606436839197e0 -1.456992621071627e0
      -1.453241505984356e0 -1.436923469697053e0 -1.407708334234784e0 -1.365377893075207e0
      -1.309838281296109e0 -1.241131973974027e0 -1.159449173217404e0 -1.065138319573729e0
      -9.587154402071180e-1 -8.408720249839533e-1 -7.124811033189641e-1 -5.746011803169821e-1
      -4.284776814901282e-1 -2.755415523195773e-1 -1.174046634226463e-1 4.414831460995910e-2
      2.071718791904005e-1 3.695757840846156e-1 5.291454780376346e-1 6.835670620140080e-1
      8.304568569502583e-1 9.673955818443883e-1 1.091967033888809e0 1.201801038182747e0
      1.294620294843126e0 1.368290597184501e0 1.420873727886878e0 1.450682163356808e0
      1.456334533360075e0 1.436810597999889e0 1.391504322817557e0 1.320273461870695e0
      1.223483905843216e0 1.102046926336464e0 9.574473581773447e-1 7.917607192973285e-1
      6.076572834159882e-1 4.083912054817015e-1 1.977729643658419e-1 -1.987635837036306e-2
      -2.397900922335583e-1 -4.568409555632186e-1 -6.656461039067177e-1 -8.606916836559606e-1
      -1.036475552124201e0 -1.187665961581130e0 -1.309273068904925e0 -1.396829149848065e0
      -1.446572400808245e0 -1.455628243037062e0 -1.422181154113346e0 -1.345629296471725e0
      -1.226713656338025e0 -1.067613116527732e0 -8.719969329077577e-1 -6.450265348486875e-1
      -3.932994865439401e-1 -1.247298792153858e-1 1.516385926036292e-1 4.258880744024252e-1
      6.875486354911358e-1 9.259815482913400e-1 1.130814368410995e0 1.292414232903266e0
      1.402381562916012e0 1.454042325941699e0 1.442913470112022e0 1.367113412482679e0
      1.227687891411573e0 1.028821429490843e0 7.779064258663807e-1 4.854457810447103e-1
      1.647711427635376e-1 -1.684325864443585e-1 -4.967950170472558e-1 -8.021060529404144e-1
      -1.066311161609329e0 -1.272612648046991e0 -1.406618777409965e0 -1.457469430048616e0
      -1.418856699503818e0 -1.289852927146643e0 -1.075458550000925e0 -7.867890990256643e-1
      -4.408356702251806e-1 -5.975663445947785e-2 3.303100052032636e-1 7.008854696134373e-1
      1.023168398121983e0
      </PP_PSWFC.2>
  </PP_FULL_WFC>
</UPF>
