&GLOBAL
  PRINT_LEVEL LOW
  PROJECT CH2O
  RUN_TYPE DEBUG
&END GLOBAL

&DEBUG
  DEBUG_FORCES T
  DEBUG_STRESS_TENSOR F
  DX 0.0001
  EPS_NO_ERROR_CHECK 0.000001
  STOP_ON_MISMATCH F
&END DEBUG

&FORCE_EVAL
  &DFT
    CHARGE 1
    &QS
      METHOD xTB
      &XTB
        &PARAMETER
          DISPERSION_PARAMETER_FILE dftd3.dat
        &END PARAMETER
      &END XTB
    &END QS
    &SCF
      ADDED_MOS 10
      EPS_SCF 1.e-8
      MAX_SCF 100
      SCF_GUESS MOPAC
      &MIXING
        ALPHA 0.2
        METHOD DIRECT_P_MIXING
      &END MIXING
      &SMEAR
      &END SMEAR
    &END SCF
  &END DFT
  &SUBSYS
    &CELL
      ABC 20.0 20.0 20.0
      PERIODIC NONE
    &END CELL
    &COORD
      O     0.051368    0.000000    0.000000
      C     1.278612    0.000000    0.000000
      H     1.870460    0.939607    0.000000
      H     1.870460   -0.939607    0.000000
    &END COORD
  &END SUBSYS
&END FORCE_EVAL
