&FORCE_EVAL
  &DFT
    &QS
      METHOD xTB
      &xTB
         COULOMB_INTERACTION T
         &PARAMETER
             DISPERSION_PARAMETER_FILE dftd3.dat
         &END PARAMETER
         &ATOM_PARAMETER
    N          0.476106    0.042507   1.727773    5.498808      2s   -12.745585         0.0   -20.058000   2.050067
                                                                2p    -1.428367    0.315090   -12.889326   2.113682
    O          0.583349   -0.005102   2.004253    5.171786      2s   -13.729047         0.0   -23.398376   2.345365
                                                                2p    -4.453341    0.374608   -17.886554   2.153060
    C          0.479988    1.053856   1.281954    4.428763      2s    -7.082170         0.0   -13.587210   1.960324
                                                                2p     0.812216   -0.471181   -10.052785   1.832096
         &END ATOM_PARAMETER
      &END XTB
    &END QS
    &SCF
      SCF_GUESS MOPAC
      MAX_SCF  100
      EPS_SCF 1.e-8
      &MIXING
          METHOD DIRECT_P_MIXING
          ALPHA   0.2
      &END
    &END SCF
  &END DFT
  &SUBSYS
    &CELL
      ABC 20.0 20.0 20.0
      PERIODIC NONE
    &END CELL
    &COORD
     O     0.051368    0.000000    0.000000
     C     1.278612    0.000000    0.000000
     H     1.870460    0.939607    0.000000
     H     1.870460   -0.939607    0.000000
    &END COORD
  &END SUBSYS
&END FORCE_EVAL
&GLOBAL
  PROJECT CH2O
  RUN_TYPE DEBUG
  PRINT_LEVEL LOW
&END GLOBAL
&DEBUG
   DEBUG_FORCES T
   DEBUG_STRESS_TENSOR F
   DX 0.0001
   EPS_NO_ERROR_CHECK  0.000001
   STOP_ON_MISMATCH F
&END DEBUG
