&GLOBAL
  PRINT_LEVEL LOW
  PROJECT H2
  RUN_TYPE ENERGY
&END GLOBAL

&FORCE_EVAL
  &DFT
    &QS
      METHOD xTB
    &END QS
    &SCF
      EPS_SCF 1.e-5
      MAX_SCF 100
      SCF_GUESS MOPAC
    &END SCF
  &END DFT
  &SUBSYS
    &CELL
      ABC 10.0 10.0 10.0
    &END CELL
    &COORD
      UNIT bohr
      H     0.000000    0.000000    0.000000
      H     1.360000    0.000000    0.000000
      X     0.680000    0.000000    0.000000
    &END COORD
  &END SUBSYS
&END FORCE_EVAL
