&GLOBAL
  PRINT_LEVEL LOW
  PROJECT H2
  RUN_TYPE DEBUG
&END GLOBAL

&DEBUG
  DEBUG_FORCES T
  DEBUG_STRESS_TENSOR F
  DX 0.001
  EPS_NO_ERROR_CHECK 0.000001
  STOP_ON_MISMATCH T
&END DEBUG

&FORCE_EVAL
  &DFT
    &QS
      METHOD xTB
      &XTB
        HYDROGEN_STO_NG 4
        STO_NG 6
        &PARAMETER
          DISPERSION_PARAMETER_FILE dftd3.dat
        &END PARAMETER
      &END XTB
    &END QS
    &SCF
      EPS_SCF 1.e-10
      MAX_SCF 100
      SCF_GUESS MOPAC
      &MIXING
        ALPHA 0.75
        METHOD DIRECT_P_MIXING
      &END MIXING
    &END SCF
  &END DFT
  &SUBSYS
    &CELL
      ABC 10.0 10.0 10.0
    &END CELL
    &COORD
      UNIT bohr
      H     0.000000    0.000000    0.000000
      H     1.360000    0.000000    0.000000
    &END COORD
  &END SUBSYS
&END FORCE_EVAL
