&GLOBAL
  PROJECT     WaterDimer
  RUN_TYPE    DEBUG
  PRINT_LEVEL MEDIUM
&END GLOBAL
&FORCE_EVAL
  &DFT
    &QS
      METHOD xTB
      EPS_DEFAULT 1.0e-14
      &xTB
        DO_EWALD FALSE
      &END xTB
    &END QS
    &SCF
      SCF_GUESS MOPAC
      MAX_SCF   200
      EPS_SCF   1.0e-8
    &END SCF
    &PRINT
      &MO
        EIGENVALUES
      &END MO
    &END PRINT
  &END DFT
  &SUBSYS
    &CELL
      ABC 10.0 10.0 10.0
      PERIODIC NONE
    &END CELL
    &COORD
      UNIT bohr
      O        -3.04199500181513       -0.24214003254736        0.00000554304386
      O         2.42678178394041        0.25434643589818        0.00000193078253
      H        -1.24278357467135        0.08031063038246       -0.00000630765923
      H        -3.83888180438040        1.38422361491940       -0.00000174113844
      H         2.84843789645690       -0.73836886176897       -1.45538523208327
      H         2.84844070046958       -0.73837178688373        1.45538580705456
    &END COORD
  &END SUBSYS
&END FORCE_EVAL
&DEBUG
   DEBUG_FORCES T
   DEBUG_STRESS_TENSOR F
   DX 0.00005
   EPS_NO_ERROR_CHECK  0.0001
   STOP_ON_MISMATCH T
   MAX_RELATIVE_ERROR 0.75
&END DEBUG

