&FORCE_EVAL
  STRESS_TENSOR ANALYTICAL
  &DFT
    &QS
      METHOD xTB 
      &xTB
        DO_EWALD            T
        COULOMB_INTERACTION T
        TB3_INTERACTION     T
        &PARAMETER
          DISPERSION_PARAMETER_FILE   dftd3.dat
        &END PARAMETER
      &END 
    &END QS
    &SCF
      SCF_GUESS MOPAC
      &MIXING
          METHOD DIRECT_P_MIXING
          ALPHA   0.10
      &END
      MAX_SCF  2000
    &END SCF
    &KPOINTS
       SCHEME  NONE
       #SCHEME  GAMMA
       #SCHEME  MONKHORST-PACK  1 1 1
    &END KPOINTS
    &POISSON
      &EWALD
       ALPHA  2.0
       EWALD_TYPE SPME
       GMAX 50
       O_SPLINE 6
      &END EWALD
    &END POISSON
  &END DFT
  &SUBSYS
    &CELL
      ABC 7.0 7.0 7.0   
    &END CELL
    &COORD
    O                  -4.583   5.333   1.560   
    H                  -3.777   5.331   0.943  
    H                  -5.081   4.589   1.176 
    &END COORD
  &END SUBSYS
&END FORCE_EVAL
&GLOBAL
  PROJECT h2o
  RUN_TYPE DEBUG
#  RUN_TYPE ENERGY_FORCE
  PRINT_LEVEL LOW
&END GLOBAL
&DEBUG
   DEBUG_FORCES F
   DEBUG_STRESS_TENSOR T
   DX 0.001
   EPS_NO_ERROR_CHECK  0.000001
   STOP_ON_MISMATCH F
&END DEBUG

