@SET NREP 1
&FORCE_EVAL
  STRESS_TENSOR ANALYTICAL
  &DFT
    &KPOINTS
      SCHEME NONE
    &END KPOINTS
    &POISSON
      &EWALD
        ALPHA 3.0
      &END EWALD
    &END POISSON
    &QS
      EPS_DEFAULT 1.E-14
      METHOD xTB
      &XTB
        DO_EWALD T
      &END XTB
    &END QS
    &SCF
      EPS_SCF 1.e-7
      MAX_SCF 200
      SCF_GUESS MOPAC
      &MIXING
        ALPHA 0.25
        METHOD DIRECT_P_MIXING
      &END MIXING
    &END SCF
  &END DFT
  &SUBSYS
    &CELL
      ABC 5.0 5.0 5.0
      MULTIPLE_UNIT_CELL ${NREP} ${NREP} ${NREP}
      SYMMETRY CUBIC
    &END CELL
    &COORD
      O                  -4.583   5.333   1.560
      H                  -3.777   5.331   0.943
      H                  -5.081   4.589   1.176
    &END COORD
    &TOPOLOGY
      MULTIPLE_UNIT_CELL ${NREP} ${NREP} ${NREP}
    &END TOPOLOGY
  &END SUBSYS
&END FORCE_EVAL

&GLOBAL
  PRINT_LEVEL LOW
  PROJECT h2o
  RUN_TYPE DEBUG
&END GLOBAL

&DEBUG
  DEBUG_FORCES F
  DEBUG_STRESS_TENSOR T
  DX 0.0002
  EPS_NO_ERROR_CHECK 0.0001
  MAX_RELATIVE_ERROR 0.5
  STOP_ON_MISMATCH T
&END DEBUG
