&GLOBAL
  PRINT_LEVEL MEDIUM
  PROJECT TTcif
  RUN_TYPE ENERGY
&END GLOBAL

&FORCE_EVAL
  &DFT
    &QS
      METHOD xTB
    &END QS
    &SCF
      IGNORE_CONVERGENCE_FAILURE
      MAX_SCF 1
      SCF_GUESS MOPAC
    &END SCF
  &END DFT
  &SUBSYS
    &CELL
      CELL_FILE_FORMAT CIF
      CELL_FILE_NAME ./3mppa-ase.cif
    &END CELL
    &TOPOLOGY
      COORD_FILE_FORMAT CIF
      COORD_FILE_NAME ./3mppa-ase.cif
    &END TOPOLOGY
  &END SUBSYS
&END FORCE_EVAL
