&GLOBAL
  PROJECT TTcif
  RUN_TYPE ENERGY
  PRINT_LEVEL MEDIUM
&END GLOBAL
&FORCE_EVAL
  &DFT
    &QS
      METHOD xTB
    &END QS
    &SCF
      SCF_GUESS MOPAC
      MAX_SCF  1
    &END SCF
  &END DFT
  &SUBSYS
    &CELL
      CELL_FILE_FORMAT CIF
      CELL_FILE_NAME ./3mppa-ase.cif
    &END CELL
    &TOPOLOGY
        COORD_FILE_FORMAT CIF
        COORD_FILE_NAME ./3mppa-ase.cif
    &END TOPOLOGY
  &END SUBSYS
&END FORCE_EVAL
