&FORCE_EVAL
  &DFT
    &QS
      METHOD xTB
      EPS_DEFAULT 1.e-20
    &END QS
    &SCF
      SCF_GUESS MOPAC
      MAX_SCF  100
      EPS_SCF 1.e-7
      &MIXING
          METHOD DIRECT_P_MIXING
          ALPHA  0.25
      &END
    &END SCF
  &END DFT
  &SUBSYS
    &CELL
      ABC 50.0 50.0 50.0
      PERIODIC NONE
    &END CELL
    &COORD
      UNIT bohr
      Ge  -3.39874643043472       -4.01470780614121       -0.44939364256650
      C   -1.83012419531724       -0.72898048268275        0.01105957740361
      C   -3.33584401225513        1.39014235858404        0.46266593519790
      C   -2.27540995739323        3.78067702202717        0.62560750762232
      C    0.29306369000571        4.12684813184200        0.22933334952560
      C    1.78325801486577        2.03199469277215       -0.26784602698338
      C    0.77987061431911       -0.39885893080704       -0.26853941047668
      Br   5.32464879107919        2.28349004134681       -1.15978603272256
      Se   1.42499916195133        7.58476231230337        0.30358879914351
      H    2.41203752045514        7.46246284005211        2.84510519753514
      As   2.93621897151093       -3.26872177795188       -1.01133070408410
      H   -2.36800368228599       -5.32700081950070       -2.71118295809180
      H   -6.15874721052891       -3.61683259176122       -0.85553820855862
      H   -3.09706380550098       -5.71763934645348        1.76637909062781
      H   -5.36906095249758        1.17838227887655        0.69105380651079
      H   -3.45842908180573        5.40558386709454        1.01497851984573
      H    1.55986592009116       -5.00565990263980        0.75431334302819
      H    4.84624111080161       -2.74004424957440        0.96454266403193
      N   10.24726417379918        2.46084924631809       -2.63151835057047
      H   10.56683469099903        4.32680477931036       -2.89472671707715
      H   11.40643321701529        1.78609499750762       -1.28319752188469
      H   10.49767956221763        1.52079842521758       -4.26576071972244
      Cu   5.59870125302597        7.07758629465432       -1.42226333468593
      Cl   9.08329788071989        8.66487588957582       -2.70790308690072
    &END COORD
  &END SUBSYS
&END FORCE_EVAL
&GLOBAL
  PROJECT test
  RUN_TYPE ENERGY_FORCE
  PRINT_LEVEL MEDIUM
&END GLOBAL
