&FORCE_EVAL
  STRESS_TENSOR ANALYTICAL
  &PROPERTIES
     &ATOMIC
        ENERGY 
        PRESSURE
     &END ATOMIC
  &END PROPERTIES
  METHOD Quickstep
  &DFT
    &QS
      METHOD xTB
      EPS_DEFAULT 1.0E-12
    &xTB
     DO_EWALD T
     CHECK_ATOMIC_CHARGES OFF
      DO_NONBONDED T
        &NONBONDED
         &GENPOT
          ATOMS Br Xe
          FUNCTION Aparam*exp(-Bparam*r)-Cparam/r**8 
          PARAMETERS Aparam Bparam Cparam 
          VALUES 49.507 1.441 6703.192
          VARIABLES r
         &END GENPOT
        &END NONBONDED
    &END XTB
    &END QS
    &SCF
      SCF_GUESS RESTART
      EPS_SCF 1.0E-8
      MAX_SCF 50
      &OT
        MINIMIZER DIIS
        PRECONDITIONER FULL_S_INVERSE
      &END
      &OUTER_SCF
         EPS_SCF 1.0E-8
         MAX_SCF 10
      &END
    &END SCF
  &END DFT
  &SUBSYS
    &CELL
      ABC 20.0 20.0 20.0
    &END CELL
    &COORD
      C -0.000001   -1.540826   -0.000000
      H  1.041396   -1.871752   -0.000000
      H -0.520681   -1.871772    0.901873
      H -0.520681   -1.871772   -0.901873
      Br -0.000001    0.424579    0.000000
      Xe -0.000000   3.0   -0.000000
    &END COORD
  &END SUBSYS
&END FORCE_EVAL
&GLOBAL
  PROJECT  CH3Br-Xe
  PRINT_LEVEL LOW
  RUN_TYPE MD
&END GLOBAL
&MOTION
  &MD
    ENSEMBLE NVE
    STEPS 3
    TIMESTEP 0.48
    TEMPERATURE 330.0
  &END MD
&END MOTION
