#CPQA INCLUDE dir-1/water.inp
#CPQA INCLUDE dir-2/water.inp
&GLOBAL
  PROJECT farming-9
  PROGRAM FARMING
  RUN_TYPE NONE
&END GLOBAL
&FARMING
  NGROUPS 2
  &JOB
    DIRECTORY dir-1
    INPUT_FILE_NAME water.inp
    OUTPUT_FILE_NAME foo.out
  &END JOB
  &JOB
    DIRECTORY dir-2
    INPUT_FILE_NAME water.inp
    OUTPUT_FILE_NAME bar.out
  &END JOB
&END FARMING
